\ Model PLCP_GUROBI_GRID_PSCLP_n100_m5000_d1_100_f10_100_s2
\ LP format - for model browsing. Use MPS format to capture full model detail.
\ Signature: 0x8a668901f4b24a38
Minimize
  10 y[0] + 43 y[1] + 49 y[2] + 29 y[3] + 40 y[4] + 55 y[5] + 44 y[6]
   + 58 y[7] + 94 y[8] + 80 y[9] + 38 y[10] + 86 y[11] + 63 y[12]
   + 19 y[13] + 16 y[14] + 92 y[15] + 34 y[16] + 46 y[17] + 64 y[18]
   + 34 y[19] + 64 y[20] + 25 y[21] + 33 y[22] + 23 y[23] + 73 y[24]
   + 41 y[25] + 97 y[26] + 65 y[27] + 68 y[28] + 51 y[29] + 31 y[30]
   + 31 y[31] + 84 y[32] + 33 y[33] + 51 y[34] + 77 y[35] + 42 y[36]
   + 48 y[37] + 34 y[38] + 35 y[39] + 27 y[40] + 62 y[41] + 20 y[42]
   + 43 y[43] + 35 y[44] + 26 y[45] + 34 y[46] + 59 y[47] + 25 y[48]
   + 89 y[49] + 46 y[50] + 80 y[51] + 13 y[52] + 32 y[53] + 93 y[54]
   + 39 y[55] + 63 y[56] + 52 y[57] + 94 y[58] + 31 y[59] + 93 y[60]
   + 24 y[61] + 52 y[62] + 40 y[63] + 47 y[64] + 56 y[65] + 70 y[66]
   + 42 y[67] + 94 y[68] + 95 y[69] + 68 y[70] + 74 y[71] + 19 y[72]
   + 78 y[73] + 17 y[74] + 98 y[75] + 58 y[76] + 95 y[77] + 19 y[78]
   + 73 y[79] + 83 y[80] + 55 y[81] + 15 y[82] + 49 y[83] + 41 y[84]
   + 98 y[85] + 78 y[86] + 94 y[87] + 13 y[88] + 34 y[89] + 24 y[90]
   + 96 y[91] + 48 y[92] + 30 y[93] + 89 y[94] + 49 y[95] + 76 y[96]
   + 59 y[97] + 81 y[98] + 70 y[99]
Subject To
 R0: y[0] + y[15] + y[16] + y[23] + y[24] + y[27] + y[41] + y[42] + y[71]
   + y[80] + y[82] + y[94] - z[0] >= 0
 R1: y[5] + y[7] + y[9] + y[11] + y[13] + y[17] + y[51] + y[53] + y[54]
   + y[55] + y[64] + y[68] + y[77] + y[95] + y[97] + y[99] - z[1] >= 0
 R2: y[5] + y[7] + y[9] + y[11] + y[13] + y[17] + y[51] + y[53] + y[64]
   + y[68] + y[97] - z[2] >= 0
 R3: y[20] + y[35] + y[36] + y[39] + y[57] + y[98] - z[3] >= 0
 R4: y[0] + y[4] + y[10] + y[15] + y[28] + y[30] + y[31] + y[43] + y[47]
   + y[67] + y[70] + y[80] + y[82] + y[89] + y[94] - z[4] >= 0
 R5: y[16] + y[23] + y[24] + y[25] + y[27] + y[33] + y[37] + y[42] + y[59]
   + y[63] + y[71] + y[73] + y[76] + y[80] + y[94] - z[5] >= 0
 R6: y[6] + y[20] + y[40] + y[48] + y[57] + y[60] + y[72] + y[79] + y[86]
   + y[88] + y[91] + y[92] + y[96] - z[6] >= 0
 R7: y[0] + y[4] + y[15] + y[16] + y[23] + y[27] + y[28] + y[30] + y[33]
   + y[42] + y[43] + y[63] + y[71] + y[80] + y[82] + y[94] - z[7] >= 0
 R8: y[8] + y[12] + y[19] + y[22] + y[26] + y[34] + y[38] + y[45] + y[46]
   + y[47] + y[58] + y[61] + y[67] + y[70] + y[74] + y[75] + y[87] - z[8]
   >= 0
 R9: y[6] + y[48] + y[86] + y[91] + y[92] - z[9] >= 0
 R10: y[9] + y[13] + y[31] + y[40] + y[54] + y[55] + y[60] + y[79] + y[99]
   - z[10] >= 0
 R11: y[6] + y[48] + y[57] + y[72] + y[86] + y[91] + y[92] - z[11] >= 0
 R12: y[9] + y[13] + y[31] + y[40] + y[54] + y[55] + y[60] + y[79] + y[99]
   - z[12] >= 0
 R13: y[18] + y[19] + y[26] + y[29] + y[34] + y[44] + y[50] + y[52] + y[58]
   + y[62] + y[69] + y[74] + y[75] + y[85] + y[90] + y[93] - z[13] >= 0
 R14: y[0] + y[4] + y[15] + y[27] + y[28] + y[30] + y[43] + y[47] + y[67]
   + y[70] + y[80] + y[82] + y[94] - z[14] >= 0
 R15: y[21] + y[84] + y[98] - z[15] >= 0
 R16: y[0] + y[12] + y[15] + y[27] + y[30] + y[47] + y[67] + y[70] + y[82]
   + y[94] - z[16] >= 0
 R17: y[4] + y[10] + y[27] + y[28] + y[30] + y[31] + y[33] + y[43] + y[59]
   + y[63] + y[80] + y[89] + y[94] - z[17] >= 0
 R18: y[29] + y[34] + y[50] + y[52] + y[62] + y[74] + y[75] + y[90] - z[18]
   >= 0
 R19: y[7] + y[16] + y[23] + y[25] + y[27] + y[33] + y[37] + y[42] + y[53]
   + y[59] + y[63] + y[73] + y[76] + y[80] + y[95] - z[19] >= 0
 R20: y[0] + y[4] + y[12] + y[15] + y[28] + y[30] + y[43] + y[47] + y[67]
   + y[70] + y[80] + y[82] + y[94] - z[20] >= 0
 R21: y[8] + y[12] + y[22] + y[34] + y[38] + y[45] + y[46] + y[58] + y[61]
   + y[74] + y[75] + y[87] - z[21] >= 0
 R22: y[17] + y[64] + y[66] + y[77] + y[97] - z[22] >= 0
 R23: y[9] + y[11] + y[13] + y[40] + y[54] + y[55] + y[60] + y[79] + y[99]
   - z[23] >= 0
 R24: y[11] + y[17] + y[64] + y[66] + y[77] + y[97] - z[24] >= 0
 R25: y[2] + y[18] + y[19] + y[26] + y[32] + y[35] + y[44] + y[49] + y[50]
   + y[56] + y[69] + y[78] + y[81] + y[83] + y[84] + y[85] + y[90] + y[93]
   - z[25] >= 0
 R26: y[12] + y[19] + y[26] + y[32] + y[38] + y[44] + y[47] + y[49] + y[56]
   + y[67] + y[69] + y[78] + y[81] + y[83] + y[87] - z[26] >= 0
 R27: y[3] + y[40] + y[54] + y[60] + y[66] + y[77] + y[99] - z[27] >= 0
 R28: y[29] + y[50] + y[52] + y[62] + y[74] + y[75] + y[90] + y[93] - z[28]
   >= 0
 R29: y[16] + y[23] + y[25] + y[27] + y[28] + y[30] + y[33] + y[37] + y[42]
   + y[43] + y[59] + y[63] + y[71] + y[73] + y[76] + y[80] + y[94] - z[29]
   >= 0
 R30: y[0] + y[4] + y[12] + y[15] + y[30] + y[47] + y[67] + y[70] + y[82]
   + y[94] - z[30] >= 0
 R31: y[1] + y[14] + y[65] + y[98] - z[31] >= 0
 R32: y[0] + y[4] + y[15] + y[16] + y[27] + y[28] + y[30] + y[33] + y[43]
   + y[80] + y[82] + y[94] - z[32] >= 0
 R33: y[0] + y[4] + y[15] + y[16] + y[23] + y[27] + y[28] + y[30] + y[33]
   + y[43] + y[80] + y[82] + y[94] - z[33] >= 0
 R34: y[4] + y[10] + y[15] + y[27] + y[28] + y[30] + y[31] + y[33] + y[43]
   + y[80] + y[82] + y[89] + y[94] - z[34] >= 0
 R35: y[6] + y[20] + y[48] + y[57] + y[72] + y[86] + y[91] + y[92] - z[35]
   >= 0
 R36: y[2] + y[10] + y[31] + y[32] + y[35] + y[44] + y[49] + y[56] + y[69]
   + y[78] + y[81] + y[83] + y[88] + y[89] + y[96] - z[36] >= 0
 R37: y[20] + y[21] + y[36] + y[39] + y[84] + y[98] - z[37] >= 0
 R38: y[0] + y[4] + y[12] + y[15] + y[30] + y[47] + y[67] + y[70] + y[80]
   + y[82] + y[94] - z[38] >= 0
 R39: y[4] + y[10] + y[28] + y[30] + y[31] + y[33] + y[43] + y[55] + y[59]
   + y[63] + y[79] + y[80] + y[89] - z[39] >= 0
 R40: y[0] + y[16] + y[41] + y[71] + y[82] - z[40] >= 0
 R41: y[1] + y[14] + y[39] + y[65] + y[98] - z[41] >= 0
 R42: y[0] + y[4] + y[10] + y[15] + y[27] + y[28] + y[30] + y[33] + y[43]
   + y[80] + y[82] + y[89] + y[94] - z[42] >= 0
 R43: y[18] + y[19] + y[26] + y[44] + y[49] + y[50] + y[56] + y[69] + y[74]
   + y[75] + y[78] + y[81] + y[83] + y[84] + y[85] + y[90] + y[93] - z[43]
   >= 0
 R44: y[3] + y[40] + y[48] + y[60] + y[72] + y[86] + y[91] - z[44] >= 0
 R45: y[1] + y[6] + y[14] + y[20] + y[48] + y[57] + y[65] + y[86] + y[91]
   + y[92] - z[45] >= 0
 R46: y[5] + y[7] + y[9] + y[11] + y[13] + y[17] + y[51] + y[53] + y[59]
   + y[64] + y[68] + y[95] - z[46] >= 0
 R47: y[2] + y[18] + y[19] + y[26] + y[32] + y[35] + y[44] + y[49] + y[50]
   + y[56] + y[69] + y[78] + y[81] + y[83] + y[84] + y[85] + y[90] + y[93]
   - z[47] >= 0
 R48: y[34] + y[52] + y[58] + y[62] - z[48] >= 0
 R49: y[18] + y[19] + y[26] + y[32] + y[38] + y[44] + y[47] + y[49] + y[56]
   + y[67] + y[69] + y[78] + y[81] + y[83] + y[85] + y[90] + y[93] - z[49]
   >= 0
 R50: y[0] + y[4] + y[10] + y[15] + y[27] + y[28] + y[30] + y[31] + y[33]
   + y[43] + y[63] + y[80] + y[82] + y[89] + y[94] - z[50] >= 0
 R51: y[3] + y[11] + y[54] + y[66] + y[77] + y[97] - z[51] >= 0
 R52: y[8] + y[19] + y[22] + y[26] + y[29] + y[34] + y[38] + y[44] + y[45]
   + y[50] + y[52] + y[58] + y[62] + y[74] + y[75] + y[87] + y[90] - z[52]
   >= 0
 R53: y[12] + y[19] + y[26] + y[38] + y[44] + y[45] + y[47] + y[49] + y[56]
   + y[67] + y[69] + y[70] + y[78] + y[81] + y[83] + y[87] - z[53] >= 0
 R54: y[0] + y[15] - z[54] >= 0
 R55: y[2] + y[18] + y[21] + y[35] + y[36] + y[39] + y[49] + y[56] + y[69]
   + y[78] + y[81] + y[83] + y[84] + y[85] + y[93] - z[55] >= 0
 R56: y[5] + y[7] + y[9] + y[11] + y[13] + y[17] + y[51] + y[53] + y[64]
   + y[68] + y[95] + y[97] - z[56] >= 0
 R57: y[4] + y[10] + y[27] + y[28] + y[30] + y[31] + y[33] + y[43] + y[55]
   + y[59] + y[63] + y[80] + y[89] + y[94] - z[57] >= 0
 R58: y[24] + y[41] + y[71] - z[58] >= 0
 R59: y[2] + y[18] + y[21] + y[35] + y[36] + y[39] + y[44] + y[49] + y[50]
   + y[56] + y[69] + y[78] + y[81] + y[83] + y[84] + y[85] + y[93] - z[59]
   >= 0
 R60: y[5] + y[7] + y[13] + y[23] + y[25] + y[37] + y[42] + y[51] + y[53]
   + y[59] + y[63] + y[68] + y[76] + y[95] - z[60] >= 0
 R61: y[0] + y[4] + y[12] + y[15] + y[30] + y[47] + y[67] + y[70] + y[82]
   + y[94] - z[61] >= 0
 R62: y[0] + y[15] + y[16] + y[24] + y[27] + y[41] + y[71] + y[80] + y[82]
   + y[94] - z[62] >= 0
 R63: y[8] + y[12] + y[19] + y[22] + y[26] + y[38] + y[45] + y[46] + y[47]
   + y[61] + y[67] + y[70] + y[87] - z[63] >= 0
 R64: y[0] + y[15] + y[16] + y[23] + y[24] + y[25] + y[27] + y[30] + y[37]
   + y[41] + y[42] + y[71] + y[73] + y[80] + y[82] + y[94] - z[64] >= 0
 R65: y[2] + y[4] + y[10] + y[31] + y[32] + y[43] + y[49] + y[55] + y[78]
   + y[79] + y[81] + y[83] + y[88] + y[89] + y[96] - z[65] >= 0
 R66: y[2] + y[20] + y[35] + y[36] + y[39] + y[48] + y[57] + y[72] + y[86]
   + y[88] + y[91] + y[92] + y[96] - z[66] >= 0
 R67: y[2] + y[4] + y[10] + y[31] + y[32] + y[35] + y[43] + y[49] + y[56]
   + y[78] + y[81] + y[83] + y[89] + y[96] - z[67] >= 0
 R68: y[18] + y[19] + y[26] + y[29] + y[34] + y[38] + y[44] + y[50] + y[52]
   + y[58] + y[62] + y[74] + y[75] + y[87] + y[90] + y[93] - z[68] >= 0
 R69: y[8] + y[12] + y[18] + y[19] + y[22] + y[26] + y[38] + y[44] + y[45]
   + y[46] + y[47] + y[50] + y[58] + y[62] + y[67] + y[69] + y[74] + y[75]
   + y[87] + y[90] + y[93] - z[69] >= 0
 R70: y[7] + y[9] + y[13] + y[25] + y[33] + y[37] + y[51] + y[53] + y[55]
   + y[59] + y[63] + y[68] + y[76] + y[95] - z[70] >= 0
 R71: y[12] + y[18] + y[19] + y[26] + y[38] + y[44] + y[45] + y[46] + y[47]
   + y[49] + y[50] + y[56] + y[58] + y[62] + y[67] + y[69] + y[74] + y[75]
   + y[78] + y[83] + y[85] + y[87] + y[90] + y[93] - z[71] >= 0
 R72: y[0] + y[15] + y[41] + y[82] - z[72] >= 0
 R73: y[18] + y[19] + y[26] + y[38] + y[44] + y[47] + y[49] + y[50] + y[56]
   + y[67] + y[69] + y[74] + y[75] + y[78] + y[81] + y[83] + y[85] + y[90]
   + y[93] - z[73] >= 0
 R74: y[7] + y[13] + y[23] + y[25] + y[33] + y[37] + y[42] + y[51] + y[53]
   + y[59] + y[63] + y[68] + y[76] + y[95] - z[74] >= 0
 R75: y[18] + y[19] + y[26] + y[29] + y[34] + y[38] + y[44] + y[50] + y[52]
   + y[58] + y[62] + y[69] + y[74] + y[75] + y[90] + y[93] - z[75] >= 0
 R76: y[16] + y[23] + y[24] + y[25] + y[27] + y[37] + y[41] + y[42] + y[71]
   + y[73] + y[76] - z[76] >= 0
 R77: y[0] + y[4] + y[10] + y[15] + y[16] + y[27] + y[28] + y[30] + y[33]
   + y[43] + y[80] + y[82] + y[94] - z[77] >= 0
 R78: y[3] + y[40] + y[48] + y[54] + y[60] + y[72] + y[77] + y[86] + y[99]
   - z[78] >= 0
 R79: y[10] + y[28] + y[31] + y[32] + y[33] + y[43] + y[55] + y[63] + y[79]
   + y[89] + y[99] - z[79] >= 0
 R80: y[3] + y[9] + y[11] + y[13] + y[17] + y[40] + y[54] + y[60] + y[64]
   + y[66] + y[77] + y[97] - z[80] >= 0
 R81: y[5] + y[7] + y[9] + y[11] + y[13] + y[17] + y[51] + y[53] + y[54]
   + y[64] + y[66] + y[68] + y[77] + y[97] - z[81] >= 0
 R82: y[2] + y[20] + y[32] + y[35] + y[36] + y[39] + y[48] + y[57] + y[72]
   + y[79] + y[81] + y[86] + y[88] + y[96] - z[82] >= 0
 R83: y[4] + y[10] + y[16] + y[23] + y[25] + y[27] + y[28] + y[30] + y[31]
   + y[33] + y[37] + y[43] + y[59] + y[63] + y[80] + y[89] + y[94] - z[83]
   >= 0
 R84: y[8] + y[22] + y[34] + y[52] + y[58] + y[62] + y[74] + y[75] - z[84]
   >= 0
 R85: y[8] + y[12] + y[22] + y[38] + y[45] + y[46] + y[47] + y[58] + y[61]
   + y[67] + y[70] + y[87] - z[85] >= 0
 R86: y[4] + y[19] + y[26] + y[32] + y[38] + y[44] + y[47] + y[49] + y[56]
   + y[67] + y[78] + y[81] + y[83] - z[86] >= 0
 R87: y[3] + y[11] + y[40] + y[54] + y[60] + y[66] + y[77] + y[97] + y[99]
   - z[87] >= 0
 R88: y[3] + y[40] + y[54] + y[60] + y[66] + y[77] - z[88] >= 0
 R89: y[10] + y[13] + y[25] + y[28] + y[31] + y[33] + y[37] + y[43] + y[53]
   + y[55] + y[59] + y[63] + y[68] + y[80] + y[89] - z[89] >= 0
 R90: y[8] + y[12] + y[15] + y[22] + y[38] + y[45] + y[46] + y[47] + y[61]
   + y[67] + y[70] + y[87] - z[90] >= 0
 R91: y[2] + y[20] + y[32] + y[35] + y[36] + y[39] + y[49] + y[56] + y[69]
   + y[78] + y[81] + y[83] + y[85] + y[88] + y[96] - z[91] >= 0
 R92: y[0] + y[15] + y[70] + y[82] + y[94] - z[92] >= 0
 R93: y[1] + y[6] + y[20] + y[35] + y[36] + y[39] + y[57] + y[88] + y[92]
   + y[98] - z[93] >= 0
 R94: y[29] + y[50] + y[52] + y[62] + y[74] + y[75] + y[90] + y[93] - z[94]
   >= 0
 R95: y[0] + y[15] + y[27] + y[30] + y[70] + y[80] + y[82] + y[94] - z[95]
   >= 0
 R96: y[7] + y[16] + y[23] + y[25] + y[33] + y[37] + y[42] + y[51] + y[53]
   + y[59] + y[63] + y[73] + y[76] + y[95] - z[96] >= 0
 R97: y[39] + y[98] - z[97] >= 0
 R98: y[0] + y[16] + y[23] + y[24] + y[25] + y[27] + y[37] + y[41] + y[42]
   + y[71] + y[73] + y[80] + y[82] + y[94] - z[98] >= 0
 R99: y[11] + y[17] + y[64] + y[66] + y[77] + y[97] - z[99] >= 0
 R100: y[9] + y[11] + y[13] + y[40] + y[53] + y[54] + y[55] + y[59] + y[60]
   + y[68] + y[79] + y[99] - z[100] >= 0
 R101: y[1] + y[14] + y[65] + y[98] - z[101] >= 0
 R102: y[16] + y[23] + y[24] + y[25] + y[37] + y[42] + y[71] + y[73]
   + y[76] - z[102] >= 0
 R103: y[18] + y[19] + y[21] + y[26] + y[44] + y[49] + y[50] + y[56]
   + y[69] + y[74] + y[75] + y[78] + y[81] + y[83] + y[84] + y[85] + y[90]
   + y[93] - z[103] >= 0
 R104: y[0] + y[41] - z[104] >= 0
 R105: y[1] + y[14] + y[20] + y[36] + y[39] + y[57] + y[65] + y[98]
   - z[105] >= 0
 R106: y[5] + y[7] + y[9] + y[13] + y[17] + y[25] + y[37] + y[51] + y[53]
   + y[59] + y[63] + y[68] + y[76] + y[95] - z[106] >= 0
 R107: y[4] + y[10] + y[27] + y[28] + y[30] + y[31] + y[33] + y[43] + y[59]
   + y[63] + y[80] + y[82] + y[89] + y[94] - z[107] >= 0
 R108: y[8] + y[12] + y[19] + y[22] + y[26] + y[38] + y[44] + y[45] + y[46]
   + y[47] + y[58] + y[61] + y[67] + y[70] + y[74] + y[75] + y[87] - z[108]
   >= 0
 R109: y[5] + y[7] + y[9] + y[11] + y[13] + y[17] + y[51] + y[53] + y[55]
   + y[59] + y[63] + y[68] + y[95] - z[109] >= 0
 R110: y[4] + y[10] + y[28] + y[30] + y[31] + y[33] + y[43] + y[55] + y[59]
   + y[63] + y[79] + y[80] + y[89] - z[110] >= 0
 R111: y[18] + y[19] + y[21] + y[44] + y[49] + y[50] + y[56] + y[69]
   + y[78] + y[81] + y[83] + y[84] + y[85] + y[90] + y[93] - z[111] >= 0
 R112: y[1] + y[14] + y[39] + y[65] + y[98] - z[112] >= 0
 R113: y[16] + y[24] + y[41] + y[71] - z[113] >= 0
 R114: y[16] + y[23] + y[24] + y[41] + y[42] + y[71] + y[73] - z[114] >= 0
 R115: y[16] + y[23] + y[24] + y[25] + y[27] + y[37] + y[42] + y[71]
   + y[73] + y[76] - z[115] >= 0
 R116: y[34] + y[52] + y[58] + y[62] + y[74] + y[75] - z[116] >= 0
 R117: y[3] + y[9] + y[11] + y[17] + y[54] + y[64] + y[66] + y[77] + y[97]
   - z[117] >= 0
 R118: y[3] + y[11] + y[40] + y[54] + y[60] + y[66] + y[77] + y[99]
   - z[118] >= 0
 R119: y[10] + y[28] + y[31] + y[33] + y[43] + y[55] + y[59] + y[63]
   + y[79] + y[80] + y[89] - z[119] >= 0
 R120: y[18] + y[19] + y[29] + y[34] + y[44] + y[50] + y[52] + y[62]
   + y[69] + y[74] + y[75] + y[90] + y[93] - z[120] >= 0
 R121: y[0] + y[15] + y[41] + y[82] - z[121] >= 0
 R122: y[2] + y[20] + y[21] + y[35] + y[36] + y[39] + y[57] + y[84] + y[85]
   + y[88] + y[98] - z[122] >= 0
 R123: y[4] + y[10] + y[28] + y[30] + y[31] + y[32] + y[33] + y[43] + y[49]
   + y[78] + y[79] + y[81] + y[89] - z[123] >= 0
 R124: y[2] + y[20] + y[32] + y[35] + y[36] + y[39] + y[49] + y[56] + y[57]
   + y[78] + y[81] + y[83] + y[88] + y[96] + y[98] - z[124] >= 0
 R125: y[16] + y[41] + y[71] - z[125] >= 0
 R126: y[3] + y[11] + y[17] + y[54] + y[64] + y[66] + y[77] + y[97]
   - z[126] >= 0
 R127: y[8] + y[12] + y[15] + y[22] + y[38] + y[45] + y[46] + y[47] + y[61]
   + y[67] + y[70] + y[87] - z[127] >= 0
 R128: y[2] + y[20] + y[32] + y[35] + y[36] + y[39] + y[49] + y[56] + y[69]
   + y[78] + y[81] + y[83] + y[85] + y[88] + y[96] - z[128] >= 0
 R129: y[5] + y[7] + y[9] + y[11] + y[13] + y[17] + y[51] + y[53] + y[54]
   + y[55] + y[64] + y[68] + y[95] + y[97] - z[129] >= 0
 R130: y[8] + y[12] + y[19] + y[22] + y[26] + y[34] + y[38] + y[44] + y[45]
   + y[46] + y[47] + y[58] + y[62] + y[67] + y[74] + y[75] + y[87] + y[90]
   - z[130] >= 0
 R131: y[5] + y[7] + y[9] + y[13] + y[17] + y[51] + y[53] + y[68] + y[76]
   + y[95] - z[131] >= 0
 R132: y[0] + y[15] + y[16] + y[24] + y[27] + y[41] + y[71] + y[82] + y[94]
   - z[132] >= 0
 R133: y[2] + y[4] + y[10] + y[31] + y[32] + y[35] + y[49] + y[56] + y[78]
   + y[81] + y[83] + y[88] + y[89] + y[96] - z[133] >= 0
 R134: y[5] + y[9] + y[11] + y[13] + y[17] + y[64] + y[66] + y[68] + y[77]
   + y[97] - z[134] >= 0
 R135: y[11] + y[17] + y[64] + y[66] + y[77] + y[97] - z[135] >= 0
 R136: y[16] + y[23] + y[24] + y[25] + y[27] + y[37] + y[42] + y[63]
   + y[71] + y[73] + y[76] - z[136] >= 0
 R137: y[5] + y[11] + y[17] + y[64] + y[66] + y[97] - z[137] >= 0
 R138: y[18] + y[21] + y[50] + y[69] + y[84] + y[85] + y[90] + y[93]
   - z[138] >= 0
 R139: y[31] + y[40] + y[55] + y[60] + y[72] + y[79] + y[99] - z[139] >= 0
 R140: y[5] + y[7] + y[13] + y[23] + y[25] + y[37] + y[42] + y[51] + y[53]
   + y[59] + y[63] + y[68] + y[76] + y[95] - z[140] >= 0
 R141: y[8] + y[12] + y[19] + y[22] + y[26] + y[34] + y[38] + y[44] + y[45]
   + y[46] + y[47] + y[58] + y[61] + y[62] + y[67] + y[70] + y[74] + y[75]
   + y[87] + y[90] - z[141] >= 0
 R142: y[0] + y[4] + y[12] + y[15] + y[30] + y[38] + y[47] + y[67] + y[70]
   + y[82] + y[87] + y[94] - z[142] >= 0
 R143: y[0] + y[15] + y[16] + y[23] + y[24] + y[27] + y[30] + y[41] + y[71]
   + y[80] + y[82] + y[94] - z[143] >= 0
 R144: y[18] + y[19] + y[26] + y[44] + y[49] + y[50] + y[56] + y[62]
   + y[69] + y[74] + y[75] + y[78] + y[83] + y[84] + y[85] + y[90] + y[93]
   - z[144] >= 0
 R145: y[18] + y[21] + y[36] + y[39] + y[50] + y[69] + y[84] + y[85]
   + y[93] + y[98] - z[145] >= 0
 R146: y[3] + y[40] + y[48] + y[60] + y[72] + y[86] + y[91] + y[99]
   - z[146] >= 0
 R147: y[5] + y[7] + y[9] + y[11] + y[13] + y[17] + y[51] + y[53] + y[55]
   + y[59] + y[68] + y[95] - z[147] >= 0
 R148: y[5] + y[7] + y[9] + y[11] + y[13] + y[17] + y[51] + y[53] + y[64]
   + y[68] + y[95] - z[148] >= 0
 R149: y[0] + y[15] + y[16] + y[24] + y[27] + y[41] + y[71] + y[82] + y[94]
   - z[149] >= 0
 R150: y[12] + y[15] + y[19] + y[26] + y[38] + y[45] + y[46] + y[47]
   + y[61] + y[67] + y[70] + y[87] - z[150] >= 0
 R151: y[5] + y[7] + y[9] + y[11] + y[13] + y[17] + y[51] + y[53] + y[59]
   + y[63] + y[68] + y[76] + y[95] - z[151] >= 0
 R152: y[8] + y[12] + y[15] + y[22] + y[26] + y[38] + y[45] + y[46] + y[47]
   + y[61] + y[67] + y[70] + y[87] - z[152] >= 0
 R153: y[2] + y[4] + y[10] + y[31] + y[32] + y[35] + y[43] + y[49] + y[56]
   + y[78] + y[81] + y[83] + y[88] + y[89] + y[96] - z[153] >= 0
 R154: y[6] + y[40] + y[48] + y[60] + y[72] + y[86] + y[91] + y[92]
   - z[154] >= 0
 R155: y[5] + y[7] + y[9] + y[13] + y[25] + y[37] + y[51] + y[53] + y[55]
   + y[59] + y[63] + y[68] + y[76] + y[95] - z[155] >= 0
 R156: y[3] + y[40] + y[48] + y[54] + y[60] + y[72] + y[79] + y[86] + y[99]
   - z[156] >= 0
 R157: y[1] + y[6] + y[14] + y[20] + y[48] + y[57] + y[65] + y[86] + y[91]
   + y[92] - z[157] >= 0
 R158: y[11] + y[17] + y[64] + y[66] + y[77] + y[97] - z[158] >= 0
 R159: y[5] + y[9] + y[11] + y[13] + y[17] + y[51] + y[53] + y[54] + y[64]
   + y[66] + y[68] + y[77] + y[97] - z[159] >= 0
 R160: y[0] + y[15] + y[41] + y[82] - z[160] >= 0
 R161: y[3] + y[9] + y[40] + y[54] + y[55] + y[60] + y[72] + y[79] + y[99]
   - z[161] >= 0
 R162: y[18] + y[21] + y[50] + y[69] + y[84] + y[85] + y[93] - z[162] >= 0
 R163: y[3] + y[40] + y[48] + y[54] + y[60] + y[86] - z[163] >= 0
 R164: y[7] + y[9] + y[13] + y[33] + y[51] + y[53] + y[55] + y[59] + y[63]
   + y[68] + y[95] - z[164] >= 0
 R165: y[5] + y[7] + y[9] + y[11] + y[13] + y[17] + y[51] + y[53] + y[54]
   + y[64] + y[68] + y[77] + y[95] + y[97] - z[165] >= 0
 R166: y[18] + y[19] + y[26] + y[29] + y[38] + y[44] + y[45] + y[50]
   + y[52] + y[58] + y[62] + y[67] + y[69] + y[74] + y[75] + y[85] + y[87]
   + y[90] + y[93] - z[166] >= 0
 R167: y[0] + y[4] + y[10] + y[15] + y[27] + y[28] + y[30] + y[31] + y[33]
   + y[43] + y[47] + y[80] + y[82] + y[89] + y[94] - z[167] >= 0
 R168: y[3] + y[40] + y[54] + y[60] + y[66] + y[77] + y[99] - z[168] >= 0
 R169: y[1] + y[6] + y[14] + y[20] + y[39] + y[57] + y[65] + y[91] + y[92]
   + y[98] - z[169] >= 0
 R170: y[1] + y[6] + y[14] + y[65] + y[92] + y[98] - z[170] >= 0
 R171: y[4] + y[10] + y[15] + y[28] + y[30] + y[31] + y[32] + y[33] + y[43]
   + y[47] + y[49] + y[78] + y[80] + y[82] + y[83] + y[89] + y[94] - z[171]
   >= 0
 R172: y[18] + y[19] + y[26] + y[29] + y[38] + y[44] + y[45] + y[47]
   + y[50] + y[52] + y[58] + y[62] + y[67] + y[69] + y[74] + y[75] + y[85]
   + y[87] + y[90] + y[93] - z[172] >= 0
 R173: y[3] + y[9] + y[11] + y[17] + y[40] + y[54] + y[55] + y[60] + y[66]
   + y[77] + y[99] - z[173] >= 0
 R174: y[16] + y[23] + y[24] + y[25] + y[27] + y[28] + y[30] + y[33]
   + y[37] + y[42] + y[43] + y[59] + y[63] + y[71] + y[73] + y[76] + y[80]
   + y[94] - z[174] >= 0
 R175: y[2] + y[18] + y[19] + y[32] + y[35] + y[44] + y[49] + y[56] + y[69]
   + y[78] + y[81] + y[83] + y[84] + y[85] + y[93] - z[175] >= 0
 R176: y[0] + y[15] + y[61] + y[70] + y[82] - z[176] >= 0
 R177: y[0] + y[16] + y[23] + y[24] + y[25] + y[27] + y[28] + y[30] + y[33]
   + y[37] + y[42] + y[43] + y[59] + y[63] + y[71] + y[73] + y[76] + y[80]
   + y[82] + y[94] - z[177] >= 0
 R178: y[2] + y[31] + y[32] + y[35] + y[49] + y[72] + y[79] + y[81] + y[88]
   + y[89] + y[96] - z[178] >= 0
 R179: y[3] + y[9] + y[11] + y[13] + y[40] + y[54] + y[55] + y[60] + y[79]
   + y[99] - z[179] >= 0
 R180: y[4] + y[10] + y[16] + y[23] + y[25] + y[27] + y[28] + y[30] + y[33]
   + y[37] + y[42] + y[43] + y[59] + y[63] + y[76] + y[80] + y[94] - z[180]
   >= 0
 R181: y[8] + y[12] + y[22] + y[38] + y[45] + y[46] + y[47] + y[61] + y[67]
   + y[70] + y[87] - z[181] >= 0
 R182: y[6] + y[48] + y[57] + y[72] + y[86] + y[91] + y[92] - z[182] >= 0
 R183: y[3] + y[40] + y[54] + y[60] + y[66] + y[77] + y[99] - z[183] >= 0
 R184: y[19] + y[29] + y[34] + y[50] + y[52] + y[58] + y[62] + y[74]
   + y[75] + y[90] - z[184] >= 0
 R185: y[1] + y[6] + y[14] + y[20] + y[36] + y[39] + y[57] + y[65] + y[91]
   + y[92] + y[98] - z[185] >= 0
 R186: y[16] + y[23] + y[24] + y[25] + y[27] + y[37] + y[42] + y[71]
   + y[73] + y[76] - z[186] >= 0
 R187: y[3] + y[5] + y[9] + y[11] + y[13] + y[17] + y[51] + y[54] + y[64]
   + y[66] + y[68] + y[77] + y[97] - z[187] >= 0
 R188: y[4] + y[10] + y[28] + y[30] + y[31] + y[32] + y[43] + y[47] + y[49]
   + y[56] + y[78] + y[81] + y[83] + y[89] - z[188] >= 0
 R189: y[2] + y[20] + y[32] + y[35] + y[36] + y[39] + y[57] + y[72] + y[81]
   + y[88] + y[96] + y[98] - z[189] >= 0
 R190: y[18] + y[19] + y[21] + y[26] + y[44] + y[49] + y[50] + y[56]
   + y[69] + y[74] + y[75] + y[78] + y[81] + y[83] + y[84] + y[85] + y[90]
   + y[93] - z[190] >= 0
 R191: y[0] + y[16] + y[23] + y[24] + y[27] + y[41] + y[42] + y[71] + y[73]
   - z[191] >= 0
 R192: y[0] + y[4] + y[10] + y[15] + y[27] + y[28] + y[30] + y[31] + y[33]
   + y[43] + y[47] + y[70] + y[80] + y[82] + y[89] + y[94] - z[192] >= 0
 R193: y[40] + y[48] + y[60] + y[72] + y[86] + y[91] - z[193] >= 0
 R194: y[1] + y[14] + y[57] + y[65] + y[92] + y[98] - z[194] >= 0
 R195: y[8] + y[12] + y[19] + y[22] + y[26] + y[34] + y[38] + y[44] + y[45]
   + y[46] + y[47] + y[58] + y[61] + y[62] + y[67] + y[70] + y[74] + y[75]
   + y[87] + y[90] - z[195] >= 0
 R196: y[0] + y[4] + y[15] + y[16] + y[23] + y[27] + y[28] + y[30] + y[33]
   + y[43] + y[80] + y[82] + y[94] - z[196] >= 0
 R197: y[3] + y[9] + y[11] + y[17] + y[54] + y[64] + y[66] + y[77] + y[97]
   - z[197] >= 0
 R198: y[7] + y[13] + y[23] + y[25] + y[28] + y[33] + y[37] + y[42] + y[43]
   + y[51] + y[53] + y[55] + y[59] + y[63] + y[68] + y[76] + y[80] + y[95]
   - z[198] >= 0
 R199: y[8] + y[22] + y[29] + y[34] + y[52] + y[58] + y[62] + y[74] + y[75]
   + y[90] - z[199] >= 0
 R200: y[2] + y[20] + y[32] + y[35] + y[36] + y[39] + y[48] + y[57] + y[72]
   + y[86] + y[88] + y[92] + y[96] - z[200] >= 0
 R201: y[1] + y[20] + y[35] + y[36] + y[39] + y[57] + y[98] - z[201] >= 0
 R202: y[1] + y[14] + y[65] - z[202] >= 0
 R203: y[2] + y[4] + y[10] + y[31] + y[32] + y[35] + y[49] + y[56] + y[78]
   + y[81] + y[83] + y[88] + y[89] + y[96] - z[203] >= 0
 R204: y[0] + y[4] + y[10] + y[15] + y[27] + y[28] + y[30] + y[33] + y[43]
   + y[70] + y[80] + y[82] + y[94] - z[204] >= 0
 R205: y[0] + y[16] + y[24] + y[27] + y[41] + y[71] + y[82] + y[94]
   - z[205] >= 0
 R206: y[12] + y[19] + y[26] + y[38] + y[44] + y[45] + y[46] + y[47]
   + y[49] + y[56] + y[67] + y[70] + y[78] + y[83] + y[87] - z[206] >= 0
 R207: y[0] + y[15] + y[41] + y[82] - z[207] >= 0
 R208: y[40] + y[48] + y[57] + y[60] + y[72] + y[79] + y[86] + y[88]
   + y[91] + y[92] + y[96] + y[99] - z[208] >= 0
 R209: y[7] + y[23] + y[25] + y[37] + y[42] + y[51] + y[53] + y[59] + y[63]
   + y[73] + y[76] + y[95] - z[209] >= 0
 R210: y[2] + y[6] + y[20] + y[35] + y[36] + y[39] + y[48] + y[57] + y[72]
   + y[86] + y[88] + y[91] + y[92] + y[96] - z[210] >= 0
 R211: y[6] + y[48] + y[57] + y[72] + y[86] + y[91] + y[92] - z[211] >= 0
 R212: y[1] + y[14] + y[65] + y[98] - z[212] >= 0
 R213: y[18] + y[19] + y[26] + y[29] + y[34] + y[38] + y[44] + y[50]
   + y[52] + y[58] + y[62] + y[69] + y[74] + y[75] + y[87] + y[90] + y[93]
   - z[213] >= 0
 R214: y[9] + y[11] + y[13] + y[40] + y[54] + y[55] + y[59] + y[60] + y[68]
   + y[79] + y[99] - z[214] >= 0
 R215: y[3] + y[11] + y[40] + y[54] + y[60] + y[66] + y[77] + y[97] + y[99]
   - z[215] >= 0
 R216: y[0] + y[15] + y[70] + y[82] + y[94] - z[216] >= 0
 R217: y[19] + y[26] + y[32] + y[44] + y[47] + y[49] + y[56] + y[67]
   + y[69] + y[78] + y[81] + y[83] + y[85] + y[89] - z[217] >= 0
 R218: y[16] + y[23] + y[24] + y[27] + y[41] + y[42] + y[71] + y[73]
   - z[218] >= 0
 R219: y[18] + y[21] + y[44] + y[50] + y[56] + y[69] + y[83] + y[84]
   + y[85] + y[90] + y[93] - z[219] >= 0
 R220: y[3] + y[40] + y[54] + y[60] + y[77] - z[220] >= 0
 R221: y[8] + y[12] + y[22] + y[38] + y[45] + y[46] + y[47] + y[61] + y[67]
   + y[70] + y[87] - z[221] >= 0
 R222: y[3] + y[9] + y[11] + y[17] + y[40] + y[54] + y[60] + y[64] + y[66]
   + y[77] + y[97] + y[99] - z[222] >= 0
 R223: y[5] + y[7] + y[9] + y[11] + y[13] + y[17] + y[51] + y[53] + y[54]
   + y[64] + y[68] + y[77] + y[95] + y[97] - z[223] >= 0
 R224: y[8] + y[12] + y[19] + y[22] + y[26] + y[34] + y[38] + y[45] + y[46]
   + y[47] + y[58] + y[61] + y[67] + y[70] + y[74] + y[75] + y[87] - z[224]
   >= 0
 R225: y[0] + y[4] + y[10] + y[15] + y[16] + y[23] + y[25] + y[27] + y[28]
   + y[30] + y[33] + y[37] + y[42] + y[43] + y[59] + y[63] + y[80] + y[82]
   + y[89] + y[94] - z[225] >= 0
 R226: y[1] + y[6] + y[14] + y[20] + y[39] + y[57] + y[65] + y[91] + y[92]
   + y[98] - z[226] >= 0
 R227: y[3] + y[9] + y[11] + y[40] + y[54] + y[55] + y[60] + y[66] + y[77]
   + y[79] + y[99] - z[227] >= 0
 R228: y[8] + y[12] + y[19] + y[22] + y[26] + y[38] + y[45] + y[46] + y[47]
   + y[58] + y[61] + y[67] + y[70] + y[74] + y[87] - z[228] >= 0
 R229: y[11] + y[17] + y[64] + y[66] + y[77] + y[97] - z[229] >= 0
 R230: y[18] + y[19] + y[26] + y[29] + y[38] + y[44] + y[50] + y[56]
   + y[62] + y[69] + y[74] + y[75] + y[84] + y[85] + y[90] + y[93] - z[230]
   >= 0
 R231: y[18] + y[19] + y[26] + y[29] + y[34] + y[38] + y[44] + y[50]
   + y[52] + y[58] + y[62] + y[69] + y[74] + y[75] + y[90] + y[93] - z[231]
   >= 0
 R232: y[4] + y[10] + y[28] + y[30] + y[31] + y[32] + y[33] + y[43] + y[55]
   + y[59] + y[63] + y[80] + y[89] - z[232] >= 0
 R233: y[2] + y[4] + y[10] + y[31] + y[32] + y[35] + y[49] + y[56] + y[78]
   + y[81] + y[83] + y[88] + y[89] + y[96] - z[233] >= 0
 R234: y[2] + y[18] + y[19] + y[26] + y[32] + y[35] + y[44] + y[49] + y[56]
   + y[69] + y[78] + y[81] + y[83] + y[85] - z[234] >= 0
 R235: y[29] + y[34] + y[52] + y[58] + y[62] + y[74] + y[75] - z[235] >= 0
 R236: y[4] + y[10] + y[28] + y[30] + y[31] + y[32] + y[33] + y[43] + y[63]
   + y[80] + y[89] - z[236] >= 0
 R237: y[5] + y[7] + y[9] + y[11] + y[13] + y[17] + y[51] + y[53] + y[59]
   + y[64] + y[68] + y[95] - z[237] >= 0
 R238: y[0] + y[15] + y[16] + y[27] + y[30] + y[70] + y[80] + y[82] + y[94]
   - z[238] >= 0
 R239: y[12] + y[15] + y[45] + y[46] + y[61] + y[67] + y[70] - z[239] >= 0
 R240: y[9] + y[11] + y[13] + y[40] + y[53] + y[54] + y[55] + y[59] + y[60]
   + y[68] + y[79] + y[99] - z[240] >= 0
 R241: y[0] + y[12] + y[15] + y[67] + y[70] + y[82] + y[94] - z[241] >= 0
 R242: y[2] + y[20] + y[32] + y[35] + y[36] + y[48] + y[57] + y[72] + y[79]
   + y[86] + y[88] + y[96] - z[242] >= 0
 R243: y[18] + y[29] + y[34] + y[50] + y[52] + y[62] + y[74] + y[75]
   + y[90] + y[93] - z[243] >= 0
 R244: y[1] + y[6] + y[14] + y[57] + y[65] + y[91] + y[92] - z[244] >= 0
 R245: y[5] + y[7] + y[9] + y[11] + y[13] + y[17] + y[51] + y[53] + y[55]
   + y[59] + y[63] + y[68] + y[95] - z[245] >= 0
 R246: y[0] + y[41] - z[246] >= 0
 R247: y[2] + y[20] + y[35] + y[36] + y[39] + y[57] + y[84] + y[88] + y[98]
   - z[247] >= 0
 R248: y[4] + y[10] + y[28] + y[30] + y[31] + y[32] + y[33] + y[43] + y[47]
   + y[49] + y[78] + y[80] + y[81] + y[83] + y[89] - z[248] >= 0
 R249: y[16] + y[24] + y[41] + y[71] - z[249] >= 0
 R250: y[1] + y[6] + y[14] + y[65] + y[91] + y[92] - z[250] >= 0
 R251: y[0] + y[15] + y[16] + y[23] + y[24] + y[27] + y[30] + y[41] + y[42]
   + y[71] + y[73] + y[80] + y[82] + y[94] - z[251] >= 0
 R252: y[0] + y[4] + y[10] + y[15] + y[27] + y[28] + y[30] + y[43] + y[47]
   + y[67] + y[70] + y[80] + y[82] + y[94] - z[252] >= 0
 R253: y[1] + y[20] + y[36] + y[39] + y[57] + y[65] + y[98] - z[253] >= 0
 R254: y[0] + y[4] + y[10] + y[15] + y[27] + y[28] + y[30] + y[31] + y[33]
   + y[43] + y[47] + y[80] + y[82] + y[89] + y[94] - z[254] >= 0
 R255: y[2] + y[20] + y[35] + y[36] + y[39] + y[57] + y[88] + y[92] + y[96]
   + y[98] - z[255] >= 0
 R256: y[16] + y[23] + y[24] + y[41] + y[42] + y[71] + y[73] - z[256] >= 0
 R257: y[2] + y[20] + y[35] + y[36] + y[39] + y[56] + y[57] + y[81] + y[84]
   + y[85] + y[88] + y[96] + y[98] - z[257] >= 0
 R258: y[1] + y[20] + y[36] + y[39] + y[57] + y[92] + y[98] - z[258] >= 0
 R259: y[2] + y[20] + y[35] + y[36] + y[39] + y[57] + y[88] + y[98]
   - z[259] >= 0
 R260: y[6] + y[14] + y[48] + y[57] + y[86] + y[91] + y[92] - z[260] >= 0
 R261: y[3] + y[11] + y[40] + y[54] + y[60] + y[66] + y[77] + y[99]
   - z[261] >= 0
 R262: y[29] + y[34] + y[52] + y[58] + y[62] + y[74] + y[75] + y[90]
   - z[262] >= 0
 R263: y[2] + y[4] + y[10] + y[31] + y[32] + y[35] + y[49] + y[56] + y[78]
   + y[81] + y[83] + y[89] - z[263] >= 0
 R264: y[2] + y[31] + y[32] + y[35] + y[55] + y[72] + y[79] + y[81] + y[88]
   + y[89] + y[96] + y[99] - z[264] >= 0
 R265: y[4] + y[10] + y[19] + y[26] + y[32] + y[38] + y[44] + y[47] + y[49]
   + y[56] + y[67] + y[78] + y[81] + y[83] + y[89] - z[265] >= 0
 R266: y[2] + y[20] + y[35] + y[36] + y[39] + y[48] + y[57] + y[72] + y[79]
   + y[86] + y[88] + y[91] + y[92] + y[96] - z[266] >= 0
 R267: y[8] + y[12] + y[22] + y[38] + y[45] + y[46] + y[47] + y[61] + y[67]
   + y[70] + y[87] - z[267] >= 0
 R268: y[18] + y[21] + y[50] + y[69] + y[84] + y[85] + y[93] - z[268] >= 0
 R269: y[18] + y[19] + y[21] + y[26] + y[44] + y[49] + y[50] + y[56]
   + y[69] + y[78] + y[81] + y[83] + y[84] + y[85] + y[90] + y[93] - z[269]
   >= 0
 R270: y[2] + y[18] + y[20] + y[21] + y[32] + y[35] + y[36] + y[39] + y[49]
   + y[56] + y[69] + y[78] + y[81] + y[83] + y[84] + y[85] + y[88] + y[93]
   + y[98] - z[270] >= 0
 R271: y[5] + y[7] + y[9] + y[11] + y[13] + y[17] + y[51] + y[53] + y[54]
   + y[64] + y[66] + y[68] + y[77] + y[97] - z[271] >= 0
 R272: y[1] + y[6] + y[14] + y[20] + y[39] + y[48] + y[57] + y[72] + y[86]
   + y[91] + y[92] - z[272] >= 0
 R273: y[10] + y[28] + y[31] + y[32] + y[33] + y[43] + y[55] + y[79]
   + y[89] + y[96] + y[99] - z[273] >= 0
 R274: y[12] + y[19] + y[26] + y[38] + y[44] + y[45] + y[46] + y[47]
   + y[49] + y[56] + y[67] + y[70] + y[78] + y[83] + y[87] - z[274] >= 0
 R275: y[0] + y[4] + y[15] + y[16] + y[23] + y[27] + y[28] + y[30] + y[33]
   + y[42] + y[43] + y[63] + y[80] + y[82] + y[94] - z[275] >= 0
 R276: y[7] + y[9] + y[13] + y[25] + y[28] + y[33] + y[37] + y[43] + y[51]
   + y[53] + y[55] + y[59] + y[63] + y[68] + y[76] + y[95] - z[276] >= 0
 R277: y[0] + y[15] + y[16] + y[27] + y[30] + y[41] + y[71] + y[80] + y[82]
   + y[94] - z[277] >= 0
 R278: y[6] + y[20] + y[35] + y[36] + y[39] + y[48] + y[57] + y[72] + y[86]
   + y[88] + y[91] + y[92] + y[96] - z[278] >= 0
 R279: y[8] + y[12] + y[19] + y[22] + y[26] + y[38] + y[44] + y[45] + y[46]
   + y[47] + y[58] + y[61] + y[67] + y[70] + y[74] + y[87] - z[279] >= 0
 R280: y[0] + y[4] + y[12] + y[15] + y[30] + y[47] + y[67] + y[70] + y[80]
   + y[82] + y[94] - z[280] >= 0
 R281: y[8] + y[12] + y[22] + y[38] + y[45] + y[46] + y[47] + y[61] + y[67]
   + y[70] + y[87] - z[281] >= 0
 R282: y[29] + y[34] + y[52] + y[58] + y[62] + y[74] + y[75] - z[282] >= 0
 R283: y[11] + y[17] + y[64] + y[66] + y[77] + y[97] - z[283] >= 0
 R284: y[40] + y[48] + y[60] + y[72] + y[79] + y[86] + y[91] + y[99]
   - z[284] >= 0
 R285: y[0] + y[4] + y[10] + y[15] + y[16] + y[27] + y[28] + y[30] + y[33]
   + y[43] + y[80] + y[82] + y[89] + y[94] - z[285] >= 0
 R286: y[4] + y[10] + y[27] + y[28] + y[30] + y[31] + y[33] + y[43] + y[63]
   + y[80] + y[89] + y[94] - z[286] >= 0
 R287: y[0] + y[16] + y[24] + y[41] + y[71] - z[287] >= 0
 R288: y[10] + y[13] + y[28] + y[31] + y[33] + y[43] + y[55] + y[59]
   + y[63] + y[79] + y[80] + y[89] - z[288] >= 0
 R289: y[6] + y[20] + y[48] + y[57] + y[72] + y[86] + y[91] + y[92]
   - z[289] >= 0
 R290: y[1] + y[6] + y[14] + y[20] + y[57] + y[65] + y[91] + y[92] - z[290]
   >= 0
 R291: y[41] - z[291] >= 0
 R292: y[4] + y[10] + y[28] + y[30] + y[31] + y[32] + y[33] + y[43] + y[49]
   + y[78] + y[80] + y[81] + y[83] + y[89] - z[292] >= 0
 R293: y[0] + y[15] + y[16] + y[24] + y[27] + y[41] + y[71] + y[82] + y[94]
   - z[293] >= 0
 R294: y[3] + y[9] + y[11] + y[13] + y[17] + y[40] + y[54] + y[55] + y[60]
   + y[64] + y[66] + y[68] + y[77] + y[97] + y[99] - z[294] >= 0
 R295: y[9] + y[13] + y[31] + y[33] + y[55] + y[59] + y[63] + y[68] + y[79]
   + y[99] - z[295] >= 0
 R296: y[5] + y[7] + y[9] + y[11] + y[13] + y[17] + y[51] + y[53] + y[64]
   + y[68] + y[97] - z[296] >= 0
 R297: y[6] + y[20] + y[48] + y[57] + y[86] + y[91] + y[92] - z[297] >= 0
 R298: y[1] + y[14] + y[20] + y[36] + y[39] + y[57] + y[65] + y[92] + y[98]
   - z[298] >= 0
 R299: y[18] + y[19] + y[21] + y[29] + y[44] + y[50] + y[56] + y[62]
   + y[69] + y[74] + y[75] + y[84] + y[85] + y[90] + y[93] - z[299] >= 0
 R300: y[8] + y[12] + y[19] + y[22] + y[26] + y[38] + y[44] + y[45] + y[46]
   + y[47] + y[58] + y[61] + y[67] + y[70] + y[87] - z[300] >= 0
 R301: y[6] + y[48] + y[86] + y[91] + y[92] - z[301] >= 0
 R302: y[6] + y[20] + y[35] + y[48] + y[57] + y[72] + y[79] + y[86] + y[88]
   + y[91] + y[92] + y[96] - z[302] >= 0
 R303: y[3] + y[5] + y[9] + y[11] + y[13] + y[17] + y[54] + y[64] + y[66]
   + y[77] + y[97] - z[303] >= 0
 R304: y[3] + y[9] + y[11] + y[13] + y[40] + y[54] + y[55] + y[60] + y[77]
   + y[79] + y[99] - z[304] >= 0
 R305: y[8] + y[12] + y[19] + y[22] + y[26] + y[34] + y[38] + y[44] + y[45]
   + y[46] + y[52] + y[58] + y[61] + y[62] + y[67] + y[74] + y[75] + y[87]
   + y[90] - z[305] >= 0
 R306: y[6] + y[14] + y[48] + y[57] + y[65] + y[86] + y[91] + y[92]
   - z[306] >= 0
 R307: y[0] + y[16] + y[23] + y[24] + y[27] + y[41] + y[42] + y[71] + y[73]
   - z[307] >= 0
 R308: y[0] + y[4] + y[10] + y[15] + y[27] + y[28] + y[30] + y[31] + y[33]
   + y[43] + y[80] + y[82] + y[89] + y[94] - z[308] >= 0
 R309: y[10] + y[13] + y[28] + y[31] + y[33] + y[43] + y[55] + y[59]
   + y[63] + y[79] + y[89] + y[99] - z[309] >= 0
 R310: y[5] + y[7] + y[9] + y[11] + y[13] + y[17] + y[25] + y[37] + y[51]
   + y[53] + y[59] + y[63] + y[68] + y[76] + y[95] - z[310] >= 0
 R311: y[0] + y[15] + y[16] + y[27] + y[41] + y[71] + y[82] + y[94]
   - z[311] >= 0
 R312: y[3] + y[40] + y[48] + y[54] + y[60] + y[72] + y[79] + y[86] + y[99]
   - z[312] >= 0
 R313: y[16] + y[23] + y[24] + y[25] + y[27] + y[37] + y[42] + y[71]
   + y[73] + y[76] - z[313] >= 0
 R314: y[6] + y[20] + y[48] + y[57] + y[72] + y[86] + y[91] + y[92]
   - z[314] >= 0
 R315: y[12] + y[19] + y[26] + y[38] + y[44] + y[45] + y[46] + y[47]
   + y[56] + y[58] + y[67] + y[69] + y[70] + y[74] + y[75] + y[78] + y[83]
   + y[87] + y[90] + y[93] - z[315] >= 0
 R316: y[16] + y[23] + y[24] + y[25] + y[27] + y[37] + y[42] + y[59]
   + y[63] + y[71] + y[73] + y[76] - z[316] >= 0
 R317: y[7] + y[9] + y[11] + y[13] + y[51] + y[53] + y[55] + y[59] + y[63]
   + y[68] + y[79] + y[95] + y[99] - z[317] >= 0
 R318: y[16] + y[23] + y[24] + y[25] + y[27] + y[28] + y[30] + y[33]
   + y[37] + y[42] + y[43] + y[59] + y[63] + y[71] + y[73] + y[76] + y[80]
   + y[94] - z[318] >= 0
 R319: y[2] + y[4] + y[10] + y[28] + y[31] + y[32] + y[43] + y[49] + y[56]
   + y[78] + y[81] + y[83] + y[89] + y[96] - z[319] >= 0
 R320: y[0] + y[16] + y[23] + y[24] + y[25] + y[27] + y[37] + y[42] + y[63]
   + y[71] + y[73] + y[76] + y[80] + y[94] - z[320] >= 0
 R321: y[6] + y[20] + y[40] + y[48] + y[57] + y[72] + y[86] + y[88] + y[91]
   + y[92] + y[96] - z[321] >= 0
 R322: y[9] + y[11] + y[13] + y[17] + y[40] + y[51] + y[53] + y[54] + y[55]
   + y[59] + y[60] + y[68] + y[79] + y[99] - z[322] >= 0
 R323: y[5] + y[7] + y[9] + y[13] + y[17] + y[25] + y[37] + y[51] + y[53]
   + y[59] + y[68] + y[76] + y[95] - z[323] >= 0
 R324: y[18] + y[21] + y[29] + y[50] + y[62] + y[69] + y[75] + y[84]
   + y[85] + y[90] + y[93] - z[324] >= 0
 R325: y[0] + y[15] + y[16] + y[27] + y[41] + y[71] + y[82] + y[94]
   - z[325] >= 0
 R326: y[18] + y[21] + y[29] + y[50] + y[69] + y[84] + y[85] + y[90]
   + y[93] - z[326] >= 0
 R327: y[16] + y[23] + y[25] + y[27] + y[28] + y[30] + y[33] + y[37]
   + y[42] + y[43] + y[59] + y[63] + y[73] + y[76] + y[80] + y[82] + y[94]
   - z[327] >= 0
 R328: y[0] + y[4] + y[15] + y[16] + y[27] + y[28] + y[30] + y[33] + y[43]
   + y[80] + y[82] + y[94] - z[328] >= 0
 R329: y[6] + y[20] + y[48] + y[57] + y[72] + y[86] + y[91] + y[92]
   - z[329] >= 0
 R330: y[16] + y[23] + y[24] + y[25] + y[27] + y[33] + y[37] + y[42]
   + y[59] + y[63] + y[71] + y[73] + y[76] + y[80] - z[330] >= 0
 R331: y[0] + y[15] + y[16] + y[23] + y[24] + y[27] + y[41] + y[42] + y[71]
   + y[73] + y[82] + y[94] - z[331] >= 0
 R332: y[18] + y[19] + y[26] + y[32] + y[44] + y[49] + y[50] + y[56]
   + y[69] + y[74] + y[75] + y[78] + y[81] + y[83] + y[84] + y[85] + y[90]
   + y[93] - z[332] >= 0
 R333: y[1] + y[6] + y[14] + y[20] + y[57] + y[65] + y[91] + y[92] + y[98]
   - z[333] >= 0
 R334: y[18] + y[19] + y[26] + y[32] + y[44] + y[47] + y[49] + y[50]
   + y[56] + y[69] + y[74] + y[75] + y[78] + y[81] + y[83] + y[84] + y[85]
   + y[90] + y[93] - z[334] >= 0
 R335: y[3] + y[40] + y[54] + y[55] + y[60] + y[72] + y[77] + y[79] + y[99]
   - z[335] >= 0
 R336: y[6] + y[48] + y[57] + y[86] + y[91] + y[92] - z[336] >= 0
 R337: y[6] + y[20] + y[48] + y[57] + y[72] + y[86] + y[91] + y[92]
   - z[337] >= 0
 R338: y[2] + y[20] + y[35] + y[36] + y[39] + y[48] + y[57] + y[72] + y[86]
   + y[88] + y[91] + y[92] + y[96] - z[338] >= 0
 R339: y[2] + y[31] + y[32] + y[35] + y[72] + y[79] + y[81] + y[88] + y[89]
   + y[96] + y[99] - z[339] >= 0
 R340: y[5] + y[7] + y[9] + y[11] + y[13] + y[17] + y[51] + y[53] + y[64]
   + y[68] + y[95] + y[97] - z[340] >= 0
 R341: y[8] + y[12] + y[22] + y[34] + y[38] + y[45] + y[46] + y[58] + y[61]
   + y[87] - z[341] >= 0
 R342: y[3] + y[11] + y[17] + y[54] + y[64] + y[66] + y[77] + y[97]
   - z[342] >= 0
 R343: y[4] + y[10] + y[27] + y[28] + y[30] + y[31] + y[33] + y[43] + y[63]
   + y[80] + y[82] + y[89] + y[94] - z[343] >= 0
 R344: y[0] + y[16] + y[41] + y[71] + y[82] - z[344] >= 0
 R345: y[0] + y[4] + y[10] + y[15] + y[16] + y[27] + y[28] + y[30] + y[33]
   + y[43] + y[63] + y[80] + y[82] + y[89] + y[94] - z[345] >= 0
 R346: y[4] + y[10] + y[28] + y[30] + y[31] + y[32] + y[33] + y[43] + y[49]
   + y[78] + y[80] + y[81] + y[83] + y[89] - z[346] >= 0
 R347: y[0] + y[4] + y[12] + y[15] + y[26] + y[30] + y[38] + y[45] + y[46]
   + y[47] + y[67] + y[70] + y[82] + y[87] + y[94] - z[347] >= 0
 R348: y[18] + y[19] + y[21] + y[26] + y[29] + y[44] + y[50] + y[56]
   + y[62] + y[69] + y[74] + y[75] + y[84] + y[85] + y[90] + y[93] - z[348]
   >= 0
 R349: y[5] + y[7] + y[9] + y[13] + y[25] + y[37] + y[51] + y[53] + y[59]
   + y[63] + y[68] + y[76] + y[95] - z[349] >= 0
 R350: y[2] + y[18] + y[19] + y[26] + y[32] + y[35] + y[44] + y[49] + y[56]
   + y[69] + y[78] + y[81] + y[83] + y[85] + y[93] - z[350] >= 0
 R351: y[0] + y[4] + y[10] + y[15] + y[27] + y[28] + y[30] + y[31] + y[33]
   + y[43] + y[47] + y[80] + y[82] + y[89] + y[94] - z[351] >= 0
 R352: y[0] + y[15] + y[70] + y[82] + y[94] - z[352] >= 0
 R353: y[0] + y[41] - z[353] >= 0
 R354: y[1] + y[6] + y[20] + y[35] + y[36] + y[39] + y[57] + y[92] + y[98]
   - z[354] >= 0
 R355: y[6] + y[20] + y[48] + y[57] + y[72] + y[86] + y[91] + y[92]
   - z[355] >= 0
 R356: y[4] + y[10] + y[28] + y[30] + y[31] + y[32] + y[33] + y[43] + y[49]
   + y[78] + y[80] + y[81] + y[83] + y[89] - z[356] >= 0
 R357: y[21] + y[35] + y[36] + y[39] + y[84] + y[85] + y[98] - z[357] >= 0
 R358: y[0] + y[4] + y[10] + y[15] + y[16] + y[27] + y[28] + y[30] + y[33]
   + y[43] + y[80] + y[82] + y[89] + y[94] - z[358] >= 0
 R359: y[5] + y[7] + y[13] + y[23] + y[25] + y[37] + y[42] + y[51] + y[53]
   + y[59] + y[68] + y[73] + y[76] + y[95] - z[359] >= 0
 R360: y[0] + y[4] + y[10] + y[15] + y[27] + y[28] + y[30] + y[31] + y[33]
   + y[43] + y[63] + y[80] + y[82] + y[89] + y[94] - z[360] >= 0
 R361: y[1] + y[6] + y[14] + y[20] + y[36] + y[39] + y[57] + y[65] + y[91]
   + y[92] + y[98] - z[361] >= 0
 R362: y[18] + y[19] + y[21] + y[26] + y[29] + y[44] + y[50] + y[56]
   + y[62] + y[69] + y[74] + y[75] + y[83] + y[84] + y[85] + y[90] + y[93]
   - z[362] >= 0
 R363: y[98] - z[363] >= 0
 R364: y[8] + y[12] + y[22] + y[26] + y[38] + y[45] + y[46] + y[47] + y[58]
   + y[61] + y[67] + y[70] + y[87] - z[364] >= 0
 R365: y[0] + y[4] + y[15] + y[16] + y[23] + y[25] + y[27] + y[28] + y[30]
   + y[33] + y[37] + y[42] + y[43] + y[59] + y[63] + y[80] + y[82] + y[94]
   - z[365] >= 0
 R366: y[2] + y[31] + y[32] + y[35] + y[55] + y[72] + y[79] + y[88] + y[89]
   + y[96] + y[99] - z[366] >= 0
 R367: y[6] + y[20] + y[48] + y[57] + y[72] + y[86] + y[91] + y[92]
   - z[367] >= 0
 R368: y[1] + y[6] + y[14] + y[20] + y[39] + y[48] + y[57] + y[65] + y[86]
   + y[91] + y[92] + y[98] - z[368] >= 0
 R369: y[18] + y[21] + y[36] + y[39] + y[84] + y[85] + y[98] - z[369] >= 0
 R370: y[2] + y[31] + y[32] + y[35] + y[36] + y[39] + y[49] + y[56] + y[78]
   + y[81] + y[83] + y[88] + y[89] + y[96] - z[370] >= 0
 R371: y[0] + y[12] + y[15] + y[45] + y[46] + y[47] + y[61] + y[67] + y[70]
   + y[82] + y[87] - z[371] >= 0
 R372: y[18] + y[21] + y[29] + y[50] + y[62] + y[69] + y[74] + y[75]
   + y[84] + y[85] + y[90] + y[93] - z[372] >= 0
 R373: y[18] + y[19] + y[26] + y[38] + y[44] + y[47] + y[49] + y[50]
   + y[56] + y[67] + y[69] + y[74] + y[75] + y[78] + y[81] + y[83] + y[85]
   + y[87] + y[90] + y[93] - z[373] >= 0
 R374: y[2] + y[20] + y[35] + y[36] + y[39] + y[48] + y[57] + y[72] + y[86]
   + y[88] + y[91] + y[92] + y[96] - z[374] >= 0
 R375: y[1] + y[6] + y[14] + y[65] + y[91] + y[92] - z[375] >= 0
 R376: y[5] + y[7] + y[9] + y[11] + y[13] + y[17] + y[51] + y[53] + y[64]
   + y[68] + y[95] - z[376] >= 0
 R377: y[1] + y[6] + y[14] + y[20] + y[39] + y[57] + y[65] + y[91] + y[92]
   + y[98] - z[377] >= 0
 R378: y[1] + y[14] + y[65] + y[98] - z[378] >= 0
 R379: y[2] + y[31] + y[32] + y[35] + y[72] + y[79] + y[81] + y[88] + y[89]
   + y[96] - z[379] >= 0
 R380: y[1] + y[6] + y[14] + y[20] + y[36] + y[39] + y[57] + y[65] + y[92]
   + y[98] - z[380] >= 0
 R381: y[18] + y[21] + y[29] + y[44] + y[50] + y[62] + y[69] + y[74]
   + y[75] + y[84] + y[85] + y[90] + y[93] - z[381] >= 0
 R382: y[10] + y[31] + y[32] + y[33] + y[43] + y[55] + y[79] + y[89]
   + y[96] + y[99] - z[382] >= 0
 R383: y[0] + y[15] + y[16] + y[24] + y[27] + y[30] + y[41] + y[71] + y[80]
   + y[82] + y[94] - z[383] >= 0
 R384: y[0] + y[12] + y[15] + y[45] + y[46] + y[47] + y[61] + y[67] + y[70]
   + y[82] + y[87] - z[384] >= 0
 R385: y[8] + y[12] + y[19] + y[22] + y[26] + y[34] + y[38] + y[45] + y[46]
   + y[58] + y[61] + y[62] + y[67] + y[74] + y[75] + y[87] - z[385] >= 0
 R386: y[8] + y[12] + y[19] + y[22] + y[26] + y[38] + y[44] + y[45] + y[46]
   + y[47] + y[58] + y[67] + y[70] + y[74] + y[75] + y[87] - z[386] >= 0
 R387: y[5] + y[7] + y[9] + y[11] + y[13] + y[17] + y[51] + y[53] + y[55]
   + y[59] + y[63] + y[68] + y[95] - z[387] >= 0
 R388: y[6] + y[40] + y[48] + y[57] + y[60] + y[72] + y[86] + y[91] + y[92]
   + y[96] - z[388] >= 0
 R389: y[29] + y[34] + y[50] + y[52] + y[58] + y[62] + y[74] + y[75]
   + y[90] + y[93] - z[389] >= 0
 R390: y[2] + y[20] + y[35] + y[40] + y[48] + y[57] + y[60] + y[72] + y[79]
   + y[86] + y[88] + y[91] + y[92] + y[96] + y[99] - z[390] >= 0
 R391: y[5] + y[7] + y[9] + y[11] + y[13] + y[17] + y[37] + y[51] + y[53]
   + y[55] + y[59] + y[63] + y[68] + y[95] - z[391] >= 0
 R392: y[3] + y[40] + y[48] + y[54] + y[60] + y[86] - z[392] >= 0
 R393: y[4] + y[10] + y[28] + y[30] + y[31] + y[32] + y[33] + y[43] + y[49]
   + y[78] + y[80] + y[81] + y[83] + y[89] - z[393] >= 0
 R394: y[8] + y[12] + y[22] + y[34] + y[38] + y[45] + y[46] + y[58] + y[61]
   + y[87] - z[394] >= 0
 R395: y[5] + y[7] + y[9] + y[13] + y[25] + y[37] + y[51] + y[53] + y[59]
   + y[63] + y[68] + y[76] + y[95] - z[395] >= 0
 R396: y[8] + y[12] + y[22] + y[34] + y[38] + y[45] + y[46] + y[58] + y[61]
   + y[87] - z[396] >= 0
 R397: y[18] + y[19] + y[29] + y[34] + y[50] + y[52] + y[58] + y[62]
   + y[74] + y[75] + y[90] + y[93] - z[397] >= 0
 R398: y[8] + y[12] + y[19] + y[22] + y[26] + y[38] + y[45] + y[46] + y[47]
   + y[58] + y[61] + y[67] + y[70] + y[87] - z[398] >= 0
 R399: y[0] + y[15] + y[70] + y[82] - z[399] >= 0
 R400: y[0] + y[15] + y[16] + y[27] + y[41] + y[71] + y[82] + y[94]
   - z[400] >= 0
 R401: y[3] + y[5] + y[9] + y[11] + y[13] + y[17] + y[54] + y[64] + y[66]
   + y[68] + y[77] + y[97] - z[401] >= 0
 R402: y[0] + y[4] + y[10] + y[15] + y[16] + y[27] + y[28] + y[30] + y[33]
   + y[43] + y[80] + y[82] + y[94] - z[402] >= 0
 R403: y[3] + y[40] + y[48] + y[60] + y[72] + y[86] + y[91] + y[99]
   - z[403] >= 0
 R404: y[16] + y[23] + y[25] + y[27] + y[33] + y[37] + y[42] + y[59]
   + y[63] + y[71] + y[73] + y[76] + y[80] + y[95] - z[404] >= 0
 R405: y[5] + y[7] + y[9] + y[11] + y[13] + y[17] + y[51] + y[53] + y[64]
   + y[68] + y[95] - z[405] >= 0
 R406: y[0] + y[15] + y[16] + y[23] + y[24] + y[27] + y[30] + y[41] + y[42]
   + y[71] + y[73] + y[80] + y[82] + y[94] - z[406] >= 0
 R407: y[9] + y[13] + y[31] + y[33] + y[55] + y[59] + y[63] + y[68] + y[79]
   + y[99] - z[407] >= 0
 R408: y[3] + y[5] + y[7] + y[9] + y[11] + y[13] + y[17] + y[51] + y[53]
   + y[54] + y[55] + y[60] + y[64] + y[66] + y[68] + y[77] + y[97] + y[99]
   - z[408] >= 0
 R409: y[11] + y[17] + y[64] + y[66] + y[77] + y[97] - z[409] >= 0
 R410: y[8] + y[12] + y[19] + y[22] + y[26] + y[34] + y[38] + y[44] + y[45]
   + y[46] + y[52] + y[58] + y[62] + y[67] + y[74] + y[75] + y[87] + y[90]
   - z[410] >= 0
 R411: y[2] + y[10] + y[31] + y[32] + y[35] + y[49] + y[55] + y[72] + y[78]
   + y[79] + y[81] + y[83] + y[88] + y[89] + y[96] - z[411] >= 0
 R412: y[16] + y[23] + y[24] + y[25] + y[27] + y[33] + y[37] + y[42]
   + y[59] + y[63] + y[71] + y[73] + y[76] + y[80] + y[95] - z[412] >= 0
 R413: y[2] + y[20] + y[35] + y[36] + y[39] + y[57] + y[88] + y[92] + y[96]
   + y[98] - z[413] >= 0
 R414: y[8] + y[12] + y[15] + y[22] + y[26] + y[38] + y[45] + y[46] + y[47]
   + y[61] + y[67] + y[70] + y[87] - z[414] >= 0
 R415: y[1] + y[2] + y[6] + y[20] + y[35] + y[36] + y[39] + y[57] + y[72]
   + y[88] + y[91] + y[92] + y[96] + y[98] - z[415] >= 0
 R416: y[3] + y[9] + y[11] + y[13] + y[17] + y[40] + y[54] + y[60] + y[64]
   + y[66] + y[77] + y[97] + y[99] - z[416] >= 0
 R417: y[2] + y[20] + y[32] + y[35] + y[36] + y[39] + y[49] + y[56] + y[72]
   + y[78] + y[81] + y[83] + y[88] + y[96] - z[417] >= 0
 R418: y[0] + y[16] + y[24] + y[27] + y[41] + y[71] - z[418] >= 0
 R419: y[0] + y[4] + y[10] + y[12] + y[15] + y[28] + y[30] + y[43] + y[47]
   + y[67] + y[70] + y[80] + y[82] + y[94] - z[419] >= 0
 R420: y[2] + y[10] + y[31] + y[32] + y[35] + y[49] + y[56] + y[78] + y[79]
   + y[81] + y[83] + y[88] + y[89] + y[96] - z[420] >= 0
 R421: y[1] + y[36] + y[39] + y[98] - z[421] >= 0
 R422: y[12] + y[18] + y[19] + y[26] + y[38] + y[44] + y[45] + y[47]
   + y[50] + y[56] + y[58] + y[62] + y[67] + y[69] + y[74] + y[75] + y[85]
   + y[87] + y[90] + y[93] - z[422] >= 0
 R423: y[3] + y[40] + y[54] + y[60] + y[66] + y[77] + y[99] - z[423] >= 0
 R424: y[7] + y[16] + y[23] + y[24] + y[25] + y[37] + y[42] + y[59] + y[63]
   + y[71] + y[73] + y[76] + y[95] - z[424] >= 0
 R425: y[1] + y[6] + y[14] + y[20] + y[36] + y[39] + y[57] + y[65] + y[91]
   + y[92] + y[98] - z[425] >= 0
 R426: y[4] + y[10] + y[26] + y[28] + y[30] + y[31] + y[32] + y[43] + y[47]
   + y[49] + y[56] + y[67] + y[78] + y[81] + y[83] + y[89] - z[426] >= 0
 R427: y[10] + y[31] + y[55] + y[60] + y[79] + y[89] + y[99] - z[427] >= 0
 R428: y[8] + y[12] + y[19] + y[22] + y[26] + y[34] + y[38] + y[44] + y[45]
   + y[46] + y[47] + y[58] + y[61] + y[62] + y[67] + y[74] + y[75] + y[87]
   + y[90] - z[428] >= 0
 R429: y[0] + y[4] + y[10] + y[15] + y[27] + y[28] + y[30] + y[31] + y[33]
   + y[43] + y[80] + y[82] + y[89] + y[94] - z[429] >= 0
 R430: y[0] + y[15] + y[16] + y[27] + y[41] + y[82] + y[94] - z[430] >= 0
 R431: y[5] + y[7] + y[13] + y[23] + y[25] + y[37] + y[42] + y[51] + y[53]
   + y[59] + y[63] + y[68] + y[73] + y[76] + y[95] - z[431] >= 0
 R432: y[1] + y[36] + y[39] + y[98] - z[432] >= 0
 R433: y[16] + y[24] + y[41] + y[71] - z[433] >= 0
 R434: y[2] + y[18] + y[20] + y[21] + y[35] + y[36] + y[39] + y[49] + y[56]
   + y[69] + y[81] + y[83] + y[84] + y[85] + y[88] + y[93] + y[98] - z[434]
   >= 0
 R435: y[0] + y[4] + y[10] + y[15] + y[27] + y[28] + y[30] + y[31] + y[33]
   + y[43] + y[63] + y[80] + y[82] + y[89] + y[94] - z[435] >= 0
 R436: y[16] + y[23] + y[24] + y[25] + y[27] + y[37] + y[42] + y[71]
   + y[73] + y[76] - z[436] >= 0
 R437: y[5] + y[7] + y[9] + y[11] + y[13] + y[17] + y[51] + y[53] + y[54]
   + y[64] + y[66] + y[68] + y[77] + y[97] - z[437] >= 0
 R438: y[2] + y[4] + y[10] + y[28] + y[31] + y[32] + y[43] + y[49] + y[56]
   + y[78] + y[81] + y[83] + y[89] - z[438] >= 0
 R439: y[2] + y[18] + y[20] + y[32] + y[35] + y[36] + y[39] + y[49] + y[56]
   + y[69] + y[78] + y[81] + y[83] + y[84] + y[85] + y[88] + y[96] + y[98]
   - z[439] >= 0
 R440: y[2] + y[20] + y[21] + y[35] + y[36] + y[39] + y[84] + y[85] + y[98]
   - z[440] >= 0
 R441: y[0] + y[4] + y[10] + y[15] + y[27] + y[28] + y[30] + y[31] + y[33]
   + y[43] + y[63] + y[80] + y[82] + y[89] + y[94] - z[441] >= 0
 R442: y[1] + y[39] + y[65] + y[98] - z[442] >= 0
 R443: y[5] + y[7] + y[9] + y[11] + y[13] + y[17] + y[51] + y[53] + y[64]
   + y[68] + y[95] - z[443] >= 0
 R444: y[18] + y[19] + y[21] + y[29] + y[44] + y[50] + y[56] + y[62]
   + y[69] + y[74] + y[75] + y[84] + y[85] + y[90] + y[93] - z[444] >= 0
 R445: y[16] + y[24] + y[41] + y[71] + y[73] - z[445] >= 0
 R446: y[0] + y[12] + y[15] + y[38] + y[45] + y[46] + y[47] + y[61] + y[67]
   + y[70] + y[82] + y[87] - z[446] >= 0
 R447: y[2] + y[18] + y[19] + y[26] + y[32] + y[35] + y[44] + y[49] + y[56]
   + y[69] + y[78] + y[81] + y[83] + y[85] + y[93] - z[447] >= 0
 R448: y[1] + y[2] + y[6] + y[20] + y[35] + y[36] + y[39] + y[57] + y[88]
   + y[91] + y[92] + y[96] + y[98] - z[448] >= 0
 R449: y[2] + y[10] + y[31] + y[32] + y[35] + y[49] + y[72] + y[78] + y[79]
   + y[81] + y[83] + y[88] + y[89] + y[96] - z[449] >= 0
 R450: y[3] + y[9] + y[11] + y[40] + y[54] + y[55] + y[60] + y[66] + y[77]
   + y[99] - z[450] >= 0
 R451: y[18] + y[21] + y[29] + y[44] + y[50] + y[62] + y[69] + y[74]
   + y[75] + y[84] + y[85] + y[90] + y[93] - z[451] >= 0
 R452: y[3] + y[11] + y[54] + y[64] + y[66] + y[77] + y[97] - z[452] >= 0
 R453: y[5] + y[7] + y[9] + y[11] + y[13] + y[17] + y[51] + y[53] + y[54]
   + y[55] + y[59] + y[68] + y[95] + y[99] - z[453] >= 0
 R454: y[3] + y[40] + y[48] + y[54] + y[60] + y[86] + y[99] - z[454] >= 0
 R455: y[0] + y[4] + y[15] + y[16] + y[23] + y[27] + y[28] + y[30] + y[33]
   + y[42] + y[43] + y[63] + y[71] + y[80] + y[82] + y[94] - z[455] >= 0
 R456: y[2] + y[31] + y[32] + y[35] + y[49] + y[72] + y[78] + y[79] + y[81]
   + y[83] + y[88] + y[89] + y[96] - z[456] >= 0
 R457: y[2] + y[32] + y[35] + y[36] + y[49] + y[56] + y[69] + y[78] + y[81]
   + y[83] + y[85] + y[88] + y[96] - z[457] >= 0
 R458: y[31] + y[40] + y[55] + y[60] + y[72] + y[79] + y[99] - z[458] >= 0
 R459: y[0] + y[15] + y[16] + y[23] + y[24] + y[27] + y[28] + y[30] + y[33]
   + y[42] + y[43] + y[71] + y[80] + y[82] + y[94] - z[459] >= 0
 R460: y[16] + y[23] + y[24] + y[25] + y[37] + y[41] + y[42] + y[71]
   + y[73] + y[76] - z[460] >= 0
 R461: y[4] + y[10] + y[28] + y[30] + y[31] + y[32] + y[33] + y[43] + y[55]
   + y[59] + y[63] + y[79] + y[80] + y[89] - z[461] >= 0
 R462: y[0] + y[15] + y[82] - z[462] >= 0
 R463: y[29] + y[34] + y[52] + y[58] + y[62] + y[74] + y[75] + y[90]
   - z[463] >= 0
 R464: y[2] + y[18] + y[19] + y[21] + y[35] + y[44] + y[49] + y[50] + y[56]
   + y[69] + y[78] + y[81] + y[83] + y[84] + y[85] + y[90] + y[93] - z[464]
   >= 0
 R465: y[8] + y[12] + y[19] + y[22] + y[26] + y[38] + y[45] + y[46] + y[47]
   + y[58] + y[61] + y[67] + y[70] + y[74] + y[87] - z[465] >= 0
 R466: y[9] + y[10] + y[13] + y[28] + y[31] + y[33] + y[43] + y[55] + y[59]
   + y[63] + y[79] + y[89] + y[99] - z[466] >= 0
 R467: y[4] + y[10] + y[28] + y[30] + y[31] + y[32] + y[33] + y[43] + y[49]
   + y[78] + y[81] + y[83] + y[89] - z[467] >= 0
 R468: y[2] + y[20] + y[32] + y[35] + y[36] + y[48] + y[57] + y[72] + y[79]
   + y[81] + y[86] + y[88] + y[96] - z[468] >= 0
 R469: y[3] + y[11] + y[54] + y[64] + y[66] + y[77] + y[97] - z[469] >= 0
 R470: y[2] + y[19] + y[26] + y[32] + y[44] + y[47] + y[49] + y[56] + y[69]
   + y[78] + y[81] + y[83] + y[85] + y[89] - z[470] >= 0
 R471: y[0] + y[15] + y[16] + y[27] + y[30] + y[41] + y[80] + y[82] + y[94]
   - z[471] >= 0
 R472: y[11] + y[17] + y[64] + y[66] + y[77] + y[97] - z[472] >= 0
 R473: y[2] + y[18] + y[19] + y[26] + y[32] + y[44] + y[47] + y[49] + y[56]
   + y[69] + y[78] + y[81] + y[83] + y[85] + y[93] - z[473] >= 0
 R474: y[6] + y[40] + y[48] + y[57] + y[72] + y[86] + y[91] + y[92]
   - z[474] >= 0
 R475: y[2] + y[20] + y[32] + y[35] + y[36] + y[39] + y[49] + y[56] + y[57]
   + y[72] + y[78] + y[81] + y[83] + y[88] + y[96] - z[475] >= 0
 R476: y[41] - z[476] >= 0
 R477: y[7] + y[23] + y[25] + y[33] + y[37] + y[42] + y[51] + y[53] + y[59]
   + y[63] + y[68] + y[73] + y[76] + y[95] - z[477] >= 0
 R478: y[41] - z[478] >= 0
 R479: y[6] + y[40] + y[48] + y[57] + y[60] + y[72] + y[86] + y[91] + y[92]
   + y[96] - z[479] >= 0
 R480: y[0] + y[4] + y[12] + y[15] + y[28] + y[30] + y[47] + y[67] + y[70]
   + y[80] + y[82] + y[94] - z[480] >= 0
 R481: y[1] + y[39] + y[65] + y[98] - z[481] >= 0
 R482: y[2] + y[18] + y[19] + y[21] + y[44] + y[49] + y[50] + y[56] + y[69]
   + y[78] + y[81] + y[83] + y[84] + y[85] + y[90] + y[93] - z[482] >= 0
 R483: y[0] + y[4] + y[16] + y[23] + y[25] + y[27] + y[28] + y[30] + y[33]
   + y[37] + y[42] + y[43] + y[59] + y[63] + y[73] + y[76] + y[80] + y[82]
   + y[94] - z[483] >= 0
 R484: y[16] + y[23] + y[24] + y[25] + y[27] + y[33] + y[37] + y[42]
   + y[59] + y[63] + y[71] + y[73] + y[76] + y[80] - z[484] >= 0
 R485: y[9] + y[40] + y[54] + y[55] + y[60] + y[72] + y[79] + y[99]
   - z[485] >= 0
 R486: y[2] + y[20] + y[32] + y[35] + y[36] + y[39] + y[57] + y[81] + y[88]
   + y[96] + y[98] - z[486] >= 0
 R487: y[1] + y[14] + y[20] + y[36] + y[39] + y[57] + y[65] + y[98]
   - z[487] >= 0
 R488: y[2] + y[10] + y[31] + y[32] + y[35] + y[49] + y[72] + y[78] + y[79]
   + y[81] + y[83] + y[88] + y[89] + y[96] - z[488] >= 0
 R489: y[0] + y[16] + y[24] + y[27] + y[41] + y[71] - z[489] >= 0
 R490: y[40] + y[48] + y[55] + y[60] + y[72] + y[79] + y[86] + y[88]
   + y[96] + y[99] - z[490] >= 0
 R491: y[2] + y[20] + y[32] + y[35] + y[36] + y[39] + y[49] + y[56] + y[57]
   + y[81] + y[88] + y[96] + y[98] - z[491] >= 0
 R492: y[1] + y[6] + y[14] + y[20] + y[36] + y[39] + y[48] + y[57] + y[65]
   + y[86] + y[91] + y[92] + y[98] - z[492] >= 0
 R493: y[5] + y[9] + y[11] + y[13] + y[17] + y[51] + y[53] + y[54] + y[64]
   + y[66] + y[68] + y[77] + y[97] - z[493] >= 0
 R494: y[20] + y[35] + y[36] + y[39] + y[57] + y[84] + y[98] - z[494] >= 0
 R495: y[18] + y[19] + y[26] + y[38] + y[44] + y[47] + y[49] + y[50]
   + y[56] + y[67] + y[69] + y[74] + y[75] + y[78] + y[81] + y[83] + y[85]
   + y[87] + y[90] + y[93] - z[495] >= 0
 R496: y[20] + y[35] + y[36] + y[39] + y[57] + y[98] - z[496] >= 0
 R497: y[5] + y[7] + y[9] + y[11] + y[13] + y[17] + y[51] + y[53] + y[59]
   + y[64] + y[68] + y[95] - z[497] >= 0
 R498: y[16] + y[23] + y[24] + y[25] + y[27] + y[37] + y[42] + y[71]
   + y[73] + y[76] - z[498] >= 0
 R499: y[16] + y[23] + y[24] + y[41] + y[42] + y[71] + y[73] - z[499] >= 0
 R500: y[2] + y[19] + y[26] + y[32] + y[44] + y[47] + y[49] + y[56] + y[69]
   + y[78] + y[81] + y[83] + y[85] + y[89] - z[500] >= 0
 R501: y[18] + y[21] + y[29] + y[44] + y[50] + y[62] + y[69] + y[74]
   + y[75] + y[84] + y[85] + y[90] + y[93] - z[501] >= 0
 R502: y[5] + y[7] + y[9] + y[11] + y[13] + y[17] + y[51] + y[53] + y[64]
   + y[68] + y[95] + y[97] - z[502] >= 0
 R503: y[5] + y[7] + y[9] + y[13] + y[17] + y[25] + y[37] + y[51] + y[53]
   + y[55] + y[59] + y[63] + y[68] + y[76] + y[95] - z[503] >= 0
 R504: y[0] + y[4] + y[10] + y[15] + y[27] + y[28] + y[30] + y[33] + y[43]
   + y[47] + y[70] + y[80] + y[82] + y[94] - z[504] >= 0
 R505: y[1] + y[6] + y[14] + y[20] + y[39] + y[48] + y[57] + y[65] + y[86]
   + y[91] + y[92] + y[98] - z[505] >= 0
 R506: y[18] + y[21] + y[50] + y[84] + y[85] - z[506] >= 0
 R507: y[40] + y[48] + y[55] + y[60] + y[72] + y[79] + y[86] + y[88]
   + y[96] + y[99] - z[507] >= 0
 R508: y[10] + y[28] + y[31] + y[33] + y[43] + y[55] + y[59] + y[63]
   + y[79] + y[89] + y[99] - z[508] >= 0
 R509: y[8] + y[12] + y[19] + y[22] + y[26] + y[38] + y[44] + y[45] + y[46]
   + y[47] + y[61] + y[67] + y[70] + y[87] - z[509] >= 0
 R510: y[0] + y[4] + y[15] + y[16] + y[23] + y[25] + y[27] + y[28] + y[30]
   + y[33] + y[37] + y[42] + y[43] + y[63] + y[71] + y[80] + y[82] + y[94]
   - z[510] >= 0
 R511: y[8] + y[12] + y[15] + y[22] + y[38] + y[45] + y[46] + y[47] + y[61]
   + y[67] + y[70] + y[87] - z[511] >= 0
 R512: y[21] + y[84] + y[98] - z[512] >= 0
 R513: y[8] + y[12] + y[22] + y[26] + y[34] + y[38] + y[45] + y[46] + y[58]
   + y[61] + y[62] + y[74] + y[75] + y[87] - z[513] >= 0
 R514: y[1] + y[6] + y[14] + y[20] + y[36] + y[39] + y[57] + y[65] + y[91]
   + y[92] + y[98] - z[514] >= 0
 R515: y[10] + y[23] + y[25] + y[27] + y[28] + y[30] + y[31] + y[33]
   + y[37] + y[42] + y[43] + y[59] + y[63] + y[76] + y[80] + y[89] - z[515]
   >= 0
 R516: y[0] + y[15] + y[16] + y[24] + y[27] + y[41] + y[71] + y[82] + y[94]
   - z[516] >= 0
 R517: y[18] + y[19] + y[26] + y[29] + y[38] + y[44] + y[50] + y[52]
   + y[58] + y[62] + y[69] + y[74] + y[75] + y[84] + y[85] + y[90] + y[93]
   - z[517] >= 0
 R518: y[1] + y[14] + y[65] - z[518] >= 0
 R519: y[18] + y[19] + y[21] + y[26] + y[29] + y[44] + y[50] + y[56]
   + y[62] + y[69] + y[74] + y[75] + y[84] + y[85] + y[90] + y[93] - z[519]
   >= 0
 R520: y[7] + y[9] + y[13] + y[33] + y[51] + y[53] + y[55] + y[59] + y[63]
   + y[68] + y[95] - z[520] >= 0
 R521: y[0] + y[15] + y[16] + y[23] + y[24] + y[27] + y[30] + y[41] + y[42]
   + y[71] + y[80] + y[82] + y[94] - z[521] >= 0
 R522: y[5] + y[7] + y[9] + y[11] + y[13] + y[17] + y[51] + y[53] + y[59]
   + y[64] + y[68] + y[95] - z[522] >= 0
 R523: y[18] + y[21] + y[29] + y[50] + y[69] + y[84] + y[85] + y[90]
   + y[93] - z[523] >= 0
 R524: y[7] + y[9] + y[10] + y[13] + y[28] + y[31] + y[33] + y[43] + y[51]
   + y[53] + y[55] + y[59] + y[63] + y[68] + y[79] - z[524] >= 0
 R525: y[2] + y[10] + y[31] + y[32] + y[35] + y[49] + y[56] + y[78] + y[81]
   + y[83] + y[88] + y[89] + y[96] - z[525] >= 0
 R526: y[19] + y[29] + y[34] + y[52] + y[58] + y[62] + y[74] + y[75]
   + y[90] - z[526] >= 0
 R527: y[6] + y[20] + y[40] + y[48] + y[57] + y[60] + y[72] + y[86] + y[88]
   + y[91] + y[92] + y[96] - z[527] >= 0
 R528: y[18] + y[19] + y[26] + y[32] + y[38] + y[44] + y[47] + y[49]
   + y[56] + y[67] + y[69] + y[74] + y[78] + y[81] + y[83] + y[85] + y[90]
   + y[93] - z[528] >= 0
 R529: y[18] + y[21] + y[36] + y[39] + y[50] + y[56] + y[69] + y[84]
   + y[85] + y[93] + y[98] - z[529] >= 0
 R530: y[0] + y[16] + y[24] + y[27] + y[41] + y[71] + y[82] - z[530] >= 0
 R531: y[18] + y[21] + y[29] + y[50] + y[62] + y[69] + y[84] + y[85]
   + y[90] + y[93] - z[531] >= 0
 R532: y[3] + y[9] + y[11] + y[13] + y[17] + y[40] + y[54] + y[55] + y[60]
   + y[64] + y[66] + y[77] + y[97] + y[99] - z[532] >= 0
 R533: y[8] + y[12] + y[19] + y[22] + y[26] + y[38] + y[44] + y[45] + y[46]
   + y[47] + y[61] + y[67] + y[70] + y[87] - z[533] >= 0
 R534: y[2] + y[18] + y[21] + y[32] + y[35] + y[36] + y[44] + y[49] + y[50]
   + y[56] + y[69] + y[78] + y[81] + y[83] + y[84] + y[85] + y[90] + y[93]
   - z[534] >= 0
 R535: y[6] + y[40] + y[48] + y[86] + y[91] + y[92] - z[535] >= 0
 R536: y[5] + y[7] + y[9] + y[11] + y[13] + y[17] + y[51] + y[53] + y[64]
   + y[68] + y[95] + y[97] - z[536] >= 0
 R537: y[0] + y[15] + y[16] + y[24] + y[27] + y[41] + y[71] + y[82] + y[94]
   - z[537] >= 0
 R538: y[0] + y[4] + y[12] + y[15] + y[30] + y[47] + y[67] + y[70] + y[82]
   + y[94] - z[538] >= 0
 R539: y[2] + y[20] + y[32] + y[35] + y[36] + y[57] + y[72] + y[79] + y[81]
   + y[86] + y[88] + y[96] - z[539] >= 0
 R540: y[8] + y[12] + y[19] + y[22] + y[26] + y[34] + y[38] + y[44] + y[45]
   + y[46] + y[47] + y[58] + y[61] + y[62] + y[67] + y[74] + y[75] + y[87]
   + y[90] - z[540] >= 0
 R541: y[5] + y[7] + y[9] + y[11] + y[13] + y[17] + y[25] + y[37] + y[51]
   + y[53] + y[55] + y[59] + y[63] + y[68] + y[76] + y[95] - z[541] >= 0
 R542: y[9] + y[11] + y[13] + y[40] + y[54] + y[55] + y[60] + y[68] + y[79]
   + y[99] - z[542] >= 0
 R543: y[3] + y[40] + y[48] + y[54] + y[60] + y[86] - z[543] >= 0
 R544: y[16] + y[23] + y[24] + y[25] + y[27] + y[37] + y[42] + y[71]
   + y[73] + y[76] - z[544] >= 0
 R545: y[0] + y[4] + y[12] + y[15] + y[26] + y[30] + y[38] + y[45] + y[46]
   + y[47] + y[67] + y[70] + y[82] + y[87] + y[94] - z[545] >= 0
 R546: y[4] + y[10] + y[28] + y[30] + y[31] + y[32] + y[33] + y[43] + y[49]
   + y[78] + y[80] + y[81] + y[83] + y[89] - z[546] >= 0
 R547: y[2] + y[20] + y[32] + y[35] + y[36] + y[48] + y[57] + y[72] + y[79]
   + y[86] + y[88] + y[96] - z[547] >= 0
 R548: y[0] + y[15] + y[16] + y[27] + y[30] + y[80] + y[82] + y[94]
   - z[548] >= 0
 R549: y[29] + y[34] + y[52] + y[58] + y[62] + y[74] + y[75] - z[549] >= 0
 R550: y[2] + y[32] + y[35] + y[44] + y[49] + y[56] + y[69] + y[78] + y[81]
   + y[83] + y[85] + y[88] + y[89] - z[550] >= 0
 R551: y[5] + y[7] + y[9] + y[11] + y[13] + y[17] + y[51] + y[53] + y[64]
   + y[68] + y[95] - z[551] >= 0
 R552: y[0] + y[15] + y[16] + y[23] + y[24] + y[27] + y[30] + y[41] + y[42]
   + y[71] + y[73] + y[80] + y[82] + y[94] - z[552] >= 0
 R553: y[2] + y[20] + y[21] + y[35] + y[36] + y[39] + y[84] + y[85] + y[98]
   - z[553] >= 0
 R554: y[4] + y[10] + y[15] + y[27] + y[28] + y[30] + y[31] + y[33] + y[43]
   + y[63] + y[80] + y[82] + y[89] + y[94] - z[554] >= 0
 R555: y[0] + y[15] + y[16] + y[27] + y[41] + y[82] + y[94] - z[555] >= 0
 R556: y[4] + y[10] + y[26] + y[31] + y[32] + y[43] + y[44] + y[47] + y[49]
   + y[56] + y[78] + y[81] + y[83] + y[89] - z[556] >= 0
 R557: y[1] + y[6] + y[20] + y[36] + y[39] + y[48] + y[57] + y[72] + y[86]
   + y[88] + y[91] + y[92] + y[96] + y[98] - z[557] >= 0
 R558: y[0] + y[16] + y[23] + y[24] + y[27] + y[41] + y[42] + y[71] + y[73]
   - z[558] >= 0
 R559: y[8] + y[12] + y[19] + y[22] + y[26] + y[29] + y[34] + y[38] + y[44]
   + y[45] + y[46] + y[50] + y[52] + y[58] + y[62] + y[67] + y[74] + y[75]
   + y[87] + y[90] - z[559] >= 0
 R560: y[4] + y[12] + y[15] + y[26] + y[30] + y[38] + y[47] + y[67] + y[70]
   + y[82] + y[87] + y[94] - z[560] >= 0
 R561: y[3] + y[40] + y[54] + y[60] + y[66] + y[77] + y[99] - z[561] >= 0
 R562: y[1] + y[6] + y[14] + y[20] + y[48] + y[57] + y[65] + y[86] + y[91]
   + y[92] - z[562] >= 0
 R563: y[8] + y[12] + y[22] + y[38] + y[45] + y[46] + y[58] + y[61] + y[67]
   + y[70] + y[87] - z[563] >= 0
 R564: y[5] + y[7] + y[9] + y[13] + y[25] + y[37] + y[42] + y[51] + y[53]
   + y[59] + y[63] + y[68] + y[76] + y[95] - z[564] >= 0
 R565: y[5] + y[7] + y[9] + y[11] + y[13] + y[17] + y[51] + y[53] + y[64]
   + y[68] + y[95] + y[97] - z[565] >= 0
 R566: y[16] + y[24] + y[41] + y[71] + y[73] - z[566] >= 0
 R567: y[0] + y[4] + y[12] + y[15] + y[30] + y[47] + y[67] + y[70] + y[80]
   + y[82] + y[94] - z[567] >= 0
 R568: y[0] + y[4] + y[10] + y[15] + y[27] + y[28] + y[30] + y[33] + y[43]
   + y[80] + y[82] + y[94] - z[568] >= 0
 R569: y[1] + y[6] + y[20] + y[35] + y[36] + y[39] + y[57] + y[88] + y[91]
   + y[92] + y[96] + y[98] - z[569] >= 0
 R570: y[8] + y[12] + y[22] + y[26] + y[38] + y[45] + y[46] + y[47] + y[58]
   + y[61] + y[67] + y[70] + y[87] - z[570] >= 0
 R571: y[18] + y[19] + y[26] + y[29] + y[34] + y[44] + y[50] + y[52]
   + y[58] + y[62] + y[69] + y[74] + y[75] + y[90] + y[93] - z[571] >= 0
 R572: y[10] + y[31] + y[32] + y[43] + y[55] + y[79] + y[88] + y[89]
   + y[96] + y[99] - z[572] >= 0
 R573: y[5] + y[7] + y[13] + y[23] + y[25] + y[37] + y[42] + y[51] + y[53]
   + y[59] + y[63] + y[68] + y[73] + y[76] + y[95] - z[573] >= 0
 R574: y[1] + y[6] + y[14] + y[20] + y[36] + y[39] + y[48] + y[57] + y[65]
   + y[86] + y[88] + y[91] + y[92] + y[98] - z[574] >= 0
 R575: y[12] + y[18] + y[19] + y[26] + y[38] + y[44] + y[45] + y[46]
   + y[47] + y[49] + y[56] + y[67] + y[69] + y[74] + y[75] + y[78] + y[83]
   + y[85] + y[87] + y[90] + y[93] - z[575] >= 0
 R576: y[24] + y[41] + y[71] - z[576] >= 0
 R577: y[3] + y[9] + y[11] + y[13] + y[17] + y[40] + y[51] + y[53] + y[54]
   + y[55] + y[60] + y[64] + y[66] + y[68] + y[77] + y[97] + y[99] - z[577]
   >= 0
 R578: y[1] + y[14] + y[65] + y[98] - z[578] >= 0
 R579: y[8] + y[12] + y[19] + y[22] + y[26] + y[34] + y[38] + y[45] + y[46]
   + y[52] + y[58] + y[61] + y[62] + y[74] + y[75] + y[87] - z[579] >= 0
 R580: y[3] + y[40] + y[48] + y[54] + y[60] + y[72] + y[79] + y[86] + y[99]
   - z[580] >= 0
 R581: y[18] + y[19] + y[21] + y[44] + y[49] + y[50] + y[56] + y[69]
   + y[78] + y[81] + y[83] + y[84] + y[85] + y[90] + y[93] - z[581] >= 0
 R582: y[18] + y[29] + y[50] + y[52] + y[62] + y[74] + y[75] + y[90]
   + y[93] - z[582] >= 0
 R583: y[4] + y[19] + y[26] + y[32] + y[44] + y[47] + y[49] + y[56] + y[67]
   + y[69] + y[78] + y[81] + y[83] + y[89] - z[583] >= 0
 R584: y[4] + y[10] + y[28] + y[30] + y[31] + y[32] + y[43] + y[47] + y[49]
   + y[56] + y[78] + y[81] + y[83] + y[89] - z[584] >= 0
 R585: y[0] + y[16] + y[23] + y[24] + y[27] + y[41] + y[42] + y[71] + y[73]
   - z[585] >= 0
 R586: y[3] + y[40] + y[48] + y[54] + y[60] + y[86] - z[586] >= 0
 R587: y[3] + y[40] + y[54] + y[60] + y[66] + y[77] + y[79] + y[99]
   - z[587] >= 0
 R588: y[2] + y[4] + y[10] + y[26] + y[31] + y[32] + y[44] + y[47] + y[49]
   + y[56] + y[78] + y[81] + y[83] + y[89] - z[588] >= 0
 R589: y[0] + y[4] + y[10] + y[15] + y[27] + y[28] + y[30] + y[31] + y[33]
   + y[43] + y[80] + y[82] + y[89] + y[94] - z[589] >= 0
 R590: y[0] + y[15] + y[16] + y[27] + y[41] + y[82] - z[590] >= 0
 R591: y[4] + y[12] + y[19] + y[26] + y[38] + y[44] + y[45] + y[46] + y[47]
   + y[49] + y[56] + y[67] + y[70] + y[78] + y[81] + y[83] + y[87] - z[591]
   >= 0
 R592: y[5] + y[7] + y[9] + y[11] + y[13] + y[17] + y[51] + y[53] + y[54]
   + y[64] + y[66] + y[68] + y[77] + y[97] - z[592] >= 0
 R593: y[16] + y[24] + y[41] + y[71] - z[593] >= 0
 R594: y[6] + y[20] + y[48] + y[57] + y[72] + y[86] + y[91] + y[92]
   - z[594] >= 0
 R595: y[0] + y[16] + y[24] + y[41] + y[71] - z[595] >= 0
 R596: y[1] + y[6] + y[14] + y[48] + y[57] + y[65] + y[86] + y[91] + y[92]
   - z[596] >= 0
 R597: y[40] + y[48] + y[55] + y[60] + y[72] + y[79] + y[86] + y[88]
   + y[96] + y[99] - z[597] >= 0
 R598: y[0] + y[15] + y[16] + y[27] + y[41] + y[71] + y[82] + y[94]
   - z[598] >= 0
 R599: y[5] + y[7] + y[9] + y[11] + y[13] + y[17] + y[51] + y[53] + y[59]
   + y[64] + y[68] + y[95] - z[599] >= 0
 R600: y[4] + y[12] + y[15] + y[26] + y[30] + y[38] + y[45] + y[46] + y[47]
   + y[67] + y[70] + y[82] + y[87] + y[94] - z[600] >= 0
 R601: y[1] + y[6] + y[14] + y[65] + y[91] + y[92] - z[601] >= 0
 R602: y[0] + y[15] + y[16] + y[23] + y[24] + y[27] + y[30] + y[41] + y[42]
   + y[71] + y[73] + y[80] + y[82] + y[94] - z[602] >= 0
 R603: y[1] + y[20] + y[35] + y[36] + y[39] + y[57] + y[92] + y[98]
   - z[603] >= 0
 R604: y[12] + y[19] + y[26] + y[38] + y[44] + y[45] + y[46] + y[47]
   + y[67] + y[70] + y[78] + y[87] - z[604] >= 0
 R605: y[5] + y[7] + y[9] + y[11] + y[13] + y[17] + y[51] + y[53] + y[54]
   + y[64] + y[68] + y[77] + y[95] + y[97] - z[605] >= 0
 R606: y[9] + y[13] + y[40] + y[54] + y[55] + y[59] + y[60] + y[68] + y[79]
   + y[99] - z[606] >= 0
 R607: y[7] + y[16] + y[23] + y[24] + y[25] + y[37] + y[42] + y[53] + y[59]
   + y[63] + y[71] + y[73] + y[76] + y[95] - z[607] >= 0
 R608: y[0] + y[12] + y[15] + y[38] + y[45] + y[46] + y[47] + y[61] + y[67]
   + y[70] + y[82] + y[87] + y[94] - z[608] >= 0
 R609: y[8] + y[12] + y[15] + y[22] + y[26] + y[38] + y[45] + y[46] + y[47]
   + y[61] + y[67] + y[70] + y[82] + y[87] - z[609] >= 0
 R610: y[5] + y[7] + y[9] + y[13] + y[17] + y[51] + y[53] + y[64] + y[68]
   + y[95] - z[610] >= 0
 R611: y[5] + y[7] + y[9] + y[11] + y[13] + y[17] + y[40] + y[51] + y[53]
   + y[54] + y[55] + y[60] + y[64] + y[68] + y[77] + y[99] - z[611] >= 0
 R612: y[2] + y[20] + y[32] + y[35] + y[36] + y[39] + y[48] + y[57] + y[72]
   + y[79] + y[86] + y[88] + y[91] + y[96] - z[612] >= 0
 R613: y[40] + y[48] + y[60] + y[72] + y[79] + y[86] + y[96] + y[99]
   - z[613] >= 0
 R614: y[2] + y[18] + y[20] + y[21] + y[35] + y[36] + y[39] + y[56] + y[69]
   + y[84] + y[85] + y[88] + y[98] - z[614] >= 0
 R615: y[4] + y[10] + y[15] + y[26] + y[28] + y[30] + y[31] + y[32] + y[43]
   + y[47] + y[49] + y[67] + y[70] + y[78] + y[81] + y[82] + y[83] + y[89]
   + y[94] - z[615] >= 0
 R616: y[18] + y[19] + y[26] + y[44] + y[49] + y[50] + y[56] + y[62]
   + y[69] + y[74] + y[75] + y[78] + y[81] + y[83] + y[84] + y[85] + y[90]
   + y[93] - z[616] >= 0
 R617: y[3] + y[11] + y[40] + y[54] + y[60] + y[66] + y[77] + y[97]
   - z[617] >= 0
 R618: y[8] + y[12] + y[22] + y[26] + y[38] + y[45] + y[46] + y[47] + y[61]
   + y[67] + y[70] + y[87] - z[618] >= 0
 R619: y[8] + y[12] + y[19] + y[22] + y[26] + y[38] + y[44] + y[45] + y[46]
   + y[47] + y[58] + y[61] + y[62] + y[67] + y[70] + y[74] + y[75] + y[87]
   + y[90] - z[619] >= 0
 R620: y[3] + y[9] + y[11] + y[13] + y[40] + y[54] + y[55] + y[60] + y[77]
   + y[79] + y[99] - z[620] >= 0
 R621: y[21] + y[36] + y[39] + y[98] - z[621] >= 0
 R622: y[12] + y[15] + y[45] + y[46] + y[61] + y[67] + y[70] + y[87]
   - z[622] >= 0
 R623: y[11] + y[17] + y[64] + y[66] + y[77] + y[97] - z[623] >= 0
 R624: y[7] + y[9] + y[13] + y[25] + y[33] + y[37] + y[51] + y[53] + y[55]
   + y[59] + y[63] + y[68] + y[76] + y[95] - z[624] >= 0
 R625: y[16] + y[23] + y[24] + y[27] + y[41] + y[42] + y[71] + y[73]
   - z[625] >= 0
 R626: y[0] + y[4] + y[15] + y[16] + y[23] + y[27] + y[28] + y[30] + y[33]
   + y[42] + y[43] + y[63] + y[71] + y[80] + y[82] + y[94] - z[626] >= 0
 R627: y[1] + y[14] + y[65] + y[98] - z[627] >= 0
 R628: y[18] + y[21] + y[29] + y[50] + y[69] + y[84] + y[85] + y[90]
   + y[93] - z[628] >= 0
 R629: y[6] + y[20] + y[35] + y[36] + y[39] + y[48] + y[57] + y[72] + y[86]
   + y[88] + y[91] + y[92] + y[96] - z[629] >= 0
 R630: y[29] + y[34] + y[50] + y[52] + y[62] + y[74] + y[75] + y[90]
   - z[630] >= 0
 R631: y[5] + y[7] + y[9] + y[11] + y[13] + y[17] + y[51] + y[53] + y[54]
   + y[64] + y[68] + y[77] + y[95] + y[97] - z[631] >= 0
 R632: y[4] + y[10] + y[28] + y[30] + y[31] + y[32] + y[43] + y[47] + y[49]
   + y[56] + y[78] + y[81] + y[83] + y[89] - z[632] >= 0
 R633: y[8] + y[12] + y[19] + y[22] + y[26] + y[34] + y[38] + y[45] + y[46]
   + y[58] + y[61] + y[67] + y[74] + y[75] + y[87] - z[633] >= 0
 R634: y[4] + y[10] + y[28] + y[30] + y[31] + y[32] + y[33] + y[43] + y[49]
   + y[78] + y[81] + y[83] + y[89] - z[634] >= 0
 R635: y[3] + y[9] + y[11] + y[13] + y[17] + y[40] + y[54] + y[55] + y[60]
   + y[64] + y[66] + y[68] + y[77] + y[97] + y[99] - z[635] >= 0
 R636: y[0] + y[15] + y[16] + y[23] + y[24] + y[27] + y[30] + y[41] + y[71]
   + y[80] + y[82] + y[94] - z[636] >= 0
 R637: y[2] + y[31] + y[32] + y[55] + y[60] + y[72] + y[79] + y[88] + y[89]
   + y[96] + y[99] - z[637] >= 0
 R638: y[7] + y[9] + y[10] + y[13] + y[25] + y[28] + y[31] + y[33] + y[37]
   + y[43] + y[51] + y[53] + y[55] + y[59] + y[63] + y[68] + y[80] + y[95]
   - z[638] >= 0
 R639: y[2] + y[4] + y[10] + y[31] + y[32] + y[44] + y[47] + y[49] + y[56]
   + y[78] + y[81] + y[83] + y[89] - z[639] >= 0
 R640: y[5] + y[7] + y[9] + y[11] + y[13] + y[17] + y[51] + y[53] + y[55]
   + y[59] + y[63] + y[68] + y[95] - z[640] >= 0
 R641: y[4] + y[19] + y[26] + y[32] + y[44] + y[47] + y[49] + y[56] + y[67]
   + y[69] + y[78] + y[81] + y[83] + y[89] - z[641] >= 0
 R642: y[18] + y[21] + y[36] + y[39] + y[69] + y[84] + y[85] + y[93]
   + y[98] - z[642] >= 0
 R643: y[3] + y[9] + y[11] + y[17] + y[40] + y[54] + y[60] + y[64] + y[66]
   + y[77] + y[97] + y[99] - z[643] >= 0
 R644: y[1] + y[14] + y[65] + y[98] - z[644] >= 0
 R645: y[6] + y[48] + y[57] + y[86] + y[91] + y[92] - z[645] >= 0
 R646: y[5] + y[7] + y[9] + y[11] + y[13] + y[17] + y[51] + y[53] + y[64]
   + y[68] + y[95] + y[97] - z[646] >= 0
 R647: y[2] + y[18] + y[20] + y[32] + y[35] + y[36] + y[39] + y[49] + y[56]
   + y[69] + y[78] + y[81] + y[83] + y[84] + y[85] + y[88] + y[96] - z[647]
   >= 0
 R648: y[7] + y[16] + y[23] + y[25] + y[27] + y[28] + y[33] + y[37] + y[42]
   + y[43] + y[53] + y[59] + y[63] + y[76] + y[80] + y[95] - z[648] >= 0
 R649: y[2] + y[20] + y[32] + y[35] + y[36] + y[39] + y[57] + y[72] + y[79]
   + y[81] + y[86] + y[88] + y[96] - z[649] >= 0
 R650: y[1] + y[6] + y[14] + y[20] + y[39] + y[57] + y[65] + y[92] + y[98]
   - z[650] >= 0
 R651: y[0] + y[12] + y[15] + y[22] + y[38] + y[45] + y[46] + y[47] + y[61]
   + y[67] + y[70] + y[82] + y[87] - z[651] >= 0
 R652: y[11] + y[17] + y[64] + y[66] + y[77] + y[97] - z[652] >= 0
 R653: y[12] + y[18] + y[19] + y[26] + y[38] + y[44] + y[45] + y[47]
   + y[50] + y[56] + y[58] + y[62] + y[67] + y[69] + y[74] + y[75] + y[85]
   + y[87] + y[90] + y[93] - z[653] >= 0
 R654: y[4] + y[10] + y[15] + y[28] + y[30] + y[31] + y[32] + y[43] + y[47]
   + y[49] + y[67] + y[78] + y[80] + y[81] + y[82] + y[83] + y[89] + y[94]
   - z[654] >= 0
 R655: y[2] + y[20] + y[32] + y[35] + y[36] + y[39] + y[49] + y[56] + y[57]
   + y[72] + y[78] + y[81] + y[83] + y[88] + y[96] - z[655] >= 0
 R656: y[18] + y[21] + y[29] + y[50] + y[52] + y[62] + y[69] + y[74]
   + y[75] + y[84] + y[90] + y[93] - z[656] >= 0
 R657: y[1] + y[14] + y[65] + y[98] - z[657] >= 0
 R658: y[18] + y[19] + y[26] + y[29] + y[34] + y[38] + y[44] + y[45]
   + y[50] + y[52] + y[58] + y[62] + y[69] + y[74] + y[75] + y[87] + y[90]
   + y[93] - z[658] >= 0
 R659: y[1] + y[6] + y[20] + y[35] + y[36] + y[39] + y[57] + y[88] + y[91]
   + y[92] + y[96] + y[98] - z[659] >= 0
 R660: y[7] + y[16] + y[23] + y[25] + y[33] + y[37] + y[42] + y[51] + y[53]
   + y[59] + y[63] + y[73] + y[76] + y[95] - z[660] >= 0
 R661: y[8] + y[12] + y[19] + y[22] + y[26] + y[34] + y[38] + y[44] + y[45]
   + y[46] + y[47] + y[58] + y[61] + y[62] + y[67] + y[70] + y[74] + y[75]
   + y[87] + y[90] - z[661] >= 0
 R662: y[4] + y[10] + y[23] + y[25] + y[27] + y[28] + y[30] + y[31] + y[33]
   + y[37] + y[42] + y[43] + y[59] + y[63] + y[76] + y[80] + y[89] + y[94]
   - z[662] >= 0
 R663: y[2] + y[18] + y[19] + y[26] + y[32] + y[35] + y[44] + y[49] + y[56]
   + y[69] + y[78] + y[81] + y[83] + y[85] + y[93] - z[663] >= 0
 R664: y[18] + y[19] + y[21] + y[29] + y[44] + y[50] + y[52] + y[62]
   + y[69] + y[74] + y[75] + y[84] + y[85] + y[90] + y[93] - z[664] >= 0
 R665: y[5] + y[7] + y[9] + y[11] + y[13] + y[17] + y[51] + y[53] + y[54]
   + y[64] + y[68] + y[77] + y[95] + y[97] - z[665] >= 0
 R666: y[5] + y[7] + y[9] + y[13] + y[25] + y[37] + y[51] + y[53] + y[59]
   + y[63] + y[68] + y[76] + y[95] - z[666] >= 0
 R667: y[29] + y[34] + y[50] + y[52] + y[58] + y[62] + y[74] + y[75]
   + y[90] - z[667] >= 0
 R668: y[2] + y[31] + y[32] + y[35] + y[55] + y[72] + y[79] + y[88] + y[89]
   + y[96] + y[99] - z[668] >= 0
 R669: y[3] + y[40] + y[54] + y[60] + y[66] + y[77] - z[669] >= 0
 R670: y[29] + y[34] + y[52] + y[58] + y[62] - z[670] >= 0
 R671: y[6] + y[48] + y[72] + y[86] + y[91] + y[92] - z[671] >= 0
 R672: y[10] + y[13] + y[28] + y[31] + y[33] + y[43] + y[55] + y[59]
   + y[63] + y[79] + y[89] + y[99] - z[672] >= 0
 R673: y[8] + y[19] + y[22] + y[26] + y[29] + y[34] + y[38] + y[45] + y[52]
   + y[58] + y[62] + y[74] + y[75] + y[87] + y[90] - z[673] >= 0
 R674: y[2] + y[20] + y[35] + y[36] + y[39] + y[49] + y[56] + y[57] + y[81]
   + y[84] + y[88] + y[96] + y[98] - z[674] >= 0
 R675: y[1] + y[6] + y[14] + y[20] + y[39] + y[57] + y[65] + y[92] + y[98]
   - z[675] >= 0
 R676: y[5] + y[7] + y[9] + y[13] + y[17] + y[25] + y[37] + y[51] + y[53]
   + y[59] + y[63] + y[68] + y[76] + y[95] - z[676] >= 0
 R677: y[18] + y[21] + y[29] + y[50] + y[52] + y[62] + y[69] + y[74]
   + y[75] + y[84] + y[85] + y[90] + y[93] - z[677] >= 0
 R678: y[5] + y[7] + y[9] + y[11] + y[13] + y[17] + y[25] + y[37] + y[51]
   + y[53] + y[59] + y[68] + y[76] + y[95] - z[678] >= 0
 R679: y[6] + y[14] + y[48] + y[57] + y[65] + y[86] + y[91] + y[92]
   - z[679] >= 0
 R680: y[1] + y[14] + y[20] + y[39] + y[57] + y[65] + y[92] + y[98]
   - z[680] >= 0
 R681: y[8] + y[12] + y[22] + y[34] + y[38] + y[45] + y[46] + y[58] + y[61]
   + y[62] + y[74] + y[75] + y[87] - z[681] >= 0
 R682: y[9] + y[13] + y[31] + y[40] + y[54] + y[55] + y[60] + y[79] + y[99]
   - z[682] >= 0
 R683: y[3] + y[5] + y[9] + y[11] + y[13] + y[17] + y[54] + y[64] + y[66]
   + y[68] + y[77] + y[97] - z[683] >= 0
 R684: y[4] + y[10] + y[28] + y[30] + y[31] + y[33] + y[43] + y[55] + y[59]
   + y[63] + y[79] + y[80] + y[89] - z[684] >= 0
 R685: y[18] + y[19] + y[21] + y[26] + y[29] + y[44] + y[50] + y[56]
   + y[62] + y[69] + y[74] + y[75] + y[84] + y[85] + y[90] + y[93] - z[685]
   >= 0
 R686: y[2] + y[4] + y[10] + y[31] + y[32] + y[43] + y[49] + y[56] + y[78]
   + y[81] + y[83] + y[89] - z[686] >= 0
 R687: y[3] + y[9] + y[11] + y[13] + y[17] + y[40] + y[54] + y[55] + y[60]
   + y[64] + y[66] + y[77] + y[97] + y[99] - z[687] >= 0
 R688: y[29] + y[34] + y[52] + y[62] + y[74] + y[75] - z[688] >= 0
 R689: y[1] + y[14] + y[39] + y[65] + y[98] - z[689] >= 0
 R690: y[1] + y[6] + y[20] + y[36] + y[39] + y[48] + y[57] + y[72] + y[86]
   + y[88] + y[91] + y[92] - z[690] >= 0
 R691: y[2] + y[6] + y[20] + y[35] + y[36] + y[39] + y[48] + y[57] + y[72]
   + y[79] + y[86] + y[88] + y[91] + y[92] + y[96] - z[691] >= 0
 R692: y[2] + y[10] + y[31] + y[32] + y[43] + y[55] + y[79] + y[81] + y[88]
   + y[89] + y[96] - z[692] >= 0
 R693: y[5] + y[7] + y[13] + y[23] + y[25] + y[37] + y[42] + y[51] + y[53]
   + y[59] + y[63] + y[68] + y[76] + y[95] - z[693] >= 0
 R694: y[3] + y[9] + y[11] + y[13] + y[17] + y[40] + y[54] + y[55] + y[60]
   + y[64] + y[66] + y[68] + y[77] + y[97] + y[99] - z[694] >= 0
 R695: y[8] + y[12] + y[15] + y[22] + y[26] + y[38] + y[45] + y[46] + y[47]
   + y[61] + y[67] + y[70] + y[87] - z[695] >= 0
 R696: y[4] + y[12] + y[19] + y[26] + y[38] + y[44] + y[45] + y[47] + y[49]
   + y[56] + y[67] + y[70] + y[78] + y[81] + y[83] + y[87] - z[696] >= 0
 R697: y[3] + y[11] + y[17] + y[54] + y[64] + y[66] + y[77] + y[97]
   - z[697] >= 0
 R698: y[18] + y[21] + y[29] + y[50] + y[52] + y[62] + y[69] + y[74]
   + y[75] + y[84] + y[85] + y[90] + y[93] - z[698] >= 0
 R699: y[18] + y[19] + y[26] + y[29] + y[44] + y[50] + y[56] + y[62]
   + y[69] + y[74] + y[75] + y[84] + y[85] + y[90] + y[93] - z[699] >= 0
 R700: y[2] + y[20] + y[35] + y[36] + y[39] + y[57] + y[88] + y[96] + y[98]
   - z[700] >= 0
 R701: y[4] + y[10] + y[19] + y[26] + y[32] + y[44] + y[47] + y[49] + y[56]
   + y[67] + y[78] + y[81] + y[83] + y[89] - z[701] >= 0
 R702: y[5] + y[9] + y[11] + y[13] + y[17] + y[51] + y[54] + y[64] + y[66]
   + y[68] + y[77] + y[97] - z[702] >= 0
 R703: y[0] + y[15] + y[16] + y[27] + y[41] + y[82] - z[703] >= 0
 R704: y[29] + y[34] + y[50] + y[52] + y[58] + y[62] + y[74] + y[75]
   + y[90] - z[704] >= 0
 R705: y[2] + y[20] + y[35] + y[36] + y[39] + y[57] + y[84] + y[98]
   - z[705] >= 0
 R706: y[7] + y[23] + y[25] + y[37] + y[42] + y[53] + y[59] + y[73] + y[76]
   + y[95] - z[706] >= 0
 R707: y[4] + y[10] + y[28] + y[30] + y[31] + y[32] + y[33] + y[43] + y[63]
   + y[80] + y[89] - z[707] >= 0
 R708: y[5] + y[7] + y[23] + y[25] + y[37] + y[42] + y[51] + y[53] + y[59]
   + y[63] + y[68] + y[73] + y[76] + y[95] - z[708] >= 0
 R709: y[29] + y[50] + y[52] + y[62] + y[74] + y[75] + y[90] + y[93]
   - z[709] >= 0
 R710: y[4] + y[10] + y[28] + y[30] + y[31] + y[33] + y[43] + y[55] + y[59]
   + y[63] + y[80] + y[89] - z[710] >= 0
 R711: y[3] + y[11] + y[40] + y[54] + y[60] + y[66] + y[77] + y[99]
   - z[711] >= 0
 R712: y[2] + y[18] + y[21] + y[32] + y[35] + y[36] + y[44] + y[49] + y[50]
   + y[56] + y[69] + y[78] + y[81] + y[83] + y[84] + y[85] + y[90] + y[93]
   - z[712] >= 0
 R713: y[1] + y[20] + y[36] + y[39] + y[57] + y[65] + y[92] + y[98]
   - z[713] >= 0
 R714: y[2] + y[20] + y[35] + y[36] + y[39] + y[57] + y[88] + y[96] + y[98]
   - z[714] >= 0
 R715: y[5] + y[7] + y[13] + y[23] + y[25] + y[37] + y[42] + y[51] + y[53]
   + y[59] + y[63] + y[68] + y[76] + y[95] - z[715] >= 0
 R716: y[9] + y[10] + y[13] + y[31] + y[33] + y[55] + y[59] + y[63] + y[79]
   + y[89] + y[99] - z[716] >= 0
 R717: y[18] + y[21] + y[29] + y[44] + y[50] + y[56] + y[69] + y[84]
   + y[85] + y[90] + y[93] - z[717] >= 0
 R718: y[0] + y[12] + y[15] + y[38] + y[45] + y[46] + y[47] + y[61] + y[67]
   + y[70] + y[82] + y[87] - z[718] >= 0
 R719: y[4] + y[10] + y[28] + y[30] + y[31] + y[32] + y[43] + y[47] + y[49]
   + y[56] + y[78] + y[81] + y[83] + y[89] - z[719] >= 0
 R720: y[0] + y[4] + y[10] + y[15] + y[16] + y[23] + y[25] + y[27] + y[28]
   + y[30] + y[33] + y[37] + y[42] + y[43] + y[59] + y[63] + y[80] + y[82]
   + y[94] - z[720] >= 0
 R721: y[16] + y[23] + y[24] + y[25] + y[27] + y[37] + y[42] + y[71]
   + y[73] + y[76] - z[721] >= 0
 R722: y[2] + y[18] + y[21] + y[32] + y[35] + y[36] + y[44] + y[49] + y[50]
   + y[56] + y[69] + y[78] + y[81] + y[83] + y[84] + y[85] + y[90] + y[93]
   - z[722] >= 0
 R723: y[1] + y[6] + y[20] + y[35] + y[36] + y[39] + y[48] + y[57] + y[72]
   + y[86] + y[88] + y[91] + y[92] + y[96] + y[98] - z[723] >= 0
 R724: y[1] + y[39] + y[98] - z[724] >= 0
 R725: y[16] + y[23] + y[24] + y[25] + y[37] + y[42] + y[71] + y[73]
   + y[76] - z[725] >= 0
 R726: y[0] + y[4] + y[10] + y[16] + y[23] + y[25] + y[27] + y[28] + y[30]
   + y[33] + y[37] + y[42] + y[43] + y[59] + y[63] + y[73] + y[76] + y[80]
   + y[82] + y[94] - z[726] >= 0
 R727: y[41] - z[727] >= 0
 R728: y[8] + y[22] + y[34] + y[38] + y[45] + y[46] + y[52] + y[58] + y[62]
   + y[74] + y[75] + y[87] - z[728] >= 0
 R729: y[2] + y[20] + y[32] + y[35] + y[36] + y[39] + y[49] + y[56] + y[69]
   + y[78] + y[81] + y[83] + y[84] + y[85] + y[88] + y[96] + y[98] - z[729]
   >= 0
 R730: y[2] + y[6] + y[20] + y[35] + y[36] + y[39] + y[48] + y[57] + y[72]
   + y[86] + y[88] + y[91] + y[92] + y[96] + y[98] - z[730] >= 0
 R731: y[41] - z[731] >= 0
 R732: y[15] + y[61] + y[70] - z[732] >= 0
 R733: y[3] + y[40] + y[48] + y[54] + y[60] + y[72] + y[79] + y[86] + y[99]
   - z[733] >= 0
 R734: y[3] + y[11] + y[17] + y[54] + y[64] + y[66] + y[77] + y[97]
   - z[734] >= 0
 R735: y[0] + y[4] + y[10] + y[15] + y[16] + y[23] + y[27] + y[28] + y[30]
   + y[33] + y[42] + y[43] + y[59] + y[63] + y[80] + y[82] + y[89] + y[94]
   - z[735] >= 0
 R736: y[0] + y[4] + y[10] + y[15] + y[16] + y[27] + y[28] + y[30] + y[33]
   + y[43] + y[63] + y[80] + y[82] + y[89] + y[94] - z[736] >= 0
 R737: y[8] + y[12] + y[22] + y[26] + y[38] + y[45] + y[46] + y[47] + y[58]
   + y[61] + y[67] + y[70] + y[87] - z[737] >= 0
 R738: y[18] + y[19] + y[26] + y[44] + y[49] + y[50] + y[56] + y[62]
   + y[69] + y[74] + y[75] + y[78] + y[83] + y[84] + y[85] + y[90] + y[93]
   - z[738] >= 0
 R739: y[1] + y[14] + y[20] + y[36] + y[39] + y[57] + y[65] + y[92] + y[98]
   - z[739] >= 0
 R740: y[5] + y[9] + y[11] + y[17] + y[64] + y[66] + y[77] + y[97] - z[740]
   >= 0
 R741: y[16] + y[23] + y[24] + y[25] + y[37] + y[42] + y[71] + y[73]
   + y[76] - z[741] >= 0
 R742: y[0] + y[15] + y[16] + y[27] + y[30] + y[41] + y[80] + y[82] + y[94]
   - z[742] >= 0
 R743: y[0] + y[15] + y[41] + y[82] + y[94] - z[743] >= 0
 R744: y[0] + y[41] - z[744] >= 0
 R745: y[6] + y[20] + y[48] + y[57] + y[72] + y[86] + y[91] + y[92]
   - z[745] >= 0
 R746: y[1] + y[6] + y[20] + y[35] + y[36] + y[39] + y[57] + y[88] + y[92]
   + y[98] - z[746] >= 0
 R747: y[18] + y[19] + y[29] + y[34] + y[44] + y[50] + y[52] + y[58]
   + y[62] + y[69] + y[74] + y[75] + y[90] + y[93] - z[747] >= 0
 R748: y[18] + y[19] + y[26] + y[44] + y[47] + y[49] + y[50] + y[56]
   + y[69] + y[74] + y[75] + y[78] + y[81] + y[83] + y[84] + y[85] + y[90]
   + y[93] - z[748] >= 0
 R749: y[5] + y[9] + y[11] + y[13] + y[17] + y[51] + y[53] + y[54] + y[64]
   + y[66] + y[68] + y[77] + y[97] - z[749] >= 0
 R750: y[0] + y[4] + y[10] + y[15] + y[16] + y[23] + y[27] + y[28] + y[30]
   + y[31] + y[33] + y[42] + y[43] + y[59] + y[63] + y[80] + y[82] + y[89]
   + y[94] - z[750] >= 0
 R751: y[7] + y[9] + y[13] + y[25] + y[33] + y[37] + y[51] + y[53] + y[55]
   + y[59] + y[63] + y[68] + y[76] + y[95] - z[751] >= 0
 R752: y[6] + y[20] + y[35] + y[36] + y[39] + y[48] + y[57] + y[72] + y[86]
   + y[88] + y[91] + y[92] + y[96] - z[752] >= 0
 R753: y[2] + y[32] + y[35] + y[44] + y[49] + y[56] + y[69] + y[78] + y[81]
   + y[83] + y[85] + y[88] + y[89] + y[96] - z[753] >= 0
 R754: y[7] + y[13] + y[23] + y[25] + y[33] + y[37] + y[42] + y[51] + y[53]
   + y[59] + y[63] + y[68] + y[76] + y[95] - z[754] >= 0
 R755: y[0] + y[15] + y[16] + y[23] + y[24] + y[27] + y[30] + y[41] + y[42]
   + y[71] + y[80] + y[82] + y[94] - z[755] >= 0
 R756: y[0] + y[4] + y[15] + y[27] + y[28] + y[30] + y[43] + y[47] + y[67]
   + y[70] + y[80] + y[82] + y[94] - z[756] >= 0
 R757: y[2] + y[31] + y[32] + y[35] + y[55] + y[60] + y[72] + y[79] + y[88]
   + y[89] + y[96] + y[99] - z[757] >= 0
 R758: y[3] + y[40] + y[48] + y[54] + y[55] + y[60] + y[72] + y[79] + y[86]
   + y[99] - z[758] >= 0
 R759: y[2] + y[20] + y[32] + y[35] + y[36] + y[39] + y[49] + y[56] + y[57]
   + y[69] + y[78] + y[81] + y[83] + y[84] + y[85] + y[88] + y[96] + y[98]
   - z[759] >= 0
 R760: y[18] + y[19] + y[21] + y[26] + y[44] + y[49] + y[50] + y[56]
   + y[69] + y[74] + y[75] + y[78] + y[81] + y[83] + y[84] + y[85] + y[90]
   + y[93] - z[760] >= 0
 R761: y[2] + y[10] + y[31] + y[32] + y[55] + y[72] + y[79] + y[88] + y[89]
   + y[96] + y[99] - z[761] >= 0
 R762: y[16] + y[23] + y[24] + y[25] + y[27] + y[33] + y[37] + y[42]
   + y[59] + y[63] + y[71] + y[73] + y[76] + y[80] - z[762] >= 0
 R763: y[1] + y[6] + y[14] + y[20] + y[39] + y[57] + y[65] + y[91] + y[92]
   + y[98] - z[763] >= 0
 R764: y[6] + y[20] + y[48] + y[57] + y[72] + y[86] + y[91] + y[92]
   - z[764] >= 0
 R765: y[6] + y[14] + y[48] + y[57] + y[86] + y[91] + y[92] - z[765] >= 0
 R766: y[3] + y[9] + y[11] + y[40] + y[54] + y[60] + y[66] + y[77] + y[97]
   + y[99] - z[766] >= 0
 R767: y[6] + y[40] + y[48] + y[60] + y[72] + y[86] + y[91] + y[92]
   - z[767] >= 0
 R768: y[8] + y[12] + y[19] + y[22] + y[26] + y[38] + y[44] + y[45] + y[46]
   + y[47] + y[58] + y[61] + y[62] + y[67] + y[70] + y[74] + y[75] + y[87]
   + y[90] - z[768] >= 0
 R769: y[3] + y[40] + y[48] + y[54] + y[60] + y[72] + y[79] + y[86] + y[99]
   - z[769] >= 0
 R770: y[2] + y[20] + y[32] + y[35] + y[36] + y[39] + y[49] + y[56] + y[57]
   + y[72] + y[78] + y[81] + y[83] + y[88] + y[96] - z[770] >= 0
 R771: y[16] + y[24] + y[41] + y[71] - z[771] >= 0
 R772: y[2] + y[18] + y[21] + y[35] + y[36] + y[39] + y[56] + y[69] + y[84]
   + y[85] + y[93] + y[98] - z[772] >= 0
 R773: y[12] + y[18] + y[19] + y[26] + y[38] + y[44] + y[45] + y[47]
   + y[50] + y[56] + y[58] + y[62] + y[67] + y[69] + y[74] + y[75] + y[85]
   + y[87] + y[90] + y[93] - z[773] >= 0
 R774: y[4] + y[10] + y[28] + y[30] + y[31] + y[33] + y[43] + y[55] + y[59]
   + y[63] + y[80] + y[89] - z[774] >= 0
 R775: y[8] + y[19] + y[22] + y[26] + y[29] + y[34] + y[38] + y[45] + y[46]
   + y[52] + y[58] + y[62] + y[74] + y[75] + y[87] + y[90] - z[775] >= 0
 R776: y[18] + y[19] + y[21] + y[26] + y[29] + y[44] + y[50] + y[52]
   + y[56] + y[62] + y[69] + y[74] + y[75] + y[84] + y[85] + y[90] + y[93]
   - z[776] >= 0
 R777: y[6] + y[14] + y[48] + y[57] + y[65] + y[86] + y[91] + y[92]
   - z[777] >= 0
 R778: y[2] + y[32] + y[35] + y[36] + y[39] + y[49] + y[56] + y[78] + y[81]
   + y[83] + y[88] + y[96] - z[778] >= 0
 R779: y[18] + y[19] + y[21] + y[26] + y[29] + y[44] + y[50] + y[56]
   + y[62] + y[69] + y[74] + y[75] + y[84] + y[85] + y[90] + y[93] - z[779]
   >= 0
 R780: y[2] + y[4] + y[10] + y[28] + y[31] + y[32] + y[33] + y[43] + y[55]
   + y[79] + y[81] + y[89] + y[96] - z[780] >= 0
 R781: y[9] + y[11] + y[13] + y[40] + y[54] + y[55] + y[60] + y[68] + y[79]
   + y[99] - z[781] >= 0
 R782: y[3] + y[40] + y[48] + y[54] + y[55] + y[60] + y[72] + y[79] + y[86]
   + y[99] - z[782] >= 0
 R783: y[8] + y[12] + y[19] + y[22] + y[26] + y[38] + y[44] + y[45] + y[46]
   + y[47] + y[58] + y[61] + y[67] + y[70] + y[74] + y[75] + y[87] - z[783]
   >= 0
 R784: y[29] + y[34] + y[52] + y[62] - z[784] >= 0
 R785: y[98] - z[785] >= 0
 R786: y[8] + y[12] + y[22] + y[26] + y[34] + y[38] + y[45] + y[46] + y[47]
   + y[58] + y[61] + y[67] + y[70] + y[74] + y[87] - z[786] >= 0
 R787: y[2] + y[18] + y[20] + y[21] + y[32] + y[35] + y[36] + y[39] + y[49]
   + y[56] + y[69] + y[78] + y[81] + y[83] + y[84] + y[85] + y[88] + y[96]
   + y[98] - z[787] >= 0
 R788: y[2] + y[10] + y[31] + y[32] + y[35] + y[36] + y[49] + y[56] + y[78]
   + y[81] + y[83] + y[88] + y[89] + y[96] - z[788] >= 0
 R789: y[1] + y[6] + y[14] + y[20] + y[57] + y[65] + y[91] + y[92] + y[98]
   - z[789] >= 0
 R790: y[5] + y[7] + y[9] + y[13] + y[17] + y[37] + y[51] + y[53] + y[59]
   + y[68] + y[76] + y[95] - z[790] >= 0
 R791: y[5] + y[9] + y[11] + y[17] + y[64] + y[66] + y[77] + y[97] - z[791]
   >= 0
 R792: y[1] + y[20] + y[36] + y[39] + y[57] + y[65] + y[98] - z[792] >= 0
 R793: y[2] + y[18] + y[21] + y[35] + y[36] + y[39] + y[56] + y[69] + y[84]
   + y[85] + y[93] + y[98] - z[793] >= 0
 R794: y[9] + y[11] + y[13] + y[40] + y[53] + y[54] + y[55] + y[59] + y[60]
   + y[68] + y[79] + y[99] - z[794] >= 0
 R795: y[1] + y[20] + y[36] + y[39] + y[57] + y[98] - z[795] >= 0
 R796: y[0] + y[15] + y[16] + y[27] + y[30] + y[41] + y[71] + y[80] + y[82]
   + y[94] - z[796] >= 0
 R797: y[31] + y[40] + y[55] + y[60] + y[72] + y[79] + y[88] + y[89]
   + y[96] + y[99] - z[797] >= 0
 R798: y[29] + y[34] + y[52] + y[62] + y[74] + y[75] - z[798] >= 0
 R799: y[1] + y[6] + y[14] + y[65] + y[91] + y[92] - z[799] >= 0
 R800: y[3] + y[5] + y[9] + y[11] + y[13] + y[17] + y[51] + y[53] + y[54]
   + y[55] + y[60] + y[64] + y[66] + y[68] + y[77] + y[97] + y[99] - z[800]
   >= 0
 R801: y[6] + y[20] + y[48] + y[57] + y[72] + y[86] + y[91] + y[92]
   - z[801] >= 0
 R802: y[18] + y[21] + y[36] + y[44] + y[49] + y[50] + y[56] + y[69]
   + y[78] + y[83] + y[84] + y[85] + y[90] + y[93] - z[802] >= 0
 R803: y[4] + y[10] + y[28] + y[30] + y[31] + y[32] + y[33] + y[43] + y[78]
   + y[80] + y[81] + y[89] + y[94] - z[803] >= 0
 R804: y[18] + y[29] + y[50] + y[52] + y[62] + y[74] + y[75] + y[90]
   + y[93] - z[804] >= 0
 R805: y[0] + y[15] + y[82] - z[805] >= 0
 R806: y[18] + y[19] + y[21] + y[29] + y[44] + y[50] + y[56] + y[62]
   + y[69] + y[74] + y[75] + y[84] + y[85] + y[90] + y[93] - z[806] >= 0
 R807: y[1] + y[14] + y[20] + y[36] + y[39] + y[57] + y[65] + y[92] + y[98]
   - z[807] >= 0
 R808: y[5] + y[7] + y[9] + y[11] + y[13] + y[17] + y[51] + y[53] + y[64]
   + y[68] + y[95] + y[97] - z[808] >= 0
 R809: y[0] + y[4] + y[10] + y[15] + y[27] + y[28] + y[30] + y[31] + y[33]
   + y[43] + y[63] + y[80] + y[82] + y[89] + y[94] - z[809] >= 0
 R810: y[0] + y[4] + y[15] + y[27] + y[28] + y[30] + y[47] + y[67] + y[70]
   + y[80] + y[82] + y[94] - z[810] >= 0
 R811: y[5] + y[7] + y[9] + y[11] + y[13] + y[17] + y[37] + y[51] + y[53]
   + y[59] + y[63] + y[68] + y[76] + y[95] - z[811] >= 0
 R812: y[4] + y[10] + y[28] + y[31] + y[32] + y[33] + y[43] + y[55] + y[59]
   + y[63] + y[79] + y[89] - z[812] >= 0
 R813: y[0] + y[4] + y[10] + y[15] + y[16] + y[27] + y[28] + y[30] + y[31]
   + y[33] + y[43] + y[59] + y[63] + y[80] + y[82] + y[89] + y[94] - z[813]
   >= 0
 R814: y[8] + y[12] + y[19] + y[22] + y[26] + y[38] + y[45] + y[46] + y[47]
   + y[58] + y[61] + y[67] + y[70] + y[87] - z[814] >= 0
 R815: y[3] + y[40] + y[48] + y[54] + y[55] + y[60] + y[72] + y[79] + y[86]
   + y[99] - z[815] >= 0
 R816: y[29] + y[34] + y[52] + y[58] + y[62] + y[74] + y[75] - z[816] >= 0
 R817: y[2] + y[20] + y[35] + y[36] + y[39] + y[48] + y[57] + y[72] + y[86]
   + y[88] + y[91] + y[92] + y[96] + y[98] - z[817] >= 0
 R818: y[8] + y[12] + y[15] + y[22] + y[26] + y[38] + y[45] + y[46] + y[47]
   + y[61] + y[67] + y[70] + y[87] - z[818] >= 0
 R819: y[7] + y[13] + y[23] + y[25] + y[33] + y[37] + y[42] + y[51] + y[53]
   + y[59] + y[63] + y[68] + y[76] + y[95] - z[819] >= 0
 R820: y[4] + y[10] + y[28] + y[30] + y[31] + y[33] + y[43] + y[55] + y[59]
   + y[63] + y[80] + y[89] - z[820] >= 0
 R821: y[4] + y[12] + y[15] + y[19] + y[26] + y[30] + y[38] + y[45] + y[46]
   + y[47] + y[67] + y[70] + y[82] + y[87] - z[821] >= 0
 R822: y[18] + y[19] + y[21] + y[44] + y[49] + y[50] + y[56] + y[69]
   + y[74] + y[75] + y[78] + y[83] + y[84] + y[85] + y[90] + y[93] - z[822]
   >= 0
 R823: y[11] + y[17] + y[64] + y[66] + y[77] + y[97] - z[823] >= 0
 R824: y[16] + y[23] + y[24] + y[25] + y[27] + y[28] + y[33] + y[37]
   + y[42] + y[59] + y[63] + y[71] + y[73] + y[76] + y[80] + y[94] - z[824]
   >= 0
 R825: y[10] + y[13] + y[28] + y[31] + y[33] + y[43] + y[55] + y[59]
   + y[63] + y[68] + y[79] + y[89] - z[825] >= 0
 R826: y[4] + y[10] + y[19] + y[26] + y[31] + y[32] + y[44] + y[47] + y[49]
   + y[56] + y[67] + y[78] + y[81] + y[83] + y[89] - z[826] >= 0
 R827: y[3] + y[11] + y[17] + y[54] + y[64] + y[66] + y[77] + y[97]
   - z[827] >= 0
 R828: y[18] + y[21] + y[50] + y[69] + y[84] + y[85] + y[93] - z[828] >= 0
 R829: y[4] + y[10] + y[28] + y[31] + y[33] + y[43] + y[55] + y[59] + y[63]
   + y[79] + y[89] - z[829] >= 0
 R830: y[2] + y[20] + y[35] + y[36] + y[39] + y[48] + y[57] + y[72] + y[79]
   + y[86] + y[88] + y[91] + y[96] - z[830] >= 0
 R831: y[4] + y[10] + y[28] + y[30] + y[31] + y[33] + y[43] + y[55] + y[59]
   + y[63] + y[80] + y[89] + y[94] - z[831] >= 0
 R832: y[8] + y[12] + y[19] + y[22] + y[26] + y[34] + y[38] + y[45] + y[46]
   + y[52] + y[58] + y[61] + y[62] + y[74] + y[75] + y[87] - z[832] >= 0
 R833: y[0] + y[16] + y[23] + y[24] + y[25] + y[27] + y[28] + y[30] + y[33]
   + y[37] + y[42] + y[43] + y[59] + y[63] + y[71] + y[73] + y[76] + y[80]
   + y[82] + y[94] - z[833] >= 0
 R834: y[0] + y[15] + y[16] + y[23] + y[24] + y[25] + y[27] + y[28] + y[30]
   + y[33] + y[37] + y[42] + y[43] + y[59] + y[63] + y[71] + y[73] + y[76]
   + y[80] + y[82] + y[94] - z[834] >= 0
 R835: y[2] + y[18] + y[20] + y[21] + y[35] + y[36] + y[39] + y[56] + y[69]
   + y[84] + y[85] + y[93] + y[98] - z[835] >= 0
 R836: y[18] + y[19] + y[21] + y[26] + y[44] + y[49] + y[50] + y[56]
   + y[62] + y[69] + y[74] + y[75] + y[78] + y[81] + y[83] + y[84] + y[85]
   + y[90] + y[93] - z[836] >= 0
 R837: y[2] + y[20] + y[35] + y[36] + y[39] + y[57] + y[84] + y[85] + y[88]
   + y[96] + y[98] - z[837] >= 0
 R838: y[1] + y[6] + y[14] + y[20] + y[36] + y[39] + y[48] + y[57] + y[65]
   + y[86] + y[91] + y[92] + y[98] - z[838] >= 0
 R839: y[6] + y[40] + y[48] + y[60] + y[72] + y[86] + y[91] + y[92]
   - z[839] >= 0
 R840: y[3] + y[9] + y[11] + y[13] + y[17] + y[40] + y[53] + y[54] + y[55]
   + y[60] + y[64] + y[66] + y[68] + y[77] + y[97] + y[99] - z[840] >= 0
 R841: y[40] + y[48] + y[54] + y[55] + y[60] + y[72] + y[79] + y[86]
   + y[96] + y[99] - z[841] >= 0
 R842: y[5] + y[7] + y[9] + y[11] + y[13] + y[17] + y[51] + y[53] + y[55]
   + y[59] + y[63] + y[68] + y[95] - z[842] >= 0
 R843: y[8] + y[12] + y[19] + y[22] + y[26] + y[34] + y[38] + y[45] + y[46]
   + y[47] + y[58] + y[61] + y[62] + y[67] + y[70] + y[74] + y[75] + y[87]
   - z[843] >= 0
 R844: y[16] + y[24] + y[41] + y[71] - z[844] >= 0
 R845: y[2] + y[20] + y[32] + y[35] + y[36] + y[39] + y[48] + y[57] + y[72]
   + y[86] + y[88] + y[91] + y[92] + y[96] - z[845] >= 0
 R846: y[8] + y[22] + y[34] + y[38] + y[45] + y[46] + y[58] + y[61] + y[74]
   + y[75] + y[87] - z[846] >= 0
 R847: y[5] + y[7] + y[9] + y[13] + y[25] + y[33] + y[37] + y[51] + y[53]
   + y[55] + y[59] + y[63] + y[68] + y[76] + y[95] - z[847] >= 0
 R848: y[16] + y[23] + y[24] + y[25] + y[27] + y[37] + y[42] + y[71]
   + y[73] + y[76] - z[848] >= 0
 R849: y[18] + y[19] + y[29] + y[44] + y[50] + y[52] + y[62] + y[69]
   + y[74] + y[75] + y[84] + y[85] + y[90] + y[93] - z[849] >= 0
 R850: y[2] + y[20] + y[35] + y[36] + y[39] + y[48] + y[57] + y[72] + y[86]
   + y[88] + y[91] + y[92] + y[96] - z[850] >= 0
 R851: y[18] + y[19] + y[21] + y[44] + y[49] + y[50] + y[56] + y[69]
   + y[78] + y[81] + y[83] + y[84] + y[85] + y[90] + y[93] - z[851] >= 0
 R852: y[5] + y[7] + y[9] + y[13] + y[17] + y[25] + y[37] + y[51] + y[53]
   + y[59] + y[63] + y[68] + y[76] + y[95] - z[852] >= 0
 R853: y[5] + y[9] + y[11] + y[13] + y[17] + y[51] + y[53] + y[64] + y[66]
   + y[68] + y[77] + y[97] - z[853] >= 0
 R854: y[2] + y[10] + y[31] + y[32] + y[43] + y[55] + y[72] + y[79] + y[88]
   + y[89] + y[96] + y[99] - z[854] >= 0
 R855: y[2] + y[20] + y[32] + y[35] + y[36] + y[39] + y[57] + y[81] + y[88]
   + y[96] + y[98] - z[855] >= 0
 R856: y[0] + y[4] + y[15] + y[27] + y[30] + y[47] + y[67] + y[70] + y[80]
   + y[82] + y[94] - z[856] >= 0
 R857: y[10] + y[28] + y[31] + y[32] + y[33] + y[43] + y[55] + y[79]
   + y[89] + y[99] - z[857] >= 0
 R858: y[8] + y[19] + y[22] + y[26] + y[29] + y[34] + y[38] + y[44] + y[45]
   + y[46] + y[50] + y[52] + y[58] + y[62] + y[74] + y[75] + y[87] + y[90]
   - z[858] >= 0
 R859: y[6] + y[48] + y[57] + y[86] + y[91] + y[92] - z[859] >= 0
 R860: y[0] + y[15] + y[16] + y[23] + y[24] + y[25] + y[27] + y[28] + y[30]
   + y[33] + y[37] + y[42] + y[43] + y[63] + y[71] + y[73] + y[80] + y[82]
   + y[94] - z[860] >= 0
 R861: y[6] + y[48] + y[86] + y[91] + y[92] - z[861] >= 0
 R862: y[3] + y[9] + y[11] + y[13] + y[40] + y[54] + y[55] + y[60] + y[77]
   + y[79] + y[99] - z[862] >= 0
 R863: y[4] + y[10] + y[19] + y[26] + y[31] + y[32] + y[44] + y[47] + y[49]
   + y[56] + y[78] + y[81] + y[83] + y[89] - z[863] >= 0
 R864: y[7] + y[16] + y[23] + y[25] + y[33] + y[37] + y[42] + y[51] + y[53]
   + y[59] + y[63] + y[68] + y[73] + y[76] + y[80] + y[95] - z[864] >= 0
 R865: y[2] + y[6] + y[20] + y[35] + y[36] + y[39] + y[48] + y[57] + y[72]
   + y[86] + y[88] + y[91] + y[92] + y[96] - z[865] >= 0
 R866: y[16] + y[23] + y[25] + y[27] + y[28] + y[33] + y[37] + y[42]
   + y[43] + y[59] + y[63] + y[76] + y[80] - z[866] >= 0
 R867: y[0] + y[15] + y[16] + y[23] + y[24] + y[27] + y[28] + y[30] + y[33]
   + y[42] + y[43] + y[71] + y[80] + y[82] + y[94] - z[867] >= 0
 R868: y[16] + y[23] + y[24] + y[25] + y[27] + y[37] + y[42] + y[71]
   + y[73] + y[76] - z[868] >= 0
 R869: y[5] + y[7] + y[13] + y[23] + y[25] + y[37] + y[42] + y[51] + y[53]
   + y[59] + y[63] + y[68] + y[73] + y[76] + y[95] - z[869] >= 0
 R870: y[1] + y[6] + y[14] + y[20] + y[36] + y[39] + y[57] + y[65] + y[91]
   + y[92] + y[98] - z[870] >= 0
 R871: y[0] + y[16] + y[23] + y[24] + y[25] + y[27] + y[30] + y[37] + y[41]
   + y[42] + y[71] + y[73] + y[80] + y[82] + y[94] - z[871] >= 0
 R872: y[5] + y[7] + y[13] + y[25] + y[37] + y[51] + y[53] + y[59] + y[68]
   + y[76] + y[95] - z[872] >= 0
 R873: y[1] + y[6] + y[14] + y[20] + y[36] + y[39] + y[57] + y[65] + y[91]
   + y[92] + y[98] - z[873] >= 0
 R874: y[2] + y[18] + y[32] + y[35] + y[36] + y[44] + y[49] + y[56] + y[69]
   + y[78] + y[81] + y[83] + y[84] + y[85] + y[88] + y[93] + y[96] - z[874]
   >= 0
 R875: y[1] + y[6] + y[14] + y[20] + y[48] + y[57] + y[65] + y[91] + y[92]
   + y[98] - z[875] >= 0
 R876: y[18] + y[19] + y[21] + y[44] + y[49] + y[50] + y[56] + y[69]
   + y[78] + y[81] + y[83] + y[84] + y[85] + y[90] + y[93] - z[876] >= 0
 R877: y[29] + y[34] + y[52] + y[58] + y[62] + y[74] + y[75] + y[90]
   - z[877] >= 0
 R878: y[10] + y[23] + y[25] + y[27] + y[28] + y[30] + y[33] + y[37]
   + y[42] + y[43] + y[59] + y[63] + y[76] + y[80] - z[878] >= 0
 R879: y[4] + y[10] + y[15] + y[28] + y[30] + y[31] + y[32] + y[43] + y[47]
   + y[49] + y[67] + y[78] + y[80] + y[81] + y[83] + y[89] + y[94] - z[879]
   >= 0
 R880: y[29] + y[34] + y[50] + y[52] + y[58] + y[62] + y[74] + y[75]
   + y[90] - z[880] >= 0
 R881: y[0] + y[16] + y[24] + y[27] + y[41] + y[71] - z[881] >= 0
 R882: y[4] + y[19] + y[26] + y[32] + y[38] + y[44] + y[47] + y[49] + y[56]
   + y[67] + y[78] + y[81] + y[83] + y[89] - z[882] >= 0
 R883: y[31] + y[40] + y[55] + y[60] + y[72] + y[79] + y[89] + y[99]
   - z[883] >= 0
 R884: y[2] + y[10] + y[31] + y[32] + y[35] + y[44] + y[49] + y[56] + y[78]
   + y[81] + y[83] + y[88] + y[89] + y[96] - z[884] >= 0
 R885: y[7] + y[16] + y[23] + y[25] + y[27] + y[28] + y[33] + y[37] + y[42]
   + y[43] + y[53] + y[59] + y[63] + y[73] + y[76] + y[80] + y[95] - z[885]
   >= 0
 R886: y[0] + y[4] + y[10] + y[15] + y[16] + y[23] + y[27] + y[28] + y[30]
   + y[33] + y[43] + y[63] + y[80] + y[82] + y[94] - z[886] >= 0
 R887: y[12] + y[18] + y[19] + y[26] + y[38] + y[44] + y[47] + y[49]
   + y[50] + y[56] + y[67] + y[69] + y[74] + y[75] + y[78] + y[81] + y[83]
   + y[85] + y[87] + y[90] + y[93] - z[887] >= 0
 R888: y[18] + y[21] + y[35] + y[36] + y[39] + y[50] + y[56] + y[69]
   + y[84] + y[85] + y[93] + y[98] - z[888] >= 0
 R889: y[5] + y[7] + y[9] + y[13] + y[25] + y[37] + y[51] + y[53] + y[59]
   + y[63] + y[68] + y[76] + y[95] - z[889] >= 0
 R890: y[5] + y[11] + y[17] + y[64] + y[66] + y[77] + y[97] - z[890] >= 0
 R891: y[3] + y[40] + y[48] + y[54] + y[60] + y[72] + y[79] + y[86] + y[96]
   + y[99] - z[891] >= 0
 R892: y[0] + y[4] + y[10] + y[15] + y[16] + y[27] + y[28] + y[30] + y[31]
   + y[33] + y[43] + y[59] + y[63] + y[80] + y[82] + y[89] + y[94] - z[892]
   >= 0
 R893: y[18] + y[21] + y[50] + y[69] + y[84] + y[85] + y[93] + y[98]
   - z[893] >= 0
 R894: y[18] + y[19] + y[21] + y[44] + y[49] + y[50] + y[56] + y[69]
   + y[78] + y[83] + y[84] + y[85] + y[90] + y[93] - z[894] >= 0
 R895: y[1] + y[14] + y[20] + y[36] + y[39] + y[57] + y[65] + y[92] + y[98]
   - z[895] >= 0
 R896: y[8] + y[12] + y[22] + y[38] + y[45] + y[46] + y[61] + y[67] + y[70]
   + y[87] - z[896] >= 0
 R897: y[19] + y[29] + y[34] + y[50] + y[52] + y[58] + y[62] + y[74]
   + y[75] + y[90] + y[93] - z[897] >= 0
 R898: y[0] + y[4] + y[10] + y[15] + y[16] + y[27] + y[28] + y[30] + y[33]
   + y[43] + y[80] + y[82] + y[94] - z[898] >= 0
 R899: y[1] + y[6] + y[14] + y[57] + y[65] + y[91] + y[92] - z[899] >= 0
 R900: y[6] + y[14] + y[48] + y[57] + y[86] + y[91] + y[92] - z[900] >= 0
 R901: y[3] + y[40] + y[48] + y[54] + y[60] + y[77] + y[86] - z[901] >= 0
 R902: y[0] + y[15] + y[27] + y[41] + y[82] + y[94] - z[902] >= 0
 R903: y[0] + y[15] + y[16] + y[27] + y[30] + y[41] + y[80] + y[82] + y[94]
   - z[903] >= 0
 R904: y[2] + y[18] + y[19] + y[26] + y[32] + y[44] + y[47] + y[49] + y[56]
   + y[69] + y[78] + y[81] + y[83] + y[85] + y[93] - z[904] >= 0
 R905: y[2] + y[20] + y[35] + y[36] + y[39] + y[57] + y[88] + y[96] + y[98]
   - z[905] >= 0
 R906: y[0] + y[4] + y[15] + y[16] + y[27] + y[28] + y[30] + y[43] + y[80]
   + y[82] + y[94] - z[906] >= 0
 R907: y[2] + y[10] + y[31] + y[32] + y[35] + y[55] + y[72] + y[79] + y[81]
   + y[88] + y[89] + y[96] + y[99] - z[907] >= 0
 R908: y[2] + y[4] + y[10] + y[31] + y[32] + y[44] + y[49] + y[56] + y[78]
   + y[81] + y[83] + y[89] - z[908] >= 0
 R909: y[16] + y[23] + y[25] + y[27] + y[28] + y[33] + y[37] + y[42]
   + y[43] + y[59] + y[63] + y[73] + y[76] + y[80] - z[909] >= 0
 R910: y[8] + y[22] + y[34] + y[52] + y[58] + y[62] + y[74] + y[75]
   - z[910] >= 0
 R911: y[16] + y[23] + y[25] + y[27] + y[28] + y[30] + y[33] + y[37]
   + y[42] + y[43] + y[59] + y[63] + y[73] + y[76] + y[80] + y[94] - z[911]
   >= 0
 R912: y[24] + y[41] + y[71] - z[912] >= 0
 R913: y[4] + y[10] + y[19] + y[26] + y[31] + y[32] + y[44] + y[47] + y[49]
   + y[56] + y[67] + y[78] + y[81] + y[83] + y[89] - z[913] >= 0
 R914: y[0] + y[4] + y[10] + y[15] + y[16] + y[27] + y[28] + y[30] + y[31]
   + y[33] + y[43] + y[59] + y[63] + y[80] + y[82] + y[89] + y[94] - z[914]
   >= 0
 R915: y[0] + y[15] + y[41] + y[82] - z[915] >= 0
 R916: y[9] + y[40] + y[54] + y[55] + y[60] + y[72] + y[79] + y[99]
   - z[916] >= 0
 R917: y[5] + y[7] + y[9] + y[13] + y[17] + y[51] + y[53] + y[68] + y[95]
   - z[917] >= 0
 R918: y[18] + y[19] + y[26] + y[29] + y[44] + y[50] + y[56] + y[62]
   + y[69] + y[74] + y[75] + y[84] + y[85] + y[90] + y[93] - z[918] >= 0
 R919: y[2] + y[18] + y[21] + y[35] + y[36] + y[44] + y[49] + y[50] + y[56]
   + y[69] + y[78] + y[81] + y[83] + y[84] + y[85] + y[90] + y[93] - z[919]
   >= 0
 R920: y[2] + y[20] + y[32] + y[35] + y[36] + y[39] + y[49] + y[56] + y[57]
   + y[78] + y[81] + y[83] + y[85] + y[88] + y[96] - z[920] >= 0
 R921: y[3] + y[11] + y[17] + y[54] + y[64] + y[66] + y[77] + y[97]
   - z[921] >= 0
 R922: y[2] + y[20] + y[35] + y[36] + y[39] + y[57] + y[84] + y[88] + y[96]
   + y[98] - z[922] >= 0
 R923: y[2] + y[4] + y[19] + y[26] + y[31] + y[32] + y[44] + y[47] + y[49]
   + y[56] + y[69] + y[78] + y[81] + y[83] + y[89] - z[923] >= 0
 R924: y[5] + y[7] + y[9] + y[11] + y[13] + y[17] + y[51] + y[53] + y[64]
   + y[68] + y[95] + y[97] - z[924] >= 0
 R925: y[1] + y[6] + y[14] + y[20] + y[57] + y[65] + y[91] + y[92] + y[98]
   - z[925] >= 0
 R926: y[1] + y[6] + y[14] + y[65] + y[91] + y[92] - z[926] >= 0
 R927: y[3] + y[9] + y[11] + y[40] + y[54] + y[55] + y[60] + y[77] + y[79]
   + y[99] - z[927] >= 0
 R928: y[5] + y[9] + y[11] + y[17] + y[64] + y[66] + y[77] + y[97] - z[928]
   >= 0
 R929: y[16] + y[23] + y[24] + y[25] + y[27] + y[28] + y[30] + y[33]
   + y[37] + y[42] + y[43] + y[59] + y[63] + y[71] + y[73] + y[76] + y[80]
   + y[94] - z[929] >= 0
 R930: y[4] + y[10] + y[25] + y[27] + y[28] + y[30] + y[31] + y[33] + y[43]
   + y[55] + y[59] + y[63] + y[80] + y[89] - z[930] >= 0
 R931: y[10] + y[31] + y[55] + y[60] + y[79] + y[89] + y[99] - z[931] >= 0
 R932: y[16] + y[23] + y[25] + y[27] + y[28] + y[30] + y[33] + y[37]
   + y[42] + y[43] + y[59] + y[63] + y[73] + y[76] + y[80] + y[94] - z[932]
   >= 0
 R933: y[0] + y[15] + y[41] + y[82] - z[933] >= 0
 R934: y[8] + y[12] + y[19] + y[22] + y[26] + y[34] + y[38] + y[44] + y[45]
   + y[46] + y[47] + y[58] + y[61] + y[67] + y[70] + y[74] + y[75] + y[87]
   - z[934] >= 0
 R935: y[4] + y[10] + y[28] + y[30] + y[31] + y[32] + y[33] + y[43] + y[47]
   + y[49] + y[78] + y[81] + y[83] + y[89] - z[935] >= 0
 R936: y[2] + y[20] + y[32] + y[35] + y[36] + y[39] + y[49] + y[57] + y[72]
   + y[81] + y[88] + y[96] + y[98] - z[936] >= 0
 R937: y[4] + y[10] + y[28] + y[30] + y[31] + y[32] + y[33] + y[43] + y[55]
   + y[59] + y[63] + y[79] + y[80] + y[89] - z[937] >= 0
 R938: y[3] + y[40] + y[54] + y[60] + y[66] + y[77] + y[97] - z[938] >= 0
 R939: y[18] + y[19] + y[21] + y[29] + y[44] + y[50] + y[56] + y[62]
   + y[69] + y[74] + y[75] + y[84] + y[85] + y[90] + y[93] - z[939] >= 0
 R940: y[2] + y[20] + y[35] + y[36] + y[39] + y[57] + y[88] + y[96] + y[98]
   - z[940] >= 0
 R941: y[10] + y[13] + y[25] + y[28] + y[31] + y[33] + y[37] + y[43]
   + y[55] + y[59] + y[63] + y[80] + y[89] - z[941] >= 0
 R942: y[2] + y[20] + y[32] + y[35] + y[36] + y[39] + y[49] + y[56] + y[78]
   + y[81] + y[83] + y[88] + y[96] - z[942] >= 0
 R943: y[9] + y[11] + y[13] + y[40] + y[54] + y[55] + y[60] + y[68] + y[79]
   + y[99] - z[943] >= 0
 R944: y[4] + y[10] + y[28] + y[30] + y[31] + y[32] + y[33] + y[43] + y[49]
   + y[78] + y[81] + y[83] + y[89] - z[944] >= 0
 R945: y[5] + y[7] + y[9] + y[11] + y[13] + y[17] + y[51] + y[53] + y[64]
   + y[68] + y[95] + y[97] - z[945] >= 0
 R946: y[18] + y[21] + y[50] + y[69] + y[84] + y[85] + y[90] + y[93]
   - z[946] >= 0
 R947: y[0] + y[15] + y[30] + y[70] + y[82] + y[94] - z[947] >= 0
 R948: y[20] + y[35] + y[36] + y[39] + y[57] + y[98] - z[948] >= 0
 R949: y[5] + y[7] + y[9] + y[13] + y[25] + y[33] + y[37] + y[51] + y[53]
   + y[59] + y[63] + y[68] + y[76] + y[95] - z[949] >= 0
 R950: y[2] + y[20] + y[35] + y[36] + y[39] + y[56] + y[57] + y[81] + y[84]
   + y[88] + y[96] + y[98] - z[950] >= 0
 R951: y[18] + y[21] + y[50] + y[69] + y[84] + y[85] + y[90] + y[93]
   - z[951] >= 0
 R952: y[0] + y[4] + y[10] + y[15] + y[16] + y[23] + y[27] + y[28] + y[30]
   + y[33] + y[42] + y[43] + y[59] + y[63] + y[80] + y[82] + y[94] - z[952]
   >= 0
 R953: y[18] + y[21] + y[69] + y[84] + y[85] + y[98] - z[953] >= 0
 R954: y[3] + y[9] + y[11] + y[40] + y[54] + y[55] + y[60] + y[66] + y[77]
   + y[79] + y[99] - z[954] >= 0
 R955: y[8] + y[22] + y[29] + y[34] + y[52] + y[58] + y[62] + y[74] + y[75]
   - z[955] >= 0
 R956: y[0] + y[12] + y[15] + y[38] + y[45] + y[46] + y[47] + y[61] + y[67]
   + y[70] + y[82] + y[87] - z[956] >= 0
 R957: y[8] + y[12] + y[15] + y[22] + y[26] + y[38] + y[45] + y[46] + y[47]
   + y[61] + y[67] + y[70] + y[87] - z[957] >= 0
 R958: y[6] + y[20] + y[39] + y[48] + y[57] + y[72] + y[86] + y[91] + y[92]
   - z[958] >= 0
 R959: y[19] + y[26] + y[29] + y[34] + y[38] + y[44] + y[50] + y[52]
   + y[58] + y[62] + y[74] + y[75] + y[90] + y[93] - z[959] >= 0
 R960: y[3] + y[11] + y[40] + y[54] + y[60] + y[66] + y[77] + y[99]
   - z[960] >= 0
 R961: y[18] + y[19] + y[29] + y[44] + y[50] + y[52] + y[62] + y[69]
   + y[74] + y[75] + y[84] + y[85] + y[90] + y[93] - z[961] >= 0
 R962: y[0] + y[4] + y[10] + y[15] + y[27] + y[28] + y[30] + y[33] + y[43]
   + y[80] + y[82] + y[89] + y[94] - z[962] >= 0
 R963: y[0] + y[4] + y[15] + y[27] + y[28] + y[30] + y[43] + y[47] + y[70]
   + y[80] + y[82] + y[94] - z[963] >= 0
 R964: y[18] + y[21] + y[50] + y[69] + y[84] + y[85] + y[93] - z[964] >= 0
 R965: y[2] + y[20] + y[35] + y[36] + y[39] + y[57] + y[88] + y[92] + y[96]
   + y[98] - z[965] >= 0
 R966: y[5] + y[7] + y[9] + y[11] + y[13] + y[17] + y[51] + y[53] + y[54]
   + y[55] + y[64] + y[68] + y[95] + y[97] - z[966] >= 0
 R967: y[16] + y[23] + y[24] + y[25] + y[27] + y[28] + y[30] + y[33]
   + y[37] + y[42] + y[43] + y[59] + y[63] + y[71] + y[73] + y[76] + y[80]
   + y[94] - z[967] >= 0
 R968: y[16] + y[24] + y[41] + y[71] - z[968] >= 0
 R969: y[18] + y[21] + y[29] + y[44] + y[50] + y[62] + y[69] + y[74]
   + y[75] + y[84] + y[85] + y[90] + y[93] - z[969] >= 0
 R970: y[1] + y[14] + y[20] + y[39] + y[57] + y[65] + y[98] - z[970] >= 0
 R971: y[4] + y[10] + y[28] + y[30] + y[31] + y[32] + y[33] + y[43] + y[63]
   + y[80] + y[89] + y[94] - z[971] >= 0
 R972: y[1] + y[6] + y[14] + y[65] + y[92] - z[972] >= 0
 R973: y[2] + y[10] + y[31] + y[32] + y[35] + y[49] + y[72] + y[78] + y[79]
   + y[81] + y[83] + y[88] + y[89] + y[96] - z[973] >= 0
 R974: y[18] + y[19] + y[21] + y[44] + y[49] + y[50] + y[56] + y[69]
   + y[74] + y[75] + y[78] + y[83] + y[84] + y[85] + y[90] + y[93] - z[974]
   >= 0
 R975: y[8] + y[12] + y[19] + y[22] + y[26] + y[34] + y[38] + y[44] + y[45]
   + y[46] + y[47] + y[58] + y[61] + y[62] + y[67] + y[74] + y[75] + y[87]
   + y[90] - z[975] >= 0
 R976: y[9] + y[10] + y[13] + y[31] + y[33] + y[55] + y[59] + y[63] + y[79]
   + y[89] + y[99] - z[976] >= 0
 R977: y[31] + y[40] + y[55] + y[60] + y[72] + y[79] + y[96] + y[99]
   - z[977] >= 0
 R978: y[1] + y[14] + y[20] + y[36] + y[39] + y[57] + y[65] + y[92] + y[98]
   - z[978] >= 0
 R979: y[1] + y[14] + y[65] + y[98] - z[979] >= 0
 R980: y[9] + y[11] + y[13] + y[40] + y[54] + y[55] + y[60] + y[68] + y[79]
   + y[99] - z[980] >= 0
 R981: y[2] + y[4] + y[10] + y[28] + y[31] + y[32] + y[43] + y[47] + y[49]
   + y[56] + y[78] + y[81] + y[83] + y[89] - z[981] >= 0
 R982: y[40] + y[55] + y[60] + y[72] + y[79] + y[86] + y[88] + y[96]
   + y[99] - z[982] >= 0
 R983: y[2] + y[18] + y[21] + y[35] + y[36] + y[39] + y[44] + y[49] + y[50]
   + y[56] + y[69] + y[78] + y[81] + y[83] + y[84] + y[85] + y[93] - z[983]
   >= 0
 R984: y[1] + y[20] + y[35] + y[36] + y[39] + y[57] + y[88] + y[92] + y[98]
   - z[984] >= 0
 R985: y[1] + y[20] + y[36] + y[39] + y[57] + y[92] + y[98] - z[985] >= 0
 R986: y[4] + y[10] + y[12] + y[15] + y[26] + y[30] + y[38] + y[47] + y[67]
   + y[70] + y[78] + y[82] + y[83] + y[89] + y[94] - z[986] >= 0
 R987: y[16] + y[23] + y[25] + y[27] + y[28] + y[33] + y[37] + y[42]
   + y[43] + y[59] + y[63] + y[73] + y[76] + y[80] - z[987] >= 0
 R988: y[9] + y[11] + y[13] + y[17] + y[40] + y[51] + y[53] + y[54] + y[55]
   + y[59] + y[60] + y[68] + y[79] + y[99] - z[988] >= 0
 R989: y[29] + y[34] + y[52] + y[62] + y[74] + y[75] - z[989] >= 0
 R990: y[5] + y[7] + y[9] + y[11] + y[13] + y[17] + y[51] + y[53] + y[54]
   + y[64] + y[68] + y[95] + y[97] - z[990] >= 0
 R991: y[4] + y[10] + y[16] + y[23] + y[25] + y[27] + y[28] + y[30] + y[31]
   + y[33] + y[37] + y[42] + y[43] + y[59] + y[63] + y[76] + y[80] + y[89]
   + y[94] - z[991] >= 0
 R992: y[31] + y[40] + y[55] + y[60] + y[79] + y[89] + y[99] - z[992] >= 0
 R993: y[0] + y[16] + y[23] + y[24] + y[25] + y[27] + y[37] + y[41] + y[42]
   + y[71] + y[73] + y[80] + y[82] + y[94] - z[993] >= 0
 R994: y[0] + y[12] + y[15] + y[45] + y[46] + y[47] + y[61] + y[67] + y[70]
   + y[82] - z[994] >= 0
 R995: y[5] + y[7] + y[9] + y[11] + y[13] + y[17] + y[51] + y[53] + y[64]
   + y[68] + y[95] + y[97] - z[995] >= 0
 R996: y[2] + y[20] + y[35] + y[36] + y[39] + y[57] + y[84] + y[88] + y[96]
   + y[98] - z[996] >= 0
 R997: y[0] + y[16] + y[23] + y[24] + y[27] + y[41] + y[42] + y[71] + y[73]
   + y[80] + y[82] + y[94] - z[997] >= 0
 R998: y[3] + y[40] + y[54] + y[60] + y[66] + y[77] + y[99] - z[998] >= 0
 R999: y[8] + y[12] + y[19] + y[22] + y[26] + y[34] + y[38] + y[44] + y[45]
   + y[46] + y[47] + y[58] + y[61] + y[62] + y[67] + y[70] + y[74] + y[75]
   + y[87] + y[90] - z[999] >= 0
 R1000: y[2] + y[20] + y[32] + y[35] + y[36] + y[39] + y[49] + y[56]
   + y[57] + y[78] + y[81] + y[83] + y[88] + y[96] - z[1000] >= 0
 R1001: y[18] + y[19] + y[26] + y[29] + y[34] + y[44] + y[50] + y[52]
   + y[58] + y[62] + y[74] + y[75] + y[90] + y[93] - z[1001] >= 0
 R1002: y[8] + y[34] + y[52] + y[58] + y[62] + y[74] + y[75] - z[1002]
   >= 0
 R1003: y[8] + y[12] + y[19] + y[22] + y[26] + y[38] + y[45] + y[46]
   + y[47] + y[58] + y[61] + y[67] + y[70] + y[87] - z[1003] >= 0
 R1004: y[2] + y[20] + y[32] + y[35] + y[36] + y[39] + y[49] + y[56]
   + y[57] + y[78] + y[81] + y[83] + y[85] + y[88] + y[96] + y[98]
   - z[1004] >= 0
 R1005: y[3] + y[9] + y[11] + y[13] + y[17] + y[40] + y[54] + y[60] + y[64]
   + y[66] + y[68] + y[77] + y[97] + y[99] - z[1005] >= 0
 R1006: y[4] + y[10] + y[27] + y[28] + y[30] + y[31] + y[33] + y[43]
   + y[55] + y[59] + y[63] + y[80] + y[89] + y[94] - z[1006] >= 0
 R1007: y[9] + y[11] + y[13] + y[40] + y[53] + y[54] + y[55] + y[59]
   + y[60] + y[68] + y[79] + y[99] - z[1007] >= 0
 R1008: y[16] + y[23] + y[24] + y[25] + y[27] + y[33] + y[37] + y[42]
   + y[59] + y[63] + y[71] + y[73] + y[76] + y[80] + y[95] - z[1008] >= 0
 R1009: y[18] + y[21] + y[84] + y[85] + y[98] - z[1009] >= 0
 R1010: y[8] + y[12] + y[15] + y[22] + y[45] + y[46] + y[47] + y[61]
   + y[67] + y[70] + y[87] - z[1010] >= 0
 R1011: y[0] + y[4] + y[15] + y[16] + y[27] + y[28] + y[30] + y[33] + y[43]
   + y[80] + y[82] + y[94] - z[1011] >= 0
 R1012: y[2] + y[18] + y[19] + y[26] + y[32] + y[35] + y[44] + y[49]
   + y[56] + y[69] + y[78] + y[81] + y[83] + y[85] + y[93] - z[1012] >= 0
 R1013: y[3] + y[40] + y[48] + y[60] + y[86] + y[91] - z[1013] >= 0
 R1014: y[0] + y[4] + y[15] + y[27] + y[28] + y[30] + y[43] + y[70] + y[80]
   + y[82] + y[94] - z[1014] >= 0
 R1015: y[41] + y[71] - z[1015] >= 0
 R1016: y[1] + y[6] + y[14] + y[65] + y[91] + y[92] - z[1016] >= 0
 R1017: y[7] + y[9] + y[11] + y[13] + y[17] + y[40] + y[51] + y[53] + y[54]
   + y[55] + y[59] + y[60] + y[68] + y[79] + y[99] - z[1017] >= 0
 R1018: y[5] + y[9] + y[11] + y[13] + y[17] + y[51] + y[53] + y[64] + y[68]
   + y[97] - z[1018] >= 0
 R1019: y[1] + y[14] + y[20] + y[36] + y[39] + y[57] + y[65] + y[92]
   + y[98] - z[1019] >= 0
 R1020: y[0] + y[12] + y[15] + y[46] + y[61] + y[67] + y[70] + y[82]
   - z[1020] >= 0
 R1021: y[2] + y[20] + y[35] + y[36] + y[39] + y[48] + y[57] + y[72]
   + y[79] + y[86] + y[88] + y[91] + y[92] + y[96] - z[1021] >= 0
 R1022: y[40] + y[48] + y[60] + y[72] + y[86] + y[91] + y[92] + y[99]
   - z[1022] >= 0
 R1023: y[10] + y[31] + y[32] + y[55] + y[72] + y[79] + y[88] + y[89]
   + y[96] + y[99] - z[1023] >= 0
 R1024: y[0] + y[4] + y[10] + y[15] + y[16] + y[27] + y[28] + y[30] + y[31]
   + y[33] + y[43] + y[59] + y[63] + y[80] + y[82] + y[89] + y[94]
   - z[1024] >= 0
 R1025: y[3] + y[5] + y[7] + y[9] + y[11] + y[13] + y[17] + y[51] + y[53]
   + y[54] + y[55] + y[64] + y[68] + y[77] + y[97] + y[99] - z[1025] >= 0
 R1026: y[4] + y[10] + y[28] + y[30] + y[31] + y[32] + y[33] + y[43]
   + y[63] + y[80] + y[89] - z[1026] >= 0
 R1027: y[24] + y[41] + y[71] - z[1027] >= 0
 R1028: y[18] + y[21] + y[35] + y[36] + y[39] + y[50] + y[56] + y[69]
   + y[84] + y[85] + y[93] + y[98] - z[1028] >= 0
 R1029: y[16] + y[23] + y[24] + y[25] + y[27] + y[37] + y[41] + y[42]
   + y[71] + y[73] + y[76] - z[1029] >= 0
 R1030: y[8] + y[12] + y[19] + y[22] + y[26] + y[34] + y[38] + y[44]
   + y[45] + y[46] + y[47] + y[50] + y[58] + y[62] + y[67] + y[74] + y[75]
   + y[87] + y[90] + y[93] - z[1030] >= 0
 R1031: y[9] + y[10] + y[13] + y[28] + y[31] + y[33] + y[43] + y[55]
   + y[59] + y[63] + y[68] + y[79] + y[89] + y[99] - z[1031] >= 0
 R1032: y[7] + y[13] + y[23] + y[25] + y[28] + y[33] + y[37] + y[42]
   + y[43] + y[51] + y[53] + y[55] + y[59] + y[63] + y[68] + y[76] + y[80]
   + y[95] - z[1032] >= 0
 R1033: y[0] + y[4] + y[15] + y[16] + y[27] + y[28] + y[30] + y[80] + y[82]
   + y[94] - z[1033] >= 0
 R1034: y[0] + y[15] + y[27] + y[30] + y[70] + y[82] + y[94] - z[1034]
   >= 0
 R1035: y[1] + y[14] + y[39] + y[65] + y[98] - z[1035] >= 0
 R1036: y[7] + y[9] + y[13] + y[25] + y[33] + y[37] + y[43] + y[51] + y[53]
   + y[55] + y[59] + y[63] + y[68] + y[76] + y[95] - z[1036] >= 0
 R1037: y[2] + y[35] + y[40] + y[48] + y[57] + y[60] + y[72] + y[79]
   + y[86] + y[88] + y[96] + y[99] - z[1037] >= 0
 R1038: y[3] + y[40] + y[48] + y[54] + y[60] + y[86] - z[1038] >= 0
 R1039: y[3] + y[9] + y[13] + y[40] + y[54] + y[55] + y[60] + y[72] + y[79]
   + y[99] - z[1039] >= 0
 R1040: y[4] + y[10] + y[28] + y[30] + y[31] + y[33] + y[43] + y[55]
   + y[59] + y[63] + y[79] + y[80] + y[89] - z[1040] >= 0
 R1041: y[40] + y[48] + y[60] + y[72] + y[79] + y[86] + y[88] + y[96]
   + y[99] - z[1041] >= 0
 R1042: y[18] + y[21] + y[84] + y[85] + y[98] - z[1042] >= 0
 R1043: y[1] + y[6] + y[14] + y[20] + y[36] + y[39] + y[57] + y[65] + y[91]
   + y[92] + y[98] - z[1043] >= 0
 R1044: y[5] + y[9] + y[11] + y[17] + y[64] + y[66] + y[77] + y[97]
   - z[1044] >= 0
 R1045: y[5] + y[7] + y[9] + y[11] + y[13] + y[17] + y[51] + y[53] + y[64]
   + y[66] + y[68] + y[77] + y[97] - z[1045] >= 0
 R1046: y[16] + y[23] + y[24] + y[25] + y[27] + y[37] + y[42] + y[63]
   + y[71] + y[73] + y[76] - z[1046] >= 0
 R1047: y[0] + y[4] + y[10] + y[15] + y[27] + y[28] + y[30] + y[43] + y[47]
   + y[67] + y[70] + y[80] + y[82] + y[94] - z[1047] >= 0
 R1048: y[1] + y[20] + y[35] + y[36] + y[39] + y[57] + y[98] - z[1048]
   >= 0
 R1049: y[0] + y[4] + y[12] + y[15] + y[30] + y[47] + y[67] + y[70] + y[82]
   + y[87] + y[94] - z[1049] >= 0
 R1050: y[18] + y[19] + y[21] + y[44] + y[49] + y[50] + y[56] + y[69]
   + y[74] + y[75] + y[78] + y[83] + y[84] + y[85] + y[90] + y[93]
   - z[1050] >= 0
 R1051: y[29] + y[34] + y[52] + y[58] + y[62] - z[1051] >= 0
 R1052: y[18] + y[21] + y[50] + y[69] + y[84] + y[85] + y[93] - z[1052]
   >= 0
 R1053: y[2] + y[18] + y[19] + y[26] + y[32] + y[44] + y[49] + y[50]
   + y[56] + y[69] + y[78] + y[81] + y[83] + y[84] + y[85] + y[90] + y[93]
   - z[1053] >= 0
 R1054: y[0] + y[12] + y[15] + y[38] + y[45] + y[46] + y[47] + y[61]
   + y[67] + y[70] + y[82] + y[87] - z[1054] >= 0
 R1055: y[3] + y[5] + y[7] + y[9] + y[11] + y[13] + y[17] + y[51] + y[53]
   + y[54] + y[64] + y[66] + y[68] + y[77] + y[97] - z[1055] >= 0
 R1056: y[2] + y[20] + y[32] + y[35] + y[36] + y[39] + y[49] + y[57]
   + y[72] + y[79] + y[81] + y[88] + y[96] - z[1056] >= 0
 R1057: y[2] + y[10] + y[31] + y[32] + y[35] + y[49] + y[56] + y[72]
   + y[78] + y[79] + y[81] + y[83] + y[88] + y[89] + y[96] - z[1057] >= 0
 R1058: y[16] + y[23] + y[25] + y[27] + y[28] + y[30] + y[33] + y[37]
   + y[42] + y[43] + y[59] + y[63] + y[73] + y[76] + y[80] + y[94]
   - z[1058] >= 0
 R1059: y[0] + y[4] + y[10] + y[15] + y[27] + y[28] + y[30] + y[33] + y[43]
   + y[47] + y[70] + y[80] + y[82] + y[94] - z[1059] >= 0
 R1060: y[4] + y[10] + y[27] + y[28] + y[30] + y[31] + y[33] + y[43]
   + y[55] + y[59] + y[63] + y[80] + y[89] + y[94] - z[1060] >= 0
 R1061: y[16] + y[23] + y[24] + y[25] + y[27] + y[37] + y[42] + y[59]
   + y[63] + y[71] + y[73] + y[76] - z[1061] >= 0
 R1062: y[2] + y[18] + y[21] + y[35] + y[36] + y[39] + y[44] + y[49]
   + y[50] + y[56] + y[69] + y[78] + y[81] + y[83] + y[84] + y[85] + y[93]
   - z[1062] >= 0
 R1063: y[2] + y[20] + y[32] + y[35] + y[36] + y[39] + y[49] + y[57]
   + y[72] + y[81] + y[88] + y[96] - z[1063] >= 0
 R1064: y[0] + y[16] + y[41] + y[71] + y[82] - z[1064] >= 0
 R1065: y[8] + y[22] + y[34] + y[52] + y[58] + y[62] + y[74] + y[75]
   - z[1065] >= 0
 R1066: y[40] + y[48] + y[60] + y[72] + y[79] + y[86] + y[91] + y[96]
   + y[99] - z[1066] >= 0
 R1067: y[7] + y[23] + y[25] + y[37] + y[42] + y[51] + y[53] + y[59]
   + y[63] + y[73] + y[76] + y[95] - z[1067] >= 0
 R1068: y[3] + y[9] + y[11] + y[13] + y[40] + y[54] + y[55] + y[60] + y[77]
   + y[79] + y[99] - z[1068] >= 0
 R1069: y[1] + y[14] + y[20] + y[36] + y[39] + y[57] + y[65] + y[92]
   + y[98] - z[1069] >= 0
 R1070: y[34] + y[52] + y[58] + y[62] - z[1070] >= 0
 R1071: y[2] + y[10] + y[31] + y[32] + y[35] + y[49] + y[56] + y[78]
   + y[81] + y[83] + y[88] + y[89] + y[96] - z[1071] >= 0
 R1072: y[8] + y[12] + y[19] + y[22] + y[26] + y[38] + y[44] + y[45]
   + y[46] + y[47] + y[58] + y[61] + y[67] + y[70] + y[74] + y[75] + y[87]
   - z[1072] >= 0
 R1073: y[5] + y[9] + y[11] + y[13] + y[17] + y[51] + y[53] + y[54] + y[64]
   + y[66] + y[68] + y[77] + y[97] - z[1073] >= 0
 R1074: y[2] + y[4] + y[10] + y[31] + y[32] + y[35] + y[43] + y[49] + y[56]
   + y[78] + y[81] + y[83] + y[88] + y[89] + y[96] - z[1074] >= 0
 R1075: y[5] + y[9] + y[11] + y[13] + y[17] + y[51] + y[53] + y[54] + y[64]
   + y[66] + y[68] + y[77] + y[97] - z[1075] >= 0
 R1076: y[29] + y[34] + y[50] + y[52] + y[58] + y[62] + y[74] + y[75]
   + y[90] - z[1076] >= 0
 R1077: y[5] + y[7] + y[9] + y[11] + y[13] + y[17] + y[51] + y[53] + y[54]
   + y[55] + y[59] + y[60] + y[68] + y[99] - z[1077] >= 0
 R1078: y[6] + y[20] + y[48] + y[57] + y[72] + y[86] + y[88] + y[91]
   + y[92] + y[96] - z[1078] >= 0
 R1079: y[3] + y[40] + y[54] + y[55] + y[60] + y[72] + y[79] + y[99]
   - z[1079] >= 0
 R1080: y[18] + y[19] + y[29] + y[34] + y[44] + y[50] + y[52] + y[58]
   + y[62] + y[69] + y[74] + y[75] + y[90] + y[93] - z[1080] >= 0
 R1081: y[18] + y[19] + y[21] + y[44] + y[49] + y[50] + y[56] + y[69]
   + y[74] + y[75] + y[78] + y[81] + y[83] + y[84] + y[85] + y[90] + y[93]
   - z[1081] >= 0
 R1082: y[5] + y[9] + y[11] + y[13] + y[17] + y[64] + y[66] + y[68] + y[77]
   + y[97] - z[1082] >= 0
 R1083: y[18] + y[19] + y[21] + y[29] + y[44] + y[50] + y[56] + y[62]
   + y[69] + y[74] + y[75] + y[84] + y[85] + y[90] + y[93] - z[1083] >= 0
 R1084: y[2] + y[20] + y[35] + y[36] + y[39] + y[48] + y[57] + y[72]
   + y[86] + y[88] + y[91] + y[92] + y[96] - z[1084] >= 0
 R1085: y[5] + y[7] + y[9] + y[13] + y[25] + y[33] + y[37] + y[51] + y[53]
   + y[59] + y[63] + y[68] + y[76] + y[95] - z[1085] >= 0
 R1086: y[2] + y[20] + y[35] + y[36] + y[39] + y[57] + y[72] + y[88]
   + y[91] + y[92] + y[96] + y[98] - z[1086] >= 0
 R1087: y[16] + y[23] + y[24] + y[25] + y[27] + y[37] + y[42] + y[59]
   + y[63] + y[71] + y[73] + y[76] - z[1087] >= 0
 R1088: y[19] + y[26] + y[29] + y[34] + y[38] + y[44] + y[50] + y[52]
   + y[58] + y[62] + y[74] + y[75] + y[90] - z[1088] >= 0
 R1089: y[4] + y[10] + y[16] + y[23] + y[25] + y[27] + y[28] + y[30]
   + y[33] + y[37] + y[42] + y[43] + y[59] + y[63] + y[76] + y[80] + y[82]
   + y[94] - z[1089] >= 0
 R1090: y[4] + y[12] + y[19] + y[26] + y[32] + y[38] + y[44] + y[47]
   + y[49] + y[56] + y[67] + y[70] + y[78] + y[81] + y[83] + y[87]
   - z[1090] >= 0
 R1091: y[7] + y[9] + y[10] + y[13] + y[25] + y[28] + y[31] + y[33] + y[37]
   + y[43] + y[53] + y[55] + y[59] + y[63] + y[68] + y[80] - z[1091] >= 0
 R1092: y[4] + y[10] + y[28] + y[30] + y[31] + y[32] + y[33] + y[43]
   + y[49] + y[78] + y[80] + y[81] + y[83] + y[89] - z[1092] >= 0
 R1093: y[0] + y[15] + y[27] + y[41] + y[82] + y[94] - z[1093] >= 0
 R1094: y[9] + y[13] + y[31] + y[33] + y[53] + y[55] + y[59] + y[63]
   + y[68] + y[79] + y[99] - z[1094] >= 0
 R1095: y[18] + y[19] + y[26] + y[29] + y[34] + y[44] + y[50] + y[52]
   + y[58] + y[62] + y[69] + y[74] + y[75] + y[90] + y[93] - z[1095] >= 0
 R1096: y[1] + y[20] + y[35] + y[36] + y[39] + y[57] + y[98] - z[1096]
   >= 0
 R1097: y[6] + y[20] + y[48] + y[57] + y[72] + y[86] + y[91] + y[92]
   - z[1097] >= 0
 R1098: y[2] + y[4] + y[10] + y[31] + y[32] + y[35] + y[43] + y[49] + y[56]
   + y[78] + y[81] + y[83] + y[89] + y[96] - z[1098] >= 0
 R1099: y[0] + y[15] + y[16] + y[27] + y[30] + y[41] + y[71] + y[80]
   + y[82] + y[94] - z[1099] >= 0
 R1100: y[16] + y[23] + y[25] + y[27] + y[28] + y[30] + y[33] + y[37]
   + y[42] + y[43] + y[59] + y[63] + y[73] + y[76] + y[80] + y[82] + y[94]
   - z[1100] >= 0
 R1101: y[1] + y[6] + y[14] + y[20] + y[48] + y[57] + y[65] + y[86] + y[91]
   + y[92] - z[1101] >= 0
 R1102: y[5] + y[9] + y[11] + y[13] + y[17] + y[51] + y[53] + y[54] + y[64]
   + y[66] + y[68] + y[77] + y[97] - z[1102] >= 0
 R1103: y[3] + y[40] + y[54] + y[60] + y[66] + y[77] + y[99] - z[1103]
   >= 0
 R1104: y[21] + y[84] + y[85] + y[98] - z[1104] >= 0
 R1105: y[10] + y[13] + y[28] + y[31] + y[33] + y[43] + y[55] + y[59]
   + y[63] + y[79] + y[89] + y[99] - z[1105] >= 0
 R1106: y[2] + y[18] + y[21] + y[35] + y[36] + y[39] + y[56] + y[69]
   + y[84] + y[85] + y[93] + y[98] - z[1106] >= 0
 R1107: y[16] + y[23] + y[24] + y[25] + y[27] + y[37] + y[42] + y[63]
   + y[71] + y[73] + y[76] + y[80] + y[94] - z[1107] >= 0
 R1108: y[16] + y[23] + y[24] + y[25] + y[37] + y[42] + y[71] + y[73]
   + y[76] - z[1108] >= 0
 R1109: y[0] + y[4] + y[10] + y[15] + y[27] + y[28] + y[30] + y[33] + y[43]
   + y[47] + y[80] + y[82] + y[89] + y[94] - z[1109] >= 0
 R1110: y[18] + y[21] + y[29] + y[50] + y[52] + y[62] + y[69] + y[74]
   + y[75] + y[84] + y[90] + y[93] - z[1110] >= 0
 R1111: y[40] + y[48] + y[54] + y[60] + y[72] + y[79] + y[86] + y[96]
   + y[99] - z[1111] >= 0
 R1112: y[29] + y[34] + y[52] + y[58] + y[62] + y[74] + y[75] - z[1112]
   >= 0
 R1113: y[2] + y[18] + y[32] + y[35] + y[36] + y[39] + y[44] + y[49]
   + y[56] + y[69] + y[78] + y[81] + y[83] + y[84] + y[85] + y[88] + y[96]
   - z[1113] >= 0
 R1114: y[6] + y[40] + y[48] + y[60] + y[72] + y[86] + y[91] + y[92]
   - z[1114] >= 0
 R1115: y[2] + y[6] + y[20] + y[35] + y[36] + y[39] + y[48] + y[57] + y[72]
   + y[86] + y[88] + y[91] + y[92] + y[96] + y[98] - z[1115] >= 0
 R1116: y[4] + y[10] + y[27] + y[28] + y[30] + y[31] + y[33] + y[43]
   + y[55] + y[59] + y[63] + y[80] + y[89] + y[94] - z[1116] >= 0
 R1117: y[2] + y[18] + y[19] + y[26] + y[32] + y[44] + y[47] + y[49]
   + y[56] + y[69] + y[78] + y[81] + y[83] + y[85] + y[93] - z[1117] >= 0
 R1118: y[3] + y[40] + y[54] + y[60] + y[66] + y[77] - z[1118] >= 0
 R1119: y[0] + y[4] + y[10] + y[15] + y[16] + y[27] + y[28] + y[30] + y[33]
   + y[43] + y[80] + y[82] + y[94] - z[1119] >= 0
 R1120: y[2] + y[20] + y[31] + y[32] + y[35] + y[36] + y[72] + y[79]
   + y[81] + y[88] + y[96] - z[1120] >= 0
 R1121: y[18] + y[19] + y[21] + y[44] + y[49] + y[50] + y[56] + y[69]
   + y[74] + y[75] + y[78] + y[83] + y[84] + y[85] + y[90] + y[93]
   - z[1121] >= 0
 R1122: y[3] + y[11] + y[17] + y[40] + y[54] + y[60] + y[64] + y[66]
   + y[77] + y[97] - z[1122] >= 0
 R1123: y[8] + y[12] + y[19] + y[22] + y[26] + y[38] + y[44] + y[45]
   + y[46] + y[47] + y[58] + y[62] + y[67] + y[69] + y[74] + y[75] + y[87]
   + y[90] + y[93] - z[1123] >= 0
 R1124: y[0] + y[15] + y[27] + y[41] + y[82] + y[94] - z[1124] >= 0
 R1125: y[0] + y[4] + y[10] + y[12] + y[15] + y[26] + y[28] + y[30] + y[43]
   + y[47] + y[67] + y[70] + y[82] + y[89] + y[94] - z[1125] >= 0
 R1126: y[3] + y[40] + y[54] + y[60] + y[66] + y[77] + y[99] - z[1126]
   >= 0
 R1127: y[16] + y[23] + y[24] + y[25] + y[27] + y[37] + y[42] + y[71]
   + y[73] + y[76] - z[1127] >= 0
 R1128: y[5] + y[7] + y[9] + y[11] + y[13] + y[17] + y[51] + y[53] + y[64]
   + y[68] + y[95] + y[97] - z[1128] >= 0
 R1129: y[2] + y[18] + y[20] + y[21] + y[35] + y[36] + y[39] + y[49]
   + y[56] + y[69] + y[81] + y[84] + y[85] + y[98] - z[1129] >= 0
 R1130: y[2] + y[18] + y[32] + y[35] + y[36] + y[39] + y[49] + y[56]
   + y[69] + y[78] + y[81] + y[83] + y[84] + y[85] + y[88] + y[96]
   - z[1130] >= 0
 R1131: y[0] + y[15] + y[41] - z[1131] >= 0
 R1132: y[1] + y[14] + y[65] - z[1132] >= 0
 R1133: y[0] + y[4] + y[10] + y[15] + y[27] + y[28] + y[30] + y[33] + y[43]
   + y[47] + y[70] + y[80] + y[82] + y[89] + y[94] - z[1133] >= 0
 R1134: y[1] + y[39] + y[98] - z[1134] >= 0
 R1135: y[2] + y[4] + y[10] + y[31] + y[32] + y[35] + y[43] + y[49] + y[78]
   + y[79] + y[81] + y[83] + y[88] + y[89] + y[96] - z[1135] >= 0
 R1136: y[0] + y[4] + y[10] + y[15] + y[27] + y[28] + y[30] + y[31] + y[33]
   + y[43] + y[63] + y[80] + y[82] + y[89] + y[94] - z[1136] >= 0
 R1137: y[21] + y[36] + y[39] + y[84] + y[85] + y[98] - z[1137] >= 0
 R1138: y[9] + y[13] + y[31] + y[55] + y[59] + y[63] + y[68] + y[79]
   + y[99] - z[1138] >= 0
 R1139: y[2] + y[20] + y[35] + y[36] + y[39] + y[49] + y[56] + y[57]
   + y[69] + y[81] + y[83] + y[84] + y[85] + y[88] + y[96] + y[98]
   - z[1139] >= 0
 R1140: y[18] + y[19] + y[26] + y[38] + y[44] + y[45] + y[47] + y[49]
   + y[50] + y[56] + y[58] + y[62] + y[67] + y[69] + y[74] + y[75] + y[78]
   + y[83] + y[85] + y[87] + y[90] + y[93] - z[1140] >= 0
 R1141: y[8] + y[19] + y[29] + y[34] + y[38] + y[52] + y[58] + y[62]
   + y[74] + y[75] + y[90] - z[1141] >= 0
 R1142: y[3] + y[11] + y[17] + y[40] + y[54] + y[60] + y[64] + y[66]
   + y[77] + y[97] - z[1142] >= 0
 R1143: y[0] + y[4] + y[10] + y[15] + y[27] + y[28] + y[30] + y[43] + y[47]
   + y[67] + y[70] + y[80] + y[82] + y[89] + y[94] - z[1143] >= 0
 R1144: y[12] + y[18] + y[19] + y[26] + y[38] + y[44] + y[45] + y[46]
   + y[47] + y[50] + y[56] + y[58] + y[67] + y[69] + y[74] + y[75] + y[78]
   + y[83] + y[85] + y[87] + y[90] + y[93] - z[1144] >= 0
 R1145: y[18] + y[19] + y[21] + y[44] + y[49] + y[50] + y[56] + y[69]
   + y[74] + y[75] + y[78] + y[83] + y[84] + y[85] + y[90] + y[93]
   - z[1145] >= 0
 R1146: y[8] + y[12] + y[19] + y[22] + y[26] + y[34] + y[38] + y[44]
   + y[45] + y[46] + y[47] + y[58] + y[61] + y[62] + y[67] + y[74] + y[75]
   + y[87] + y[90] - z[1146] >= 0
 R1147: y[40] + y[54] + y[55] + y[60] + y[72] + y[79] + y[99] - z[1147]
   >= 0
 R1148: y[5] + y[7] + y[9] + y[11] + y[13] + y[17] + y[51] + y[53] + y[64]
   + y[68] + y[77] + y[95] + y[97] - z[1148] >= 0
 R1149: y[29] + y[34] + y[52] + y[62] - z[1149] >= 0
 R1150: y[2] + y[4] + y[10] + y[31] + y[32] + y[35] + y[43] + y[49] + y[78]
   + y[79] + y[81] + y[83] + y[88] + y[89] + y[96] - z[1150] >= 0
 R1151: y[6] + y[40] + y[48] + y[57] + y[60] + y[72] + y[86] + y[91]
   + y[92] - z[1151] >= 0
 R1152: y[18] + y[21] + y[36] + y[44] + y[50] + y[56] + y[69] + y[84]
   + y[85] + y[90] + y[93] - z[1152] >= 0
 R1153: y[0] + y[4] + y[12] + y[15] + y[30] + y[47] + y[67] + y[70] + y[82]
   + y[94] - z[1153] >= 0
 R1154: y[0] + y[16] + y[23] + y[24] + y[27] + y[41] + y[42] + y[71]
   + y[73] + y[94] - z[1154] >= 0
 R1155: y[1] + y[6] + y[14] + y[20] + y[36] + y[39] + y[48] + y[57] + y[65]
   + y[86] + y[91] + y[92] + y[98] - z[1155] >= 0
 R1156: y[2] + y[10] + y[31] + y[32] + y[35] + y[55] + y[72] + y[79]
   + y[81] + y[88] + y[89] + y[96] + y[99] - z[1156] >= 0
 R1157: y[1] + y[36] + y[39] + y[98] - z[1157] >= 0
 R1158: y[4] + y[10] + y[28] + y[30] + y[31] + y[32] + y[43] + y[47]
   + y[49] + y[56] + y[78] + y[81] + y[83] + y[89] - z[1158] >= 0
 R1159: y[18] + y[29] + y[50] + y[52] + y[62] + y[74] + y[75] + y[90]
   + y[93] - z[1159] >= 0
 R1160: y[6] + y[20] + y[35] + y[36] + y[39] + y[48] + y[57] + y[72]
   + y[86] + y[88] + y[91] + y[92] + y[96] - z[1160] >= 0
 R1161: y[2] + y[18] + y[19] + y[26] + y[32] + y[44] + y[47] + y[49]
   + y[56] + y[69] + y[78] + y[81] + y[83] + y[85] + y[93] - z[1161] >= 0
 R1162: y[29] + y[34] + y[52] + y[58] + y[62] + y[74] + y[75] - z[1162]
   >= 0
 R1163: y[3] + y[11] + y[17] + y[64] + y[66] + y[77] + y[97] - z[1163]
   >= 0
 R1164: y[8] + y[19] + y[22] + y[26] + y[29] + y[34] + y[38] + y[45]
   + y[46] + y[52] + y[58] + y[62] + y[74] + y[75] + y[87] + y[90]
   - z[1164] >= 0
 R1165: y[16] + y[23] + y[24] + y[25] + y[37] + y[42] + y[71] + y[73]
   + y[76] - z[1165] >= 0
 R1166: y[2] + y[20] + y[32] + y[35] + y[36] + y[39] + y[49] + y[56]
   + y[72] + y[78] + y[81] + y[83] + y[88] + y[96] - z[1166] >= 0
 R1167: y[7] + y[10] + y[13] + y[23] + y[25] + y[28] + y[33] + y[37]
   + y[42] + y[43] + y[53] + y[55] + y[59] + y[63] + y[68] + y[76] + y[80]
   + y[95] - z[1167] >= 0
 R1168: y[5] + y[7] + y[9] + y[11] + y[13] + y[17] + y[51] + y[53] + y[59]
   + y[68] + y[76] + y[95] - z[1168] >= 0
 R1169: y[8] + y[12] + y[19] + y[22] + y[26] + y[38] + y[44] + y[45]
   + y[46] + y[47] + y[58] + y[61] + y[67] + y[70] + y[74] + y[75] + y[87]
   - z[1169] >= 0
 R1170: y[18] + y[19] + y[21] + y[29] + y[44] + y[50] + y[56] + y[69]
   + y[74] + y[75] + y[84] + y[85] + y[90] + y[93] - z[1170] >= 0
 R1171: y[16] + y[23] + y[24] + y[25] + y[37] + y[42] + y[71] + y[73]
   + y[76] - z[1171] >= 0
 R1172: y[17] + y[64] + y[66] + y[97] - z[1172] >= 0
 R1173: y[5] + y[7] + y[13] + y[23] + y[25] + y[37] + y[42] + y[51] + y[53]
   + y[59] + y[63] + y[68] + y[76] + y[95] - z[1173] >= 0
 R1174: y[0] + y[15] + y[70] + y[82] - z[1174] >= 0
 R1175: y[1] + y[6] + y[14] + y[57] + y[65] + y[91] + y[92] - z[1175] >= 0
 R1176: y[18] + y[19] + y[21] + y[44] + y[49] + y[50] + y[56] + y[69]
   + y[78] + y[83] + y[84] + y[85] + y[90] + y[93] - z[1176] >= 0
 R1177: y[3] + y[9] + y[11] + y[13] + y[40] + y[54] + y[55] + y[60] + y[72]
   + y[79] + y[99] - z[1177] >= 0
 R1178: y[4] + y[10] + y[28] + y[30] + y[31] + y[32] + y[33] + y[43]
   + y[49] + y[78] + y[80] + y[81] + y[83] + y[89] - z[1178] >= 0
 R1179: y[18] + y[19] + y[26] + y[38] + y[44] + y[47] + y[49] + y[50]
   + y[56] + y[62] + y[67] + y[69] + y[74] + y[75] + y[78] + y[83] + y[85]
   + y[87] + y[90] + y[93] - z[1179] >= 0
 R1180: y[20] + y[35] + y[40] + y[48] + y[57] + y[60] + y[72] + y[79]
   + y[86] + y[88] + y[91] + y[92] + y[96] - z[1180] >= 0
 R1181: y[8] + y[12] + y[19] + y[22] + y[26] + y[38] + y[44] + y[45]
   + y[46] + y[47] + y[58] + y[61] + y[67] + y[70] + y[74] + y[87]
   - z[1181] >= 0
 R1182: y[3] + y[11] + y[40] + y[54] + y[55] + y[60] + y[72] + y[77]
   + y[79] + y[99] - z[1182] >= 0
 R1183: y[2] + y[18] + y[19] + y[26] + y[32] + y[35] + y[44] + y[49]
   + y[56] + y[69] + y[78] + y[81] + y[83] + y[84] + y[85] + y[93]
   - z[1183] >= 0
 R1184: y[4] + y[10] + y[15] + y[28] + y[30] + y[31] + y[32] + y[33]
   + y[43] + y[47] + y[49] + y[78] + y[80] + y[82] + y[83] + y[89] + y[94]
   - z[1184] >= 0
 R1185: y[4] + y[10] + y[19] + y[26] + y[32] + y[38] + y[44] + y[47]
   + y[49] + y[56] + y[67] + y[70] + y[78] + y[81] + y[83] + y[89]
   - z[1185] >= 0
 R1186: y[2] + y[20] + y[32] + y[35] + y[36] + y[39] + y[49] + y[56]
   + y[57] + y[69] + y[78] + y[81] + y[83] + y[84] + y[85] + y[88] + y[96]
   + y[98] - z[1186] >= 0
 R1187: y[2] + y[6] + y[20] + y[35] + y[36] + y[39] + y[48] + y[57] + y[72]
   + y[86] + y[88] + y[91] + y[92] + y[96] - z[1187] >= 0
 R1188: y[2] + y[20] + y[35] + y[48] + y[57] + y[60] + y[72] + y[79]
   + y[86] + y[88] + y[96] + y[99] - z[1188] >= 0
 R1189: y[3] + y[9] + y[11] + y[40] + y[54] + y[60] + y[66] + y[77] + y[97]
   + y[99] - z[1189] >= 0
 R1190: y[8] + y[12] + y[19] + y[22] + y[26] + y[34] + y[38] + y[45]
   + y[46] + y[58] + y[61] + y[62] + y[67] + y[74] + y[75] + y[87]
   - z[1190] >= 0
 R1191: y[2] + y[18] + y[20] + y[21] + y[35] + y[36] + y[39] + y[56]
   + y[69] + y[84] + y[85] + y[98] - z[1191] >= 0
 R1192: y[0] + y[4] + y[12] + y[15] + y[26] + y[30] + y[38] + y[45] + y[46]
   + y[47] + y[67] + y[70] + y[82] + y[87] + y[94] - z[1192] >= 0
 R1193: y[3] + y[40] + y[54] + y[60] + y[66] + y[77] + y[99] - z[1193]
   >= 0
 R1194: y[8] + y[12] + y[22] + y[26] + y[38] + y[45] + y[46] + y[47]
   + y[58] + y[61] + y[67] + y[70] + y[87] - z[1194] >= 0
 R1195: y[0] + y[15] + y[16] + y[23] + y[27] + y[28] + y[30] + y[41]
   + y[71] + y[80] + y[82] + y[94] - z[1195] >= 0
 R1196: y[1] + y[6] + y[14] + y[20] + y[39] + y[57] + y[65] + y[91] + y[92]
   + y[98] - z[1196] >= 0
 R1197: y[0] + y[4] + y[12] + y[15] + y[27] + y[30] + y[47] + y[67] + y[70]
   + y[80] + y[82] + y[94] - z[1197] >= 0
 R1198: y[8] + y[12] + y[19] + y[22] + y[26] + y[34] + y[38] + y[45]
   + y[46] + y[47] + y[58] + y[61] + y[67] + y[70] + y[74] + y[75] + y[87]
   - z[1198] >= 0
 R1199: y[8] + y[12] + y[19] + y[22] + y[26] + y[38] + y[44] + y[45]
   + y[46] + y[47] + y[58] + y[61] + y[67] + y[70] + y[87] - z[1199] >= 0
 R1200: y[0] + y[4] + y[12] + y[15] + y[30] + y[46] + y[47] + y[67] + y[70]
   + y[82] + y[87] + y[94] - z[1200] >= 0
 R1201: y[0] + y[4] + y[12] + y[15] + y[26] + y[30] + y[38] + y[45] + y[46]
   + y[47] + y[67] + y[70] + y[82] + y[87] + y[94] - z[1201] >= 0
 R1202: y[8] + y[12] + y[19] + y[22] + y[26] + y[34] + y[38] + y[44]
   + y[45] + y[46] + y[47] + y[58] + y[61] + y[62] + y[67] + y[74] + y[75]
   + y[87] + y[90] - z[1202] >= 0
 R1203: y[18] + y[19] + y[21] + y[29] + y[44] + y[50] + y[52] + y[62]
   + y[69] + y[74] + y[75] + y[84] + y[85] + y[90] + y[93] - z[1203] >= 0
 R1204: y[18] + y[19] + y[26] + y[29] + y[34] + y[44] + y[50] + y[52]
   + y[58] + y[62] + y[69] + y[74] + y[75] + y[90] + y[93] - z[1204] >= 0
 R1205: y[5] + y[7] + y[9] + y[13] + y[25] + y[37] + y[51] + y[53] + y[55]
   + y[59] + y[63] + y[68] + y[76] + y[95] - z[1205] >= 0
 R1206: y[0] + y[15] + y[41] + y[82] - z[1206] >= 0
 R1207: y[5] + y[7] + y[9] + y[11] + y[13] + y[17] + y[51] + y[53] + y[54]
   + y[55] + y[64] + y[68] + y[77] + y[97] + y[99] - z[1207] >= 0
 R1208: y[7] + y[10] + y[13] + y[25] + y[28] + y[31] + y[33] + y[37]
   + y[43] + y[53] + y[55] + y[59] + y[63] + y[68] + y[76] + y[80]
   - z[1208] >= 0
 R1209: y[1] + y[6] + y[20] + y[39] + y[48] + y[57] + y[72] + y[86] + y[91]
   + y[92] - z[1209] >= 0
 R1210: y[6] + y[40] + y[48] + y[72] + y[86] + y[91] + y[92] - z[1210]
   >= 0
 R1211: y[16] + y[23] + y[24] + y[25] + y[27] + y[33] + y[37] + y[42]
   + y[59] + y[63] + y[71] + y[73] + y[76] + y[80] - z[1211] >= 0
 R1212: y[2] + y[18] + y[21] + y[35] + y[36] + y[39] + y[49] + y[50]
   + y[56] + y[69] + y[78] + y[81] + y[83] + y[84] + y[85] + y[93]
   - z[1212] >= 0
 R1213: y[2] + y[10] + y[31] + y[32] + y[35] + y[49] + y[56] + y[78]
   + y[81] + y[83] + y[88] + y[89] + y[96] - z[1213] >= 0
 R1214: y[8] + y[12] + y[19] + y[22] + y[26] + y[38] + y[44] + y[45]
   + y[46] + y[47] + y[58] + y[61] + y[67] + y[70] + y[87] - z[1214] >= 0
 R1215: y[8] + y[12] + y[19] + y[22] + y[26] + y[34] + y[38] + y[45]
   + y[46] + y[47] + y[58] + y[61] + y[67] + y[70] + y[87] - z[1215] >= 0
 R1216: y[0] + y[4] + y[15] + y[27] + y[30] + y[70] + y[80] + y[82] + y[94]
   - z[1216] >= 0
 R1217: y[0] + y[15] + y[16] + y[27] + y[41] + y[82] + y[94] - z[1217]
   >= 0
 R1218: y[0] + y[15] + y[16] + y[27] + y[30] + y[80] + y[82] + y[94]
   - z[1218] >= 0
 R1219: y[0] + y[4] + y[15] + y[27] + y[30] + y[70] + y[80] + y[82] + y[94]
   - z[1219] >= 0
 R1220: y[4] + y[10] + y[28] + y[31] + y[33] + y[43] + y[55] + y[59]
   + y[63] + y[79] + y[80] + y[89] - z[1220] >= 0
 R1221: y[2] + y[20] + y[35] + y[36] + y[39] + y[57] + y[84] + y[88]
   + y[96] + y[98] - z[1221] >= 0
 R1222: y[6] + y[40] + y[48] + y[72] + y[86] + y[91] + y[92] - z[1222]
   >= 0
 R1223: y[3] + y[40] + y[54] + y[55] + y[60] + y[72] + y[79] + y[86]
   + y[99] - z[1223] >= 0
 R1224: y[0] + y[12] + y[15] + y[38] + y[45] + y[46] + y[47] + y[61]
   + y[67] + y[70] + y[82] + y[87] - z[1224] >= 0
 R1225: y[8] + y[12] + y[22] + y[26] + y[38] + y[45] + y[46] + y[47]
   + y[58] + y[61] + y[67] + y[70] + y[87] - z[1225] >= 0
 R1226: y[5] + y[7] + y[9] + y[11] + y[13] + y[17] + y[51] + y[53] + y[64]
   + y[68] + y[95] + y[97] - z[1226] >= 0
 R1227: y[3] + y[40] + y[48] + y[54] + y[60] + y[72] + y[79] + y[86]
   + y[99] - z[1227] >= 0
 R1228: y[0] + y[15] + y[41] - z[1228] >= 0
 R1229: y[3] + y[40] + y[54] + y[60] + y[66] + y[77] + y[79] + y[86]
   + y[99] - z[1229] >= 0
 R1230: y[0] + y[41] - z[1230] >= 0
 R1231: y[18] + y[21] + y[36] + y[39] + y[69] + y[84] + y[85] + y[98]
   - z[1231] >= 0
 R1232: y[0] + y[15] + y[16] + y[24] + y[27] + y[41] + y[71] + y[80]
   + y[82] + y[94] - z[1232] >= 0
 R1233: y[2] + y[32] + y[35] + y[36] + y[49] + y[56] + y[78] + y[81]
   + y[83] + y[88] + y[96] - z[1233] >= 0
 R1234: y[0] + y[15] - z[1234] >= 0
 R1235: y[2] + y[20] + y[32] + y[35] + y[36] + y[39] + y[57] + y[72]
   + y[88] + y[92] + y[96] + y[98] - z[1235] >= 0
 R1236: y[2] + y[4] + y[10] + y[31] + y[32] + y[35] + y[43] + y[49] + y[56]
   + y[78] + y[81] + y[83] + y[88] + y[89] + y[96] - z[1236] >= 0
 R1237: y[0] + y[15] + y[27] + y[41] + y[82] + y[94] - z[1237] >= 0
 R1238: y[31] + y[40] + y[55] + y[60] + y[72] + y[79] + y[88] + y[96]
   + y[99] - z[1238] >= 0
 R1239: y[1] + y[6] + y[14] + y[57] + y[65] + y[91] + y[92] + y[98]
   - z[1239] >= 0
 R1240: y[2] + y[18] + y[21] + y[32] + y[35] + y[36] + y[39] + y[49]
   + y[56] + y[69] + y[78] + y[81] + y[83] + y[84] + y[85] + y[88] + y[93]
   - z[1240] >= 0
 R1241: y[1] + y[14] + y[39] + y[65] + y[98] - z[1241] >= 0
 R1242: y[0] + y[4] + y[10] + y[15] + y[16] + y[23] + y[25] + y[27] + y[28]
   + y[30] + y[33] + y[42] + y[43] + y[59] + y[63] + y[80] + y[82] + y[89]
   + y[94] - z[1242] >= 0
 R1243: y[2] + y[32] + y[35] + y[36] + y[39] + y[49] + y[56] + y[69]
   + y[78] + y[81] + y[83] + y[85] + y[88] + y[96] - z[1243] >= 0
 R1244: y[0] + y[15] + y[70] + y[82] - z[1244] >= 0
 R1245: y[10] + y[28] + y[31] + y[33] + y[43] + y[55] + y[59] + y[63]
   + y[79] + y[89] + y[99] - z[1245] >= 0
 R1246: y[16] + y[23] + y[24] + y[25] + y[27] + y[37] + y[42] + y[71]
   + y[73] + y[76] - z[1246] >= 0
 R1247: y[0] + y[16] + y[23] + y[24] + y[25] + y[27] + y[37] + y[42]
   + y[71] + y[73] + y[76] + y[80] + y[82] + y[94] - z[1247] >= 0
 R1248: y[40] + y[48] + y[55] + y[60] + y[72] + y[79] + y[86] + y[88]
   + y[96] + y[99] - z[1248] >= 0
 R1249: y[1] + y[6] + y[14] + y[20] + y[35] + y[36] + y[39] + y[57] + y[65]
   + y[88] + y[91] + y[92] + y[98] - z[1249] >= 0
 R1250: y[2] + y[18] + y[21] + y[32] + y[35] + y[36] + y[39] + y[44]
   + y[49] + y[50] + y[56] + y[69] + y[78] + y[81] + y[83] + y[84] + y[85]
   + y[93] - z[1250] >= 0
 R1251: y[0] + y[4] + y[10] + y[15] + y[28] + y[30] + y[31] + y[43] + y[47]
   + y[67] + y[70] + y[78] + y[80] + y[82] + y[89] + y[94] - z[1251] >= 0
 R1252: y[1] + y[14] + y[39] + y[65] + y[98] - z[1252] >= 0
 R1253: y[4] + y[10] + y[15] + y[27] + y[28] + y[30] + y[31] + y[33]
   + y[43] + y[63] + y[80] + y[82] + y[89] + y[94] - z[1253] >= 0
 R1254: y[0] + y[4] + y[10] + y[15] + y[28] + y[30] + y[43] + y[47] + y[67]
   + y[70] + y[80] + y[82] + y[89] + y[94] - z[1254] >= 0
 R1255: y[0] + y[4] + y[15] + y[16] + y[27] + y[28] + y[30] + y[33] + y[43]
   + y[80] + y[82] + y[94] - z[1255] >= 0
 R1256: y[18] + y[19] + y[26] + y[29] + y[38] + y[44] + y[45] + y[50]
   + y[58] + y[62] + y[69] + y[74] + y[75] + y[85] + y[87] + y[90] + y[93]
   - z[1256] >= 0
 R1257: y[24] + y[41] + y[71] - z[1257] >= 0
 R1258: y[2] + y[20] + y[35] + y[36] + y[39] + y[48] + y[57] + y[72]
   + y[79] + y[86] + y[88] + y[91] + y[92] + y[96] - z[1258] >= 0
 R1259: y[6] + y[48] + y[72] + y[86] + y[91] + y[92] - z[1259] >= 0
 R1260: y[1] + y[6] + y[14] + y[48] + y[57] + y[65] + y[91] + y[92]
   - z[1260] >= 0
 R1261: y[40] + y[48] + y[57] + y[60] + y[72] + y[79] + y[86] + y[88]
   + y[91] + y[92] + y[96] + y[99] - z[1261] >= 0
 R1262: y[9] + y[11] + y[13] + y[53] + y[54] + y[55] + y[59] + y[60]
   + y[63] + y[68] + y[79] + y[99] - z[1262] >= 0
 R1263: y[5] + y[7] + y[9] + y[11] + y[13] + y[17] + y[51] + y[53] + y[64]
   + y[68] + y[95] + y[97] - z[1263] >= 0
 R1264: y[3] + y[40] + y[48] + y[54] + y[60] + y[72] + y[79] + y[86]
   + y[99] - z[1264] >= 0
 R1265: y[4] + y[12] + y[15] + y[26] + y[38] + y[45] + y[46] + y[47]
   + y[67] + y[70] + y[82] + y[87] - z[1265] >= 0
 R1266: y[3] + y[40] + y[54] + y[60] + y[66] + y[77] - z[1266] >= 0
 R1267: y[4] + y[10] + y[15] + y[26] + y[28] + y[30] + y[31] + y[32]
   + y[43] + y[47] + y[49] + y[67] + y[78] + y[81] + y[83] + y[89] + y[94]
   - z[1267] >= 0
 R1268: y[1] + y[6] + y[14] + y[20] + y[48] + y[57] + y[65] + y[86] + y[91]
   + y[92] - z[1268] >= 0
 R1269: y[12] + y[18] + y[19] + y[26] + y[38] + y[44] + y[45] + y[46]
   + y[47] + y[50] + y[56] + y[58] + y[62] + y[67] + y[69] + y[74] + y[75]
   + y[85] + y[87] + y[90] + y[93] - z[1269] >= 0
 R1270: y[0] + y[41] - z[1270] >= 0
 R1271: y[3] + y[40] + y[48] + y[60] + y[86] - z[1271] >= 0
 R1272: y[10] + y[13] + y[28] + y[31] + y[33] + y[43] + y[55] + y[59]
   + y[63] + y[68] + y[80] + y[89] - z[1272] >= 0
 R1273: y[5] + y[9] + y[11] + y[17] + y[64] + y[68] + y[97] - z[1273] >= 0
 R1274: y[7] + y[9] + y[13] + y[31] + y[33] + y[43] + y[51] + y[53] + y[55]
   + y[59] + y[63] + y[68] + y[79] + y[99] - z[1274] >= 0
 R1275: y[8] + y[22] + y[34] + y[45] + y[46] + y[52] + y[58] + y[62]
   + y[74] + y[75] + y[87] - z[1275] >= 0
 R1276: y[4] + y[10] + y[19] + y[26] + y[31] + y[32] + y[44] + y[47]
   + y[49] + y[56] + y[67] + y[78] + y[81] + y[83] + y[89] - z[1276] >= 0
 R1277: y[1] + y[6] + y[14] + y[20] + y[36] + y[39] + y[57] + y[65] + y[91]
   + y[92] + y[98] - z[1277] >= 0
 R1278: y[11] + y[17] + y[64] + y[66] + y[77] + y[97] - z[1278] >= 0
 R1279: y[2] + y[4] + y[10] + y[31] + y[32] + y[35] + y[49] + y[56] + y[78]
   + y[81] + y[83] + y[89] - z[1279] >= 0
 R1280: y[8] + y[19] + y[22] + y[26] + y[29] + y[34] + y[38] + y[45]
   + y[46] + y[52] + y[58] + y[62] + y[74] + y[75] + y[87] + y[90]
   - z[1280] >= 0
 R1281: y[8] + y[12] + y[19] + y[22] + y[26] + y[38] + y[44] + y[45]
   + y[46] + y[47] + y[58] + y[61] + y[67] + y[70] + y[74] + y[75] + y[87]
   - z[1281] >= 0
 R1282: y[0] + y[16] + y[23] + y[24] + y[27] + y[41] + y[42] + y[71]
   + y[73] - z[1282] >= 0
 R1283: y[40] + y[48] + y[60] + y[72] + y[79] + y[86] + y[91] + y[92]
   + y[99] - z[1283] >= 0
 R1284: y[16] + y[23] + y[24] + y[25] + y[27] + y[37] + y[41] + y[42]
   + y[71] + y[73] + y[76] - z[1284] >= 0
 R1285: y[16] + y[23] + y[24] + y[25] + y[27] + y[37] + y[41] + y[42]
   + y[71] + y[73] - z[1285] >= 0
 R1286: y[9] + y[10] + y[13] + y[28] + y[31] + y[33] + y[43] + y[55]
   + y[59] + y[63] + y[68] + y[79] + y[89] - z[1286] >= 0
 R1287: y[7] + y[9] + y[13] + y[25] + y[28] + y[33] + y[37] + y[43] + y[51]
   + y[53] + y[55] + y[59] + y[63] + y[68] + y[76] + y[95] - z[1287] >= 0
 R1288: y[16] + y[23] + y[24] + y[27] + y[41] + y[42] + y[71] + y[73]
   - z[1288] >= 0
 R1289: y[0] + y[4] + y[10] + y[15] + y[27] + y[28] + y[30] + y[31] + y[33]
   + y[43] + y[80] + y[82] + y[89] + y[94] - z[1289] >= 0
 R1290: y[18] + y[19] + y[26] + y[29] + y[34] + y[38] + y[44] + y[50]
   + y[52] + y[58] + y[62] + y[69] + y[74] + y[75] + y[85] + y[87] + y[90]
   + y[93] - z[1290] >= 0
 R1291: y[0] + y[4] + y[10] + y[15] + y[27] + y[28] + y[30] + y[31] + y[33]
   + y[43] + y[63] + y[80] + y[82] + y[89] + y[94] - z[1291] >= 0
 R1292: y[12] + y[15] + y[19] + y[22] + y[26] + y[38] + y[45] + y[46]
   + y[47] + y[61] + y[67] + y[70] + y[87] - z[1292] >= 0
 R1293: y[7] + y[9] + y[13] + y[25] + y[33] + y[37] + y[51] + y[53] + y[55]
   + y[59] + y[63] + y[68] + y[95] - z[1293] >= 0
 R1294: y[5] + y[7] + y[9] + y[11] + y[13] + y[17] + y[51] + y[53] + y[54]
   + y[64] + y[68] + y[77] + y[95] + y[97] - z[1294] >= 0
 R1295: y[11] + y[17] + y[64] + y[66] + y[77] + y[97] - z[1295] >= 0
 R1296: y[1] + y[20] + y[35] + y[36] + y[39] + y[57] + y[98] - z[1296]
   >= 0
 R1297: y[3] + y[11] + y[17] + y[54] + y[64] + y[66] + y[77] + y[97]
   - z[1297] >= 0
 R1298: y[2] + y[20] + y[21] + y[35] + y[36] + y[39] + y[57] + y[84]
   + y[98] - z[1298] >= 0
 R1299: y[1] + y[6] + y[14] + y[20] + y[57] + y[65] + y[91] + y[92] + y[98]
   - z[1299] >= 0
 R1300: y[1] + y[6] + y[14] + y[57] + y[65] + y[91] + y[92] + y[98]
   - z[1300] >= 0
 R1301: y[0] + y[16] + y[23] + y[24] + y[27] + y[41] + y[71] + y[82]
   + y[94] - z[1301] >= 0
 R1302: y[4] + y[10] + y[15] + y[28] + y[30] + y[31] + y[32] + y[43]
   + y[47] + y[49] + y[67] + y[78] + y[80] + y[81] + y[82] + y[83] + y[89]
   + y[94] - z[1302] >= 0
 R1303: y[2] + y[20] + y[32] + y[35] + y[36] + y[39] + y[49] + y[56]
   + y[78] + y[81] + y[83] + y[85] + y[88] + y[96] - z[1303] >= 0
 R1304: y[8] + y[12] + y[22] + y[26] + y[38] + y[45] + y[46] + y[47]
   + y[61] + y[67] + y[70] + y[87] - z[1304] >= 0
 R1305: y[18] + y[21] + y[29] + y[44] + y[50] + y[62] + y[69] + y[74]
   + y[75] + y[84] + y[85] + y[90] + y[93] - z[1305] >= 0
 R1306: y[0] + y[4] + y[10] + y[15] + y[16] + y[27] + y[28] + y[30] + y[33]
   + y[43] + y[80] + y[82] + y[94] - z[1306] >= 0
 R1307: y[1] + y[6] + y[14] + y[20] + y[36] + y[39] + y[48] + y[57] + y[65]
   + y[86] + y[91] + y[92] + y[98] - z[1307] >= 0
 R1308: y[3] + y[40] + y[48] + y[54] + y[60] + y[72] + y[86] + y[99]
   - z[1308] >= 0
 R1309: y[10] + y[28] + y[31] + y[32] + y[33] + y[43] + y[55] + y[79]
   + y[89] + y[96] + y[99] - z[1309] >= 0
 R1310: y[2] + y[18] + y[32] + y[35] + y[36] + y[44] + y[49] + y[56]
   + y[69] + y[78] + y[81] + y[83] + y[84] + y[85] + y[88] + y[93]
   - z[1310] >= 0
 R1311: y[2] + y[10] + y[31] + y[32] + y[35] + y[49] + y[55] + y[72]
   + y[78] + y[79] + y[81] + y[83] + y[88] + y[89] + y[96] - z[1311] >= 0
 R1312: y[5] + y[7] + y[9] + y[11] + y[13] + y[17] + y[51] + y[53] + y[55]
   + y[59] + y[63] + y[68] + y[95] - z[1312] >= 0
 R1313: y[8] + y[12] + y[22] + y[38] + y[45] + y[46] + y[61] + y[67]
   + y[70] + y[87] - z[1313] >= 0
 R1314: y[0] + y[4] + y[10] + y[15] + y[16] + y[23] + y[25] + y[27] + y[28]
   + y[30] + y[33] + y[37] + y[42] + y[43] + y[59] + y[63] + y[80] + y[82]
   + y[89] + y[94] - z[1314] >= 0
 R1315: y[29] + y[34] + y[50] + y[52] + y[58] + y[62] + y[74] + y[75]
   + y[90] - z[1315] >= 0
 R1316: y[0] + y[15] + y[41] + y[82] - z[1316] >= 0
 R1317: y[3] + y[9] + y[11] + y[13] + y[17] + y[40] + y[54] + y[55] + y[60]
   + y[68] + y[77] + y[79] + y[99] - z[1317] >= 0
 R1318: y[3] + y[40] + y[48] + y[54] + y[60] + y[66] + y[77] + y[86]
   + y[99] - z[1318] >= 0
 R1319: y[3] + y[40] + y[54] + y[60] + y[66] + y[77] + y[99] - z[1319]
   >= 0
 R1320: y[16] + y[23] + y[24] + y[25] + y[27] + y[37] + y[41] + y[42]
   + y[71] + y[73] + y[76] - z[1320] >= 0
 R1321: y[0] + y[4] + y[10] + y[15] + y[16] + y[27] + y[28] + y[30] + y[31]
   + y[33] + y[43] + y[63] + y[80] + y[82] + y[89] + y[94] - z[1321] >= 0
 R1322: y[8] + y[12] + y[22] + y[38] + y[45] + y[46] + y[47] + y[61]
   + y[67] + y[70] + y[87] - z[1322] >= 0
 R1323: y[3] + y[11] + y[54] + y[64] + y[66] + y[77] + y[97] - z[1323]
   >= 0
 R1324: y[21] + y[98] - z[1324] >= 0
 R1325: y[2] + y[20] + y[32] + y[35] + y[48] + y[57] + y[72] + y[79]
   + y[86] + y[88] + y[96] + y[99] - z[1325] >= 0
 R1326: y[24] + y[41] + y[71] - z[1326] >= 0
 R1327: y[0] + y[4] + y[15] + y[16] + y[27] + y[28] + y[30] + y[33] + y[43]
   + y[80] + y[82] + y[94] - z[1327] >= 0
 R1328: y[6] + y[20] + y[36] + y[39] + y[48] + y[57] + y[72] + y[86]
   + y[88] + y[91] + y[92] + y[96] - z[1328] >= 0
 R1329: y[3] + y[11] + y[40] + y[54] + y[60] + y[66] + y[77] + y[97]
   + y[99] - z[1329] >= 0
 R1330: y[0] + y[15] + y[16] + y[24] + y[27] + y[41] + y[71] + y[80]
   + y[82] + y[94] - z[1330] >= 0
 R1331: y[7] + y[23] + y[25] + y[37] + y[42] + y[51] + y[53] + y[59]
   + y[63] + y[68] + y[73] + y[76] + y[95] - z[1331] >= 0
 R1332: y[0] + y[4] + y[15] + y[16] + y[23] + y[25] + y[27] + y[28] + y[30]
   + y[33] + y[37] + y[42] + y[43] + y[59] + y[63] + y[71] + y[73] + y[80]
   + y[82] + y[94] - z[1332] >= 0
 R1333: y[7] + y[9] + y[13] + y[31] + y[33] + y[51] + y[53] + y[55] + y[59]
   + y[63] + y[68] + y[79] + y[99] - z[1333] >= 0
 R1334: y[9] + y[10] + y[13] + y[31] + y[33] + y[43] + y[55] + y[59]
   + y[63] + y[68] + y[79] + y[89] + y[99] - z[1334] >= 0
 R1335: y[4] + y[10] + y[19] + y[26] + y[30] + y[31] + y[32] + y[44]
   + y[47] + y[49] + y[56] + y[67] + y[78] + y[81] + y[83] + y[89]
   - z[1335] >= 0
 R1336: y[1] + y[6] + y[14] + y[20] + y[39] + y[57] + y[65] + y[91] + y[92]
   + y[98] - z[1336] >= 0
 R1337: y[2] + y[18] + y[19] + y[26] + y[32] + y[44] + y[47] + y[49]
   + y[50] + y[56] + y[69] + y[78] + y[81] + y[83] + y[84] + y[85] + y[90]
   + y[93] - z[1337] >= 0
 R1338: y[1] + y[6] + y[14] + y[65] + y[92] + y[98] - z[1338] >= 0
 R1339: y[3] + y[40] + y[54] + y[60] + y[66] + y[77] + y[99] - z[1339]
   >= 0
 R1340: y[6] + y[40] + y[48] + y[60] + y[72] + y[86] + y[91] + y[92]
   - z[1340] >= 0
 R1341: y[2] + y[20] + y[32] + y[35] + y[36] + y[39] + y[49] + y[57]
   + y[72] + y[78] + y[79] + y[81] + y[83] + y[88] + y[96] - z[1341] >= 0
 R1342: y[1] + y[14] + y[65] + y[98] - z[1342] >= 0
 R1343: y[20] + y[21] + y[35] + y[36] + y[39] + y[84] + y[98] - z[1343]
   >= 0
 R1344: y[8] + y[12] + y[19] + y[22] + y[26] + y[38] + y[44] + y[45]
   + y[46] + y[47] + y[58] + y[61] + y[62] + y[67] + y[70] + y[74] + y[75]
   + y[87] - z[1344] >= 0
 R1345: y[6] + y[40] + y[48] + y[57] + y[60] + y[72] + y[86] + y[91]
   + y[92] - z[1345] >= 0
 R1346: y[9] + y[10] + y[13] + y[31] + y[33] + y[43] + y[55] + y[59]
   + y[63] + y[79] + y[89] + y[99] - z[1346] >= 0
 R1347: y[4] + y[10] + y[28] + y[31] + y[33] + y[43] + y[55] + y[59]
   + y[63] + y[79] + y[80] + y[89] - z[1347] >= 0
 R1348: y[21] + y[36] + y[39] + y[84] + y[98] - z[1348] >= 0
 R1349: y[0] + y[16] + y[23] + y[24] + y[25] + y[27] + y[37] + y[41]
   + y[42] + y[71] + y[73] + y[80] + y[82] + y[94] - z[1349] >= 0
 R1350: y[7] + y[9] + y[11] + y[13] + y[17] + y[51] + y[53] + y[54] + y[55]
   + y[59] + y[68] + y[79] + y[99] - z[1350] >= 0
 R1351: y[8] + y[12] + y[22] + y[26] + y[38] + y[45] + y[46] + y[47]
   + y[58] + y[61] + y[67] + y[70] + y[87] - z[1351] >= 0
 R1352: y[4] + y[12] + y[19] + y[26] + y[38] + y[44] + y[45] + y[47]
   + y[49] + y[67] + y[70] + y[78] + y[83] + y[87] - z[1352] >= 0
 R1353: y[4] + y[10] + y[28] + y[30] + y[31] + y[32] + y[33] + y[43]
   + y[49] + y[78] + y[81] + y[83] + y[89] - z[1353] >= 0
 R1354: y[3] + y[5] + y[9] + y[11] + y[13] + y[17] + y[51] + y[53] + y[54]
   + y[64] + y[66] + y[68] + y[77] + y[97] + y[99] - z[1354] >= 0
 R1355: y[31] + y[40] + y[54] + y[55] + y[60] + y[72] + y[79] + y[99]
   - z[1355] >= 0
 R1356: y[6] + y[14] + y[48] + y[65] + y[86] + y[91] + y[92] - z[1356]
   >= 0
 R1357: y[9] + y[11] + y[13] + y[40] + y[54] + y[55] + y[59] + y[60]
   + y[68] + y[79] + y[99] - z[1357] >= 0
 R1358: y[18] + y[19] + y[26] + y[29] + y[34] + y[44] + y[50] + y[52]
   + y[58] + y[62] + y[69] + y[74] + y[75] + y[90] + y[93] - z[1358] >= 0
 R1359: y[10] + y[13] + y[28] + y[31] + y[33] + y[43] + y[55] + y[59]
   + y[63] + y[79] + y[89] + y[99] - z[1359] >= 0
 R1360: y[3] + y[11] + y[40] + y[54] + y[60] + y[66] + y[77] + y[99]
   - z[1360] >= 0
 R1361: y[2] + y[31] + y[32] + y[55] + y[60] + y[72] + y[79] + y[88]
   + y[89] + y[96] + y[99] - z[1361] >= 0
 R1362: y[40] + y[48] + y[60] + y[72] + y[79] + y[86] + y[91] + y[96]
   + y[99] - z[1362] >= 0
 R1363: y[16] + y[23] + y[25] + y[27] + y[28] + y[30] + y[33] + y[37]
   + y[42] + y[43] + y[59] + y[63] + y[73] + y[76] + y[80] - z[1363] >= 0
 R1364: y[4] + y[10] + y[15] + y[28] + y[30] + y[31] + y[43] + y[47]
   + y[67] + y[70] + y[78] + y[80] + y[82] + y[89] + y[94] - z[1364] >= 0
 R1365: y[2] + y[20] + y[35] + y[36] + y[39] + y[48] + y[57] + y[72]
   + y[86] + y[88] + y[91] + y[92] + y[96] + y[98] - z[1365] >= 0
 R1366: y[18] + y[21] + y[29] + y[50] + y[52] + y[62] + y[74] + y[75]
   + y[90] + y[93] - z[1366] >= 0
 R1367: y[2] + y[18] + y[20] + y[21] + y[32] + y[35] + y[36] + y[39]
   + y[49] + y[56] + y[69] + y[78] + y[81] + y[83] + y[84] + y[85] + y[88]
   + y[96] + y[98] - z[1367] >= 0
 R1368: y[4] + y[12] + y[15] + y[19] + y[26] + y[30] + y[38] + y[45]
   + y[46] + y[47] + y[67] + y[70] + y[87] - z[1368] >= 0
 R1369: y[5] + y[7] + y[9] + y[11] + y[13] + y[17] + y[51] + y[53] + y[64]
   + y[68] + y[95] - z[1369] >= 0
 R1370: y[7] + y[16] + y[23] + y[24] + y[25] + y[37] + y[42] + y[59]
   + y[63] + y[71] + y[73] + y[76] + y[95] - z[1370] >= 0
 R1371: y[3] + y[40] + y[54] + y[55] + y[60] + y[72] + y[79] + y[99]
   - z[1371] >= 0
 R1372: y[31] + y[40] + y[55] + y[60] + y[72] + y[79] + y[96] + y[99]
   - z[1372] >= 0
 R1373: y[0] + y[4] + y[10] + y[15] + y[28] + y[30] + y[43] + y[47] + y[67]
   + y[70] + y[80] + y[82] + y[89] + y[94] - z[1373] >= 0
 R1374: y[1] + y[14] + y[20] + y[36] + y[39] + y[57] + y[65] + y[92]
   + y[98] - z[1374] >= 0
 R1375: y[18] + y[19] + y[26] + y[29] + y[34] + y[38] + y[44] + y[50]
   + y[52] + y[58] + y[62] + y[69] + y[74] + y[75] + y[85] + y[90] + y[93]
   - z[1375] >= 0
 R1376: y[18] + y[19] + y[26] + y[32] + y[38] + y[44] + y[47] + y[49]
   + y[56] + y[67] + y[69] + y[74] + y[75] + y[78] + y[81] + y[83] + y[85]
   + y[87] + y[90] + y[93] - z[1376] >= 0
 R1377: y[19] + y[26] + y[29] + y[34] + y[44] + y[50] + y[52] + y[58]
   + y[62] + y[74] + y[75] + y[90] + y[93] - z[1377] >= 0
 R1378: y[0] + y[41] - z[1378] >= 0
 R1379: y[2] + y[20] + y[32] + y[35] + y[36] + y[39] + y[49] + y[57]
   + y[72] + y[78] + y[79] + y[81] + y[83] + y[88] + y[96] - z[1379] >= 0
 R1380: y[0] + y[4] + y[10] + y[15] + y[27] + y[28] + y[30] + y[33] + y[43]
   + y[80] + y[82] + y[89] + y[94] - z[1380] >= 0
 R1381: y[0] + y[4] + y[10] + y[15] + y[16] + y[27] + y[28] + y[30] + y[31]
   + y[33] + y[43] + y[59] + y[63] + y[80] + y[82] + y[89] + y[94]
   - z[1381] >= 0
 R1382: y[8] + y[12] + y[22] + y[26] + y[38] + y[45] + y[46] + y[47]
   + y[61] + y[67] + y[70] + y[87] - z[1382] >= 0
 R1383: y[29] + y[34] + y[52] + y[58] + y[62] + y[74] + y[75] + y[90]
   - z[1383] >= 0
 R1384: y[3] + y[40] + y[54] + y[60] + y[66] + y[77] + y[99] - z[1384]
   >= 0
 R1385: y[18] + y[19] + y[21] + y[26] + y[44] + y[49] + y[50] + y[56]
   + y[69] + y[74] + y[75] + y[78] + y[81] + y[83] + y[84] + y[85] + y[90]
   + y[93] - z[1385] >= 0
 R1386: y[0] + y[15] + y[27] + y[30] + y[70] + y[80] + y[82] + y[94]
   - z[1386] >= 0
 R1387: y[5] + y[7] + y[9] + y[11] + y[13] + y[17] + y[51] + y[53] + y[54]
   + y[55] + y[64] + y[68] + y[77] + y[95] + y[97] + y[99] - z[1387] >= 0
 R1388: y[2] + y[20] + y[21] + y[35] + y[36] + y[39] + y[57] + y[84]
   + y[98] - z[1388] >= 0
 R1389: y[5] + y[7] + y[9] + y[11] + y[13] + y[17] + y[51] + y[53] + y[64]
   + y[68] + y[95] - z[1389] >= 0
 R1390: y[3] + y[40] + y[48] + y[54] + y[60] + y[72] + y[77] + y[79]
   + y[86] + y[99] - z[1390] >= 0
 R1391: y[29] + y[34] + y[52] + y[58] + y[62] + y[74] + y[75] - z[1391]
   >= 0
 R1392: y[3] + y[9] + y[11] + y[13] + y[17] + y[40] + y[53] + y[54] + y[55]
   + y[60] + y[64] + y[66] + y[68] + y[77] + y[97] + y[99] - z[1392] >= 0
 R1393: y[0] + y[4] + y[10] + y[15] + y[16] + y[23] + y[25] + y[27] + y[28]
   + y[30] + y[33] + y[37] + y[42] + y[43] + y[59] + y[63] + y[80] + y[82]
   + y[94] - z[1393] >= 0
 R1394: y[1] + y[6] + y[14] + y[20] + y[39] + y[57] + y[65] + y[91] + y[92]
   + y[98] - z[1394] >= 0
 R1395: y[29] + y[50] + y[52] + y[62] + y[74] + y[75] + y[90] + y[93]
   - z[1395] >= 0
 R1396: y[16] + y[23] + y[24] + y[25] + y[27] + y[33] + y[37] + y[42]
   + y[63] + y[71] + y[73] + y[76] + y[80] + y[94] - z[1396] >= 0
 R1397: y[2] + y[20] + y[32] + y[35] + y[36] + y[48] + y[57] + y[72]
   + y[79] + y[81] + y[86] + y[88] + y[96] - z[1397] >= 0
 R1398: y[4] + y[10] + y[28] + y[30] + y[31] + y[32] + y[33] + y[43]
   + y[55] + y[63] + y[80] + y[89] - z[1398] >= 0
 R1399: y[2] + y[6] + y[20] + y[35] + y[36] + y[39] + y[57] + y[72] + y[88]
   + y[91] + y[92] + y[96] + y[98] - z[1399] >= 0
 R1400: y[4] + y[10] + y[28] + y[30] + y[31] + y[32] + y[33] + y[43]
   + y[55] + y[63] + y[79] + y[80] + y[89] - z[1400] >= 0
 R1401: y[5] + y[7] + y[9] + y[11] + y[13] + y[17] + y[51] + y[53] + y[54]
   + y[64] + y[68] + y[77] + y[95] + y[97] - z[1401] >= 0
 R1402: y[12] + y[18] + y[19] + y[26] + y[38] + y[44] + y[45] + y[47]
   + y[49] + y[56] + y[67] + y[69] + y[74] + y[75] + y[78] + y[81] + y[83]
   + y[85] + y[87] + y[90] + y[93] - z[1402] >= 0
 R1403: y[2] + y[4] + y[10] + y[28] + y[31] + y[32] + y[43] + y[49] + y[78]
   + y[79] + y[81] + y[83] + y[88] + y[89] + y[96] - z[1403] >= 0
 R1404: y[18] + y[21] + y[36] + y[39] + y[69] + y[84] + y[85] + y[93]
   + y[98] - z[1404] >= 0
 R1405: y[0] + y[4] + y[15] + y[16] + y[23] + y[24] + y[25] + y[27] + y[28]
   + y[30] + y[33] + y[37] + y[42] + y[43] + y[63] + y[71] + y[73] + y[80]
   + y[82] + y[94] - z[1405] >= 0
 R1406: y[0] + y[12] + y[15] + y[30] + y[47] + y[67] + y[70] + y[82]
   + y[94] - z[1406] >= 0
 R1407: y[10] + y[31] + y[55] + y[60] + y[79] + y[89] + y[99] - z[1407]
   >= 0
 R1408: y[21] + y[36] + y[39] + y[84] + y[98] - z[1408] >= 0
 R1409: y[1] + y[14] + y[65] + y[98] - z[1409] >= 0
 R1410: y[3] + y[40] + y[48] + y[60] + y[86] - z[1410] >= 0
 R1411: y[5] + y[7] + y[13] + y[25] + y[37] + y[51] + y[53] + y[59] + y[68]
   + y[76] + y[95] - z[1411] >= 0
 R1412: y[9] + y[10] + y[13] + y[28] + y[31] + y[33] + y[43] + y[55]
   + y[59] + y[63] + y[68] + y[79] + y[89] - z[1412] >= 0
 R1413: y[7] + y[9] + y[11] + y[13] + y[17] + y[51] + y[53] + y[54] + y[55]
   + y[59] + y[60] + y[68] + y[79] + y[99] - z[1413] >= 0
 R1414: y[11] + y[17] + y[64] + y[66] + y[77] + y[97] - z[1414] >= 0
 R1415: y[4] + y[10] + y[28] + y[30] + y[31] + y[32] + y[33] + y[43]
   + y[78] + y[80] + y[81] + y[89] - z[1415] >= 0
 R1416: y[2] + y[10] + y[31] + y[32] + y[35] + y[43] + y[49] + y[55]
   + y[78] + y[79] + y[81] + y[83] + y[88] + y[89] + y[96] - z[1416] >= 0
 R1417: y[0] + y[15] + y[16] + y[24] + y[27] + y[41] + y[71] + y[82]
   + y[94] - z[1417] >= 0
 R1418: y[1] + y[20] + y[35] + y[36] + y[39] + y[57] + y[92] + y[98]
   - z[1418] >= 0
 R1419: y[2] + y[6] + y[20] + y[35] + y[36] + y[39] + y[48] + y[57] + y[72]
   + y[86] + y[88] + y[91] + y[92] + y[96] - z[1419] >= 0
 R1420: y[3] + y[9] + y[11] + y[13] + y[17] + y[40] + y[54] + y[60] + y[64]
   + y[66] + y[77] + y[97] + y[99] - z[1420] >= 0
 R1421: y[5] + y[7] + y[9] + y[11] + y[13] + y[17] + y[51] + y[53] + y[59]
   + y[64] + y[68] + y[95] - z[1421] >= 0
 R1422: y[7] + y[23] + y[24] + y[25] + y[37] + y[42] + y[59] + y[71]
   + y[73] + y[76] + y[95] - z[1422] >= 0
 R1423: y[3] + y[11] + y[40] + y[54] + y[60] + y[66] + y[77] + y[99]
   - z[1423] >= 0
 R1424: y[16] + y[23] + y[24] + y[25] + y[27] + y[37] + y[42] + y[71]
   + y[73] + y[76] - z[1424] >= 0
 R1425: y[2] + y[18] + y[32] + y[35] + y[36] + y[39] + y[44] + y[49]
   + y[56] + y[69] + y[78] + y[81] + y[83] + y[84] + y[85] + y[88] + y[93]
   - z[1425] >= 0
 R1426: y[3] + y[9] + y[11] + y[13] + y[17] + y[40] + y[53] + y[54] + y[55]
   + y[60] + y[68] + y[77] + y[79] + y[99] - z[1426] >= 0
 R1427: y[5] + y[7] + y[13] + y[23] + y[25] + y[37] + y[42] + y[51] + y[53]
   + y[59] + y[63] + y[68] + y[76] + y[95] - z[1427] >= 0
 R1428: y[0] + y[4] + y[10] + y[15] + y[16] + y[27] + y[28] + y[30] + y[33]
   + y[43] + y[63] + y[80] + y[82] + y[89] + y[94] - z[1428] >= 0
 R1429: y[0] + y[4] + y[10] + y[16] + y[23] + y[25] + y[27] + y[28] + y[30]
   + y[33] + y[37] + y[42] + y[43] + y[59] + y[63] + y[73] + y[76] + y[80]
   + y[82] + y[94] - z[1429] >= 0
 R1430: y[9] + y[13] + y[31] + y[55] + y[59] + y[63] + y[68] + y[79]
   + y[99] - z[1430] >= 0
 R1431: y[1] + y[6] + y[14] + y[20] + y[35] + y[36] + y[39] + y[57] + y[65]
   + y[91] + y[92] + y[98] - z[1431] >= 0
 R1432: y[41] - z[1432] >= 0
 R1433: y[29] + y[34] + y[52] + y[58] + y[62] + y[74] + y[75] - z[1433]
   >= 0
 R1434: y[2] + y[20] + y[32] + y[35] + y[36] + y[39] + y[49] + y[56]
   + y[57] + y[69] + y[78] + y[81] + y[83] + y[84] + y[85] + y[88] + y[96]
   - z[1434] >= 0
 R1435: y[1] + y[6] + y[14] + y[57] + y[65] + y[91] + y[92] - z[1435] >= 0
 R1436: y[3] + y[40] + y[48] + y[54] + y[55] + y[60] + y[72] + y[79]
   + y[86] + y[99] - z[1436] >= 0
 R1437: y[2] + y[19] + y[32] + y[35] + y[44] + y[49] + y[56] + y[69]
   + y[78] + y[81] + y[83] + y[85] + y[89] - z[1437] >= 0
 R1438: y[3] + y[11] + y[40] + y[54] + y[60] + y[66] + y[77] + y[97]
   + y[99] - z[1438] >= 0
 R1439: y[0] + y[4] + y[10] + y[15] + y[27] + y[28] + y[30] + y[31] + y[33]
   + y[43] + y[80] + y[82] + y[89] + y[94] - z[1439] >= 0
 R1440: y[0] + y[15] + y[16] + y[27] + y[41] + y[71] + y[82] + y[94]
   - z[1440] >= 0
 R1441: y[2] + y[18] + y[21] + y[35] + y[36] + y[44] + y[49] + y[50]
   + y[56] + y[69] + y[78] + y[81] + y[83] + y[84] + y[85] + y[90] + y[93]
   - z[1441] >= 0
 R1442: y[1] + y[6] + y[14] + y[20] + y[57] + y[65] + y[92] + y[98]
   - z[1442] >= 0
 R1443: y[29] + y[50] + y[52] + y[62] + y[74] + y[75] + y[90] - z[1443]
   >= 0
 R1444: y[0] + y[15] + y[16] + y[23] + y[24] + y[27] + y[30] + y[41]
   + y[42] + y[71] + y[73] + y[80] + y[82] + y[94] - z[1444] >= 0
 R1445: y[2] + y[4] + y[10] + y[31] + y[32] + y[35] + y[49] + y[56] + y[78]
   + y[81] + y[83] + y[88] + y[89] + y[96] - z[1445] >= 0
 R1446: y[18] + y[19] + y[21] + y[29] + y[44] + y[50] + y[56] + y[62]
   + y[69] + y[74] + y[75] + y[84] + y[85] + y[90] + y[93] - z[1446] >= 0
 R1447: y[0] + y[15] + y[41] + y[82] - z[1447] >= 0
 R1448: y[0] + y[4] + y[15] + y[27] + y[30] + y[70] + y[80] + y[82] + y[94]
   - z[1448] >= 0
 R1449: y[16] + y[24] + y[41] + y[71] - z[1449] >= 0
 R1450: y[1] + y[6] + y[14] + y[20] + y[36] + y[39] + y[48] + y[57] + y[65]
   + y[86] + y[91] + y[92] + y[98] - z[1450] >= 0
 R1451: y[16] + y[23] + y[24] + y[41] + y[42] + y[71] + y[73] - z[1451]
   >= 0
 R1452: y[2] + y[20] + y[35] + y[36] + y[39] + y[48] + y[57] + y[72]
   + y[86] + y[88] + y[91] + y[92] + y[96] - z[1452] >= 0
 R1453: y[6] + y[48] + y[57] + y[72] + y[86] + y[91] + y[92] - z[1453]
   >= 0
 R1454: y[6] + y[48] + y[86] + y[91] + y[92] - z[1454] >= 0
 R1455: y[3] + y[9] + y[11] + y[13] + y[17] + y[40] + y[54] + y[60] + y[64]
   + y[66] + y[77] + y[97] + y[99] - z[1455] >= 0
 R1456: y[41] - z[1456] >= 0
 R1457: y[0] + y[15] - z[1457] >= 0
 R1458: y[18] + y[19] + y[21] + y[29] + y[44] + y[50] + y[56] + y[62]
   + y[69] + y[74] + y[75] + y[84] + y[85] + y[90] + y[93] - z[1458] >= 0
 R1459: y[0] + y[41] + y[82] - z[1459] >= 0
 R1460: y[20] + y[40] + y[48] + y[57] + y[60] + y[72] + y[79] + y[86]
   + y[88] + y[91] + y[96] + y[99] - z[1460] >= 0
 R1461: y[4] + y[10] + y[28] + y[30] + y[31] + y[32] + y[43] + y[47]
   + y[49] + y[56] + y[78] + y[81] + y[83] + y[89] - z[1461] >= 0
 R1462: y[5] + y[7] + y[9] + y[11] + y[13] + y[17] + y[51] + y[53] + y[54]
   + y[64] + y[68] + y[95] + y[97] - z[1462] >= 0
 R1463: y[4] + y[10] + y[28] + y[30] + y[31] + y[32] + y[33] + y[43]
   + y[63] + y[79] + y[80] + y[81] + y[89] - z[1463] >= 0
 R1464: y[18] + y[21] + y[50] + y[69] + y[84] + y[85] + y[93] - z[1464]
   >= 0
 R1465: y[2] + y[20] + y[32] + y[35] + y[36] + y[39] + y[48] + y[57]
   + y[72] + y[79] + y[81] + y[86] + y[88] + y[96] - z[1465] >= 0
 R1466: y[9] + y[10] + y[13] + y[31] + y[33] + y[55] + y[59] + y[60]
   + y[63] + y[79] + y[89] + y[99] - z[1466] >= 0
 R1467: y[1] + y[6] + y[14] + y[65] + y[91] + y[92] - z[1467] >= 0
 R1468: y[4] + y[10] + y[27] + y[28] + y[30] + y[31] + y[33] + y[43]
   + y[55] + y[59] + y[63] + y[80] + y[89] + y[94] - z[1468] >= 0
 R1469: y[1] + y[6] + y[14] + y[65] - z[1469] >= 0
 R1470: y[0] + y[12] + y[15] + y[38] + y[45] + y[46] + y[47] + y[61]
   + y[67] + y[70] + y[82] + y[87] + y[94] - z[1470] >= 0
 R1471: y[2] + y[20] + y[21] + y[35] + y[36] + y[39] + y[56] + y[69]
   + y[84] + y[85] + y[88] + y[98] - z[1471] >= 0
 R1472: y[0] + y[16] + y[24] + y[27] + y[41] + y[71] + y[82] - z[1472]
   >= 0
 R1473: y[8] + y[12] + y[22] + y[38] + y[45] + y[46] + y[47] + y[58]
   + y[61] + y[67] + y[70] + y[87] - z[1473] >= 0
 R1474: y[3] + y[40] + y[48] + y[54] + y[55] + y[60] + y[72] + y[79]
   + y[86] + y[96] + y[99] - z[1474] >= 0
 R1475: y[11] + y[17] + y[64] + y[66] + y[77] + y[97] - z[1475] >= 0
 R1476: y[2] + y[10] + y[31] + y[32] + y[35] + y[49] + y[72] + y[78]
   + y[79] + y[81] + y[83] + y[88] + y[89] + y[96] - z[1476] >= 0
 R1477: y[9] + y[13] + y[31] + y[40] + y[55] + y[59] + y[60] + y[79]
   + y[99] - z[1477] >= 0
 R1478: y[3] + y[9] + y[11] + y[13] + y[40] + y[54] + y[55] + y[60] + y[77]
   + y[79] + y[99] - z[1478] >= 0
 R1479: y[0] + y[16] + y[23] + y[24] + y[25] + y[27] + y[37] + y[41]
   + y[42] + y[71] + y[73] + y[80] + y[82] + y[94] - z[1479] >= 0
 R1480: y[9] + y[11] + y[13] + y[40] + y[53] + y[54] + y[55] + y[59]
   + y[60] + y[68] + y[79] + y[99] - z[1480] >= 0
 R1481: y[21] + y[36] + y[39] + y[84] + y[98] - z[1481] >= 0
 R1482: y[3] + y[9] + y[11] + y[13] + y[40] + y[54] + y[55] + y[60] + y[79]
   + y[99] - z[1482] >= 0
 R1483: y[2] + y[20] + y[32] + y[35] + y[36] + y[39] + y[57] + y[72]
   + y[79] + y[81] + y[86] + y[88] + y[96] - z[1483] >= 0
 R1484: y[7] + y[10] + y[13] + y[25] + y[28] + y[31] + y[33] + y[37]
   + y[43] + y[53] + y[55] + y[59] + y[63] + y[68] + y[76] + y[80]
   - z[1484] >= 0
 R1485: y[2] + y[20] + y[32] + y[35] + y[36] + y[39] + y[48] + y[57]
   + y[72] + y[79] + y[81] + y[86] + y[88] + y[96] - z[1485] >= 0
 R1486: y[2] + y[19] + y[32] + y[35] + y[44] + y[49] + y[56] + y[69]
   + y[78] + y[81] + y[83] + y[85] + y[89] - z[1486] >= 0
 R1487: y[3] + y[9] + y[11] + y[13] + y[17] + y[40] + y[54] + y[55] + y[60]
   + y[68] + y[77] + y[79] + y[99] - z[1487] >= 0
 R1488: y[6] + y[20] + y[40] + y[48] + y[57] + y[60] + y[72] + y[86]
   + y[91] + y[92] + y[96] - z[1488] >= 0
 R1489: y[8] + y[22] + y[34] + y[38] + y[45] + y[46] + y[58] + y[61]
   + y[62] + y[74] + y[75] + y[87] - z[1489] >= 0
 R1490: y[6] + y[20] + y[48] + y[57] + y[72] + y[86] + y[88] + y[91]
   + y[92] + y[96] - z[1490] >= 0
 R1491: y[29] + y[34] + y[50] + y[52] + y[62] + y[74] + y[75] + y[90]
   - z[1491] >= 0
 R1492: y[0] + y[4] + y[10] + y[15] + y[27] + y[28] + y[30] + y[31] + y[33]
   + y[43] + y[47] + y[80] + y[82] + y[89] + y[94] - z[1492] >= 0
 R1493: y[1] + y[20] + y[36] + y[39] + y[57] + y[65] + y[92] + y[98]
   - z[1493] >= 0
 R1494: y[3] + y[11] + y[17] + y[54] + y[64] + y[66] + y[77] + y[97]
   - z[1494] >= 0
 R1495: y[16] + y[23] + y[24] + y[25] + y[37] + y[42] + y[71] + y[73]
   + y[76] - z[1495] >= 0
 R1496: y[6] + y[20] + y[48] + y[57] + y[72] + y[86] + y[91] + y[92]
   - z[1496] >= 0
 R1497: y[34] + y[52] + y[58] + y[62] - z[1497] >= 0
 R1498: y[2] + y[20] + y[32] + y[35] + y[36] + y[39] + y[49] + y[56]
   + y[78] + y[81] + y[83] + y[85] + y[88] + y[96] - z[1498] >= 0
 R1499: y[6] + y[20] + y[48] + y[57] + y[72] + y[86] + y[91] + y[92]
   - z[1499] >= 0
 R1500: y[16] + y[23] + y[24] + y[25] + y[27] + y[37] + y[42] + y[71]
   + y[73] + y[76] - z[1500] >= 0
 R1501: y[2] + y[20] + y[35] + y[36] + y[39] + y[48] + y[57] + y[72]
   + y[79] + y[86] + y[88] + y[91] + y[92] + y[96] - z[1501] >= 0
 R1502: y[1] + y[6] + y[14] + y[20] + y[39] + y[48] + y[57] + y[65] + y[86]
   + y[91] + y[92] - z[1502] >= 0
 R1503: y[4] + y[10] + y[15] + y[26] + y[28] + y[30] + y[31] + y[43]
   + y[47] + y[49] + y[67] + y[70] + y[78] + y[82] + y[83] + y[89] + y[94]
   - z[1503] >= 0
 R1504: y[18] + y[19] + y[26] + y[38] + y[44] + y[47] + y[49] + y[50]
   + y[56] + y[62] + y[67] + y[69] + y[74] + y[75] + y[78] + y[83] + y[85]
   + y[87] + y[90] + y[93] - z[1504] >= 0
 R1505: y[0] + y[4] + y[10] + y[15] + y[16] + y[27] + y[28] + y[30] + y[31]
   + y[33] + y[43] + y[59] + y[63] + y[80] + y[82] + y[89] + y[94]
   - z[1505] >= 0
 R1506: y[0] + y[16] + y[23] + y[24] + y[25] + y[27] + y[30] + y[33]
   + y[37] + y[42] + y[63] + y[71] + y[73] + y[76] + y[80] + y[82] + y[94]
   - z[1506] >= 0
 R1507: y[2] + y[31] + y[32] + y[35] + y[36] + y[49] + y[56] + y[72]
   + y[78] + y[79] + y[81] + y[83] + y[88] + y[89] + y[96] - z[1507] >= 0
 R1508: y[2] + y[19] + y[31] + y[32] + y[35] + y[44] + y[49] + y[56]
   + y[69] + y[78] + y[81] + y[83] + y[85] + y[89] - z[1508] >= 0
 R1509: y[9] + y[11] + y[13] + y[40] + y[54] + y[55] + y[60] + y[79]
   + y[99] - z[1509] >= 0
 R1510: y[0] + y[4] + y[10] + y[15] + y[27] + y[28] + y[30] + y[31] + y[33]
   + y[43] + y[47] + y[80] + y[82] + y[89] + y[94] - z[1510] >= 0
 R1511: y[16] + y[24] + y[41] + y[71] - z[1511] >= 0
 R1512: y[0] + y[15] + y[41] + y[82] + y[94] - z[1512] >= 0
 R1513: y[11] + y[17] + y[54] + y[64] + y[66] + y[77] + y[97] - z[1513]
   >= 0
 R1514: y[2] + y[6] + y[20] + y[35] + y[36] + y[39] + y[48] + y[57] + y[72]
   + y[86] + y[88] + y[91] + y[92] + y[96] - z[1514] >= 0
 R1515: y[1] + y[20] + y[35] + y[36] + y[39] + y[57] + y[92] + y[98]
   - z[1515] >= 0
 R1516: y[7] + y[23] + y[25] + y[37] + y[42] + y[51] + y[53] + y[59]
   + y[63] + y[73] + y[76] + y[95] - z[1516] >= 0
 R1517: y[40] + y[48] + y[54] + y[55] + y[60] + y[72] + y[79] + y[86]
   + y[96] + y[99] - z[1517] >= 0
 R1518: y[3] + y[40] + y[54] + y[60] + y[66] + y[77] + y[99] - z[1518]
   >= 0
 R1519: y[16] + y[24] + y[41] + y[71] - z[1519] >= 0
 R1520: y[0] + y[4] + y[10] + y[16] + y[23] + y[25] + y[27] + y[28] + y[30]
   + y[33] + y[37] + y[42] + y[43] + y[59] + y[63] + y[80] + y[82] + y[89]
   + y[94] - z[1520] >= 0
 R1521: y[4] + y[10] + y[28] + y[30] + y[31] + y[32] + y[33] + y[43]
   + y[49] + y[78] + y[80] + y[81] + y[83] + y[89] + y[94] - z[1521] >= 0
 R1522: y[8] + y[12] + y[22] + y[26] + y[34] + y[38] + y[45] + y[46]
   + y[47] + y[58] + y[61] + y[67] + y[70] + y[87] - z[1522] >= 0
 R1523: y[18] + y[21] + y[29] + y[50] + y[52] + y[62] + y[69] + y[74]
   + y[75] + y[84] + y[85] + y[90] + y[93] - z[1523] >= 0
 R1524: y[0] + y[4] + y[10] + y[15] + y[28] + y[30] + y[43] + y[47] + y[67]
   + y[70] + y[80] + y[82] + y[89] + y[94] - z[1524] >= 0
 R1525: y[5] + y[9] + y[11] + y[17] + y[64] + y[66] + y[97] - z[1525] >= 0
 R1526: y[8] + y[12] + y[19] + y[22] + y[26] + y[38] + y[45] + y[46]
   + y[47] + y[58] + y[61] + y[67] + y[70] + y[87] - z[1526] >= 0
 R1527: y[1] + y[14] + y[65] + y[98] - z[1527] >= 0
 R1528: y[0] + y[41] - z[1528] >= 0
 R1529: y[1] + y[6] + y[14] + y[20] + y[36] + y[39] + y[57] + y[65] + y[91]
   + y[92] + y[98] - z[1529] >= 0
 R1530: y[2] + y[20] + y[35] + y[36] + y[39] + y[57] + y[84] + y[88]
   + y[96] + y[98] - z[1530] >= 0
 R1531: y[6] + y[20] + y[40] + y[48] + y[57] + y[60] + y[72] + y[79]
   + y[86] + y[88] + y[91] + y[92] + y[96] + y[99] - z[1531] >= 0
 R1532: y[11] + y[17] + y[64] + y[66] + y[77] + y[97] - z[1532] >= 0
 R1533: y[2] + y[19] + y[26] + y[31] + y[32] + y[35] + y[44] + y[49]
   + y[56] + y[69] + y[78] + y[81] + y[83] + y[85] + y[89] - z[1533] >= 0
 R1534: y[1] + y[36] + y[39] + y[98] - z[1534] >= 0
 R1535: y[0] + y[4] + y[12] + y[15] + y[26] + y[30] + y[38] + y[45] + y[46]
   + y[47] + y[67] + y[70] + y[82] + y[87] + y[94] - z[1535] >= 0
 R1536: y[11] + y[17] + y[64] + y[66] + y[77] + y[97] - z[1536] >= 0
 R1537: y[2] + y[20] + y[35] + y[36] + y[48] + y[57] + y[72] + y[79]
   + y[86] + y[88] + y[91] + y[92] + y[96] - z[1537] >= 0
 R1538: y[21] + y[84] - z[1538] >= 0
 R1539: y[7] + y[23] + y[25] + y[37] + y[42] + y[51] + y[53] + y[59]
   + y[63] + y[73] + y[76] + y[95] - z[1539] >= 0
 R1540: y[8] + y[22] + y[34] + y[38] + y[45] + y[46] + y[52] + y[58]
   + y[62] + y[74] + y[75] + y[87] - z[1540] >= 0
 R1541: y[4] + y[10] + y[27] + y[28] + y[30] + y[31] + y[33] + y[43]
   + y[59] + y[63] + y[80] + y[89] + y[94] - z[1541] >= 0
 R1542: y[0] + y[15] + y[16] + y[23] + y[24] + y[25] + y[27] + y[28]
   + y[30] + y[33] + y[37] + y[42] + y[71] + y[73] + y[80] + y[82] + y[94]
   - z[1542] >= 0
 R1543: y[0] + y[4] + y[10] + y[15] + y[16] + y[23] + y[27] + y[28] + y[30]
   + y[31] + y[33] + y[42] + y[43] + y[59] + y[63] + y[80] + y[82] + y[89]
   + y[94] - z[1543] >= 0
 R1544: y[0] + y[15] + y[41] + y[82] + y[94] - z[1544] >= 0
 R1545: y[0] + y[15] + y[16] + y[41] + y[71] + y[82] - z[1545] >= 0
 R1546: y[2] + y[6] + y[20] + y[35] + y[36] + y[39] + y[48] + y[57] + y[72]
   + y[86] + y[88] + y[91] + y[92] + y[96] + y[98] - z[1546] >= 0
 R1547: y[1] + y[14] + y[20] + y[36] + y[39] + y[57] + y[65] + y[98]
   - z[1547] >= 0
 R1548: y[2] + y[18] + y[32] + y[35] + y[36] + y[39] + y[49] + y[56]
   + y[69] + y[78] + y[81] + y[83] + y[84] + y[85] + y[88] + y[96]
   - z[1548] >= 0
 R1549: y[5] + y[7] + y[9] + y[11] + y[13] + y[17] + y[51] + y[53] + y[54]
   + y[55] + y[59] + y[63] + y[68] + y[95] + y[99] - z[1549] >= 0
 R1550: y[7] + y[9] + y[11] + y[13] + y[17] + y[51] + y[53] + y[54] + y[55]
   + y[59] + y[63] + y[68] + y[79] + y[95] + y[99] - z[1550] >= 0
 R1551: y[18] + y[19] + y[21] + y[26] + y[29] + y[44] + y[50] + y[52]
   + y[56] + y[62] + y[69] + y[74] + y[75] + y[84] + y[85] + y[90] + y[93]
   - z[1551] >= 0
 R1552: y[2] + y[19] + y[32] + y[35] + y[44] + y[49] + y[56] + y[69]
   + y[78] + y[81] + y[83] + y[85] + y[89] - z[1552] >= 0
 R1553: y[5] + y[7] + y[9] + y[13] + y[17] + y[25] + y[37] + y[51] + y[53]
   + y[59] + y[68] + y[76] + y[95] - z[1553] >= 0
 R1554: y[29] + y[34] + y[52] + y[58] + y[62] + y[74] + y[75] - z[1554]
   >= 0
 R1555: y[5] + y[7] + y[9] + y[11] + y[13] + y[17] + y[51] + y[53] + y[64]
   + y[68] + y[77] + y[95] + y[97] - z[1555] >= 0
 R1556: y[16] + y[23] + y[24] + y[25] + y[27] + y[28] + y[33] + y[37]
   + y[42] + y[43] + y[59] + y[63] + y[71] + y[73] + y[76] + y[80]
   - z[1556] >= 0
 R1557: y[0] + y[4] + y[15] + y[16] + y[23] + y[25] + y[27] + y[28] + y[30]
   + y[33] + y[37] + y[42] + y[43] + y[63] + y[71] + y[80] + y[82] + y[94]
   - z[1557] >= 0
 R1558: y[2] + y[32] + y[35] + y[36] + y[44] + y[49] + y[56] + y[69]
   + y[78] + y[81] + y[83] + y[85] + y[88] + y[96] - z[1558] >= 0
 R1559: y[6] + y[48] + y[57] + y[86] + y[91] + y[92] - z[1559] >= 0
 R1560: y[6] + y[40] + y[48] + y[57] + y[60] + y[72] + y[86] + y[91]
   + y[92] + y[96] - z[1560] >= 0
 R1561: y[16] + y[23] + y[24] + y[25] + y[37] + y[41] + y[42] + y[71]
   + y[73] - z[1561] >= 0
 R1562: y[6] + y[48] + y[72] + y[86] + y[91] + y[92] - z[1562] >= 0
 R1563: y[16] + y[23] + y[24] + y[25] + y[37] + y[42] + y[71] + y[73]
   + y[76] - z[1563] >= 0
 R1564: y[0] + y[4] + y[12] + y[15] + y[26] + y[30] + y[38] + y[45] + y[46]
   + y[47] + y[67] + y[70] + y[82] + y[87] + y[94] - z[1564] >= 0
 R1565: y[1] + y[39] + y[98] - z[1565] >= 0
 R1566: y[1] + y[6] + y[14] + y[20] + y[39] + y[57] + y[65] + y[92] + y[98]
   - z[1566] >= 0
 R1567: y[18] + y[21] + y[50] + y[84] + y[85] - z[1567] >= 0
 R1568: y[0] + y[15] + y[41] + y[82] - z[1568] >= 0
 R1569: y[0] + y[16] + y[23] + y[24] + y[25] + y[27] + y[37] + y[41]
   + y[42] + y[71] + y[73] + y[80] + y[82] + y[94] - z[1569] >= 0
 R1570: y[0] + y[16] + y[23] + y[24] + y[27] + y[41] + y[42] + y[71]
   + y[73] - z[1570] >= 0
 R1571: y[16] + y[23] + y[24] + y[25] + y[27] + y[37] + y[41] + y[42]
   + y[71] + y[73] + y[76] - z[1571] >= 0
 R1572: y[4] + y[12] + y[19] + y[26] + y[38] + y[44] + y[45] + y[46]
   + y[47] + y[49] + y[67] + y[70] + y[78] + y[83] + y[87] - z[1572] >= 0
 R1573: y[4] + y[12] + y[19] + y[26] + y[38] + y[44] + y[45] + y[46]
   + y[47] + y[67] + y[70] + y[87] - z[1573] >= 0
 R1574: y[12] + y[18] + y[19] + y[26] + y[38] + y[44] + y[45] + y[46]
   + y[47] + y[50] + y[56] + y[58] + y[62] + y[67] + y[69] + y[74] + y[75]
   + y[85] + y[87] + y[90] + y[93] - z[1574] >= 0
 R1575: y[0] + y[15] + y[16] + y[23] + y[24] + y[25] + y[27] + y[28]
   + y[30] + y[33] + y[37] + y[42] + y[43] + y[63] + y[71] + y[73] + y[76]
   + y[80] + y[82] + y[94] - z[1575] >= 0
 R1576: y[16] + y[23] + y[24] + y[27] + y[41] + y[42] + y[71] + y[73]
   - z[1576] >= 0
 R1577: y[2] + y[20] + y[31] + y[32] + y[35] + y[48] + y[72] + y[79]
   + y[81] + y[86] + y[88] + y[96] + y[99] - z[1577] >= 0
 R1578: y[7] + y[9] + y[13] + y[25] + y[33] + y[37] + y[51] + y[53] + y[55]
   + y[59] + y[63] + y[68] + y[76] + y[95] - z[1578] >= 0
 R1579: y[21] + y[39] + y[84] + y[98] - z[1579] >= 0
 R1580: y[1] + y[6] + y[14] + y[20] + y[48] + y[57] + y[65] + y[86] + y[91]
   + y[92] - z[1580] >= 0
 R1581: y[9] + y[10] + y[13] + y[31] + y[33] + y[55] + y[59] + y[63]
   + y[79] + y[89] + y[99] - z[1581] >= 0
 R1582: y[18] + y[19] + y[26] + y[29] + y[38] + y[44] + y[49] + y[50]
   + y[56] + y[62] + y[69] + y[74] + y[75] + y[78] + y[83] + y[84] + y[85]
   + y[90] + y[93] - z[1582] >= 0
 R1583: y[41] + y[71] - z[1583] >= 0
 R1584: y[0] + y[4] + y[10] + y[15] + y[16] + y[27] + y[28] + y[30] + y[33]
   + y[43] + y[80] + y[82] + y[94] - z[1584] >= 0
 R1585: y[4] + y[10] + y[27] + y[28] + y[30] + y[31] + y[33] + y[43]
   + y[59] + y[63] + y[80] + y[89] + y[94] - z[1585] >= 0
 R1586: y[0] + y[4] + y[10] + y[15] + y[27] + y[28] + y[30] + y[31] + y[33]
   + y[43] + y[47] + y[80] + y[82] + y[89] + y[94] - z[1586] >= 0
 R1587: y[8] + y[12] + y[22] + y[26] + y[34] + y[38] + y[45] + y[46]
   + y[58] + y[61] + y[67] + y[70] + y[87] - z[1587] >= 0
 R1588: y[4] + y[12] + y[19] + y[26] + y[38] + y[44] + y[45] + y[46]
   + y[47] + y[49] + y[56] + y[67] + y[70] + y[78] + y[83] + y[87]
   - z[1588] >= 0
 R1589: y[0] + y[4] + y[10] + y[15] + y[16] + y[23] + y[25] + y[27] + y[28]
   + y[30] + y[33] + y[37] + y[42] + y[43] + y[59] + y[63] + y[80] + y[82]
   + y[94] - z[1589] >= 0
 R1590: y[4] + y[10] + y[28] + y[30] + y[31] + y[32] + y[33] + y[43]
   + y[49] + y[78] + y[81] + y[83] + y[89] - z[1590] >= 0
 R1591: y[2] + y[20] + y[32] + y[35] + y[36] + y[39] + y[49] + y[56]
   + y[78] + y[81] + y[83] + y[88] + y[96] - z[1591] >= 0
 R1592: y[8] + y[12] + y[19] + y[22] + y[26] + y[38] + y[44] + y[45]
   + y[46] + y[47] + y[58] + y[61] + y[67] + y[70] + y[74] + y[75] + y[87]
   - z[1592] >= 0
 R1593: y[3] + y[9] + y[11] + y[13] + y[17] + y[40] + y[54] + y[55] + y[60]
   + y[64] + y[66] + y[68] + y[77] + y[97] + y[99] - z[1593] >= 0
 R1594: y[8] + y[12] + y[18] + y[19] + y[22] + y[26] + y[38] + y[44]
   + y[45] + y[46] + y[47] + y[50] + y[58] + y[62] + y[67] + y[69] + y[74]
   + y[75] + y[87] + y[90] + y[93] - z[1594] >= 0
 R1595: y[4] + y[10] + y[28] + y[30] + y[31] + y[32] + y[33] + y[43]
   + y[63] + y[80] + y[89] - z[1595] >= 0
 R1596: y[5] + y[7] + y[9] + y[11] + y[13] + y[17] + y[51] + y[53] + y[54]
   + y[55] + y[64] + y[68] + y[95] + y[97] + y[99] - z[1596] >= 0
 R1597: y[11] + y[17] + y[54] + y[64] + y[66] + y[77] + y[97] - z[1597]
   >= 0
 R1598: y[16] + y[23] + y[24] + y[41] + y[42] + y[71] + y[73] - z[1598]
   >= 0
 R1599: y[18] + y[21] + y[29] + y[50] + y[62] + y[69] + y[84] + y[85]
   + y[90] + y[93] - z[1599] >= 0
 R1600: y[0] + y[4] + y[10] + y[12] + y[15] + y[28] + y[30] + y[43] + y[47]
   + y[67] + y[70] + y[80] + y[82] + y[89] + y[94] - z[1600] >= 0
 R1601: y[1] + y[6] + y[14] + y[20] + y[57] + y[65] + y[91] + y[92] + y[98]
   - z[1601] >= 0
 R1602: y[2] + y[10] + y[31] + y[32] + y[35] + y[49] + y[56] + y[78]
   + y[81] + y[83] + y[88] + y[89] + y[96] - z[1602] >= 0
 R1603: y[29] + y[34] + y[50] + y[52] + y[58] + y[62] + y[74] + y[75]
   + y[90] + y[93] - z[1603] >= 0
 R1604: y[12] + y[18] + y[19] + y[26] + y[29] + y[34] + y[38] + y[44]
   + y[45] + y[46] + y[47] + y[50] + y[52] + y[58] + y[62] + y[67] + y[69]
   + y[74] + y[75] + y[87] + y[90] + y[93] - z[1604] >= 0
 R1605: y[4] + y[10] + y[12] + y[15] + y[26] + y[28] + y[30] + y[38]
   + y[47] + y[67] + y[70] + y[78] + y[82] + y[89] + y[94] - z[1605] >= 0
 R1606: y[8] + y[12] + y[19] + y[22] + y[26] + y[38] + y[44] + y[45]
   + y[46] + y[47] + y[58] + y[61] + y[67] + y[70] + y[87] - z[1606] >= 0
 R1607: y[18] + y[19] + y[26] + y[29] + y[44] + y[50] + y[52] + y[58]
   + y[62] + y[69] + y[74] + y[75] + y[84] + y[85] + y[90] + y[93]
   - z[1607] >= 0
 R1608: y[0] + y[15] + y[70] + y[82] + y[94] - z[1608] >= 0
 R1609: y[24] + y[41] + y[71] - z[1609] >= 0
 R1610: y[4] + y[10] + y[27] + y[28] + y[30] + y[31] + y[33] + y[43]
   + y[55] + y[59] + y[63] + y[80] + y[89] + y[94] - z[1610] >= 0
 R1611: y[2] + y[4] + y[10] + y[28] + y[31] + y[32] + y[43] + y[49] + y[56]
   + y[78] + y[81] + y[83] + y[89] - z[1611] >= 0
 R1612: y[7] + y[9] + y[11] + y[13] + y[33] + y[51] + y[53] + y[55] + y[59]
   + y[63] + y[68] + y[95] - z[1612] >= 0
 R1613: y[0] + y[4] + y[10] + y[15] + y[27] + y[28] + y[30] + y[33] + y[43]
   + y[47] + y[70] + y[80] + y[82] + y[94] - z[1613] >= 0
 R1614: y[18] + y[19] + y[21] + y[26] + y[29] + y[44] + y[49] + y[50]
   + y[56] + y[62] + y[69] + y[74] + y[75] + y[83] + y[84] + y[85] + y[90]
   + y[93] - z[1614] >= 0
 R1615: y[12] + y[19] + y[26] + y[32] + y[38] + y[44] + y[47] + y[49]
   + y[56] + y[67] + y[69] + y[70] + y[78] + y[81] + y[83] + y[87]
   - z[1615] >= 0
 R1616: y[2] + y[31] + y[32] + y[35] + y[44] + y[49] + y[56] + y[69]
   + y[78] + y[81] + y[83] + y[85] + y[89] - z[1616] >= 0
 R1617: y[0] + y[15] + y[16] + y[23] + y[24] + y[27] + y[30] + y[41]
   + y[42] + y[71] + y[80] + y[82] + y[94] - z[1617] >= 0
 R1618: y[29] + y[34] + y[50] + y[52] + y[62] + y[74] + y[75] + y[90]
   - z[1618] >= 0
 R1619: y[3] + y[40] + y[54] + y[55] + y[60] + y[72] + y[79] + y[99]
   - z[1619] >= 0
 R1620: y[3] + y[11] + y[40] + y[54] + y[60] + y[66] + y[77] + y[99]
   - z[1620] >= 0
 R1621: y[11] + y[17] + y[64] + y[66] + y[77] + y[97] - z[1621] >= 0
 R1622: y[5] + y[9] + y[11] + y[17] + y[64] + y[66] + y[77] + y[97]
   - z[1622] >= 0
 R1623: y[0] + y[4] + y[10] + y[16] + y[23] + y[25] + y[27] + y[28] + y[30]
   + y[33] + y[37] + y[42] + y[43] + y[59] + y[63] + y[76] + y[80] + y[82]
   + y[94] - z[1623] >= 0
 R1624: y[18] + y[21] + y[29] + y[50] + y[52] + y[62] + y[69] + y[74]
   + y[75] + y[84] + y[85] + y[90] + y[93] - z[1624] >= 0
 R1625: y[0] + y[4] + y[10] + y[15] + y[27] + y[28] + y[30] + y[43] + y[47]
   + y[67] + y[70] + y[80] + y[82] + y[89] + y[94] - z[1625] >= 0
 R1626: y[1] + y[6] + y[14] + y[48] + y[57] + y[65] + y[86] + y[91] + y[92]
   - z[1626] >= 0
 R1627: y[6] + y[14] + y[20] + y[48] + y[57] + y[86] + y[91] + y[92]
   - z[1627] >= 0
 R1628: y[8] + y[12] + y[22] + y[26] + y[38] + y[45] + y[46] + y[47]
   + y[61] + y[67] + y[70] + y[87] - z[1628] >= 0
 R1629: y[16] + y[23] + y[25] + y[27] + y[28] + y[30] + y[33] + y[37]
   + y[42] + y[43] + y[59] + y[63] + y[73] + y[76] + y[80] + y[94]
   - z[1629] >= 0
 R1630: y[3] + y[40] + y[48] + y[54] + y[55] + y[60] + y[72] + y[79]
   + y[86] + y[99] - z[1630] >= 0
 R1631: y[8] + y[12] + y[19] + y[22] + y[26] + y[34] + y[38] + y[45]
   + y[46] + y[47] + y[58] + y[61] + y[67] + y[70] + y[74] + y[87]
   - z[1631] >= 0
 R1632: y[3] + y[9] + y[11] + y[40] + y[54] + y[60] + y[64] + y[66] + y[77]
   + y[97] + y[99] - z[1632] >= 0
 R1633: y[0] + y[4] + y[15] + y[16] + y[27] + y[28] + y[30] + y[33] + y[43]
   + y[80] + y[82] + y[94] - z[1633] >= 0
 R1634: y[5] + y[7] + y[9] + y[11] + y[13] + y[17] + y[51] + y[53] + y[59]
   + y[68] + y[76] + y[95] - z[1634] >= 0
 R1635: y[18] + y[21] + y[29] + y[50] + y[69] + y[84] + y[85] + y[90]
   + y[93] - z[1635] >= 0
 R1636: y[8] + y[12] + y[22] + y[38] + y[45] + y[46] + y[47] + y[61]
   + y[67] + y[70] + y[87] - z[1636] >= 0
 R1637: y[10] + y[28] + y[31] + y[33] + y[43] + y[55] + y[59] + y[63]
   + y[79] + y[89] + y[99] - z[1637] >= 0
 R1638: y[21] + y[35] + y[36] + y[39] + y[84] + y[85] + y[98] - z[1638]
   >= 0
 R1639: y[1] + y[14] + y[65] + y[98] - z[1639] >= 0
 R1640: y[18] + y[19] + y[21] + y[29] + y[44] + y[50] + y[56] + y[62]
   + y[69] + y[74] + y[75] + y[84] + y[85] + y[90] + y[93] - z[1640] >= 0
 R1641: y[5] + y[7] + y[9] + y[13] + y[17] + y[25] + y[37] + y[51] + y[53]
   + y[59] + y[63] + y[68] + y[76] + y[95] - z[1641] >= 0
 R1642: y[3] + y[9] + y[11] + y[40] + y[54] + y[55] + y[60] + y[77] + y[79]
   + y[99] - z[1642] >= 0
 R1643: y[6] + y[40] + y[48] + y[57] + y[60] + y[72] + y[86] + y[91]
   + y[92] - z[1643] >= 0
 R1644: y[1] + y[20] + y[36] + y[39] + y[57] + y[65] + y[98] - z[1644]
   >= 0
 R1645: y[0] + y[4] + y[10] + y[15] + y[16] + y[23] + y[27] + y[28] + y[30]
   + y[33] + y[42] + y[43] + y[63] + y[80] + y[82] + y[89] + y[94]
   - z[1645] >= 0
 R1646: y[6] + y[40] + y[48] + y[72] + y[86] + y[91] + y[92] - z[1646]
   >= 0
 R1647: y[3] + y[40] + y[48] + y[54] + y[55] + y[60] + y[72] + y[79]
   + y[86] + y[99] - z[1647] >= 0
 R1648: y[20] + y[35] + y[36] + y[39] + y[57] + y[84] + y[98] - z[1648]
   >= 0
 R1649: y[11] + y[17] + y[64] + y[66] + y[77] + y[97] - z[1649] >= 0
 R1650: y[0] + y[15] + y[41] - z[1650] >= 0
 R1651: y[3] + y[11] + y[40] + y[54] + y[55] + y[60] + y[66] + y[77]
   + y[79] + y[99] - z[1651] >= 0
 R1652: y[5] + y[7] + y[9] + y[11] + y[13] + y[17] + y[51] + y[53] + y[64]
   + y[68] + y[95] - z[1652] >= 0
 R1653: y[3] + y[40] + y[48] + y[54] + y[60] + y[72] + y[77] + y[86]
   + y[99] - z[1653] >= 0
 R1654: y[0] + y[4] + y[10] + y[15] + y[16] + y[23] + y[27] + y[28] + y[30]
   + y[31] + y[33] + y[42] + y[43] + y[59] + y[63] + y[80] + y[82] + y[89]
   + y[94] - z[1654] >= 0
 R1655: y[8] + y[12] + y[19] + y[22] + y[26] + y[34] + y[38] + y[44]
   + y[45] + y[46] + y[47] + y[58] + y[62] + y[67] + y[74] + y[75] + y[87]
   + y[90] - z[1655] >= 0
 R1656: y[1] + y[6] + y[14] + y[20] + y[39] + y[48] + y[57] + y[72] + y[86]
   + y[91] + y[92] - z[1656] >= 0
 R1657: y[8] + y[12] + y[22] + y[26] + y[34] + y[38] + y[45] + y[46]
   + y[58] + y[61] + y[67] + y[74] + y[75] + y[87] - z[1657] >= 0
 R1658: y[12] + y[18] + y[19] + y[26] + y[38] + y[44] + y[47] + y[49]
   + y[50] + y[56] + y[67] + y[69] + y[74] + y[75] + y[78] + y[81] + y[83]
   + y[85] + y[87] + y[90] + y[93] - z[1658] >= 0
 R1659: y[21] + y[36] + y[39] + y[84] + y[85] + y[98] - z[1659] >= 0
 R1660: y[16] + y[23] + y[24] + y[41] + y[42] + y[71] + y[73] - z[1660]
   >= 0
 R1661: y[21] + y[36] + y[39] + y[84] + y[85] + y[98] - z[1661] >= 0
 R1662: y[0] + y[15] + y[16] + y[23] + y[24] + y[25] + y[27] + y[28]
   + y[30] + y[33] + y[37] + y[42] + y[43] + y[63] + y[71] + y[73] + y[80]
   + y[82] + y[94] - z[1662] >= 0
 R1663: y[0] + y[15] + y[70] + y[82] - z[1663] >= 0
 R1664: y[18] + y[21] + y[29] + y[50] + y[69] + y[84] + y[85] + y[90]
   + y[93] - z[1664] >= 0
 R1665: y[18] + y[29] + y[50] + y[52] + y[62] + y[74] + y[75] + y[90]
   + y[93] - z[1665] >= 0
 R1666: y[0] + y[4] + y[10] + y[15] + y[27] + y[28] + y[30] + y[31] + y[33]
   + y[43] + y[47] + y[80] + y[82] + y[89] + y[94] - z[1666] >= 0
 R1667: y[7] + y[16] + y[23] + y[25] + y[33] + y[37] + y[42] + y[53]
   + y[59] + y[63] + y[73] + y[76] + y[95] - z[1667] >= 0
 R1668: y[5] + y[7] + y[23] + y[25] + y[37] + y[42] + y[51] + y[53] + y[59]
   + y[63] + y[68] + y[73] + y[76] + y[95] - z[1668] >= 0
 R1669: y[0] + y[4] + y[10] + y[15] + y[16] + y[27] + y[28] + y[30] + y[31]
   + y[33] + y[43] + y[80] + y[82] + y[89] + y[94] - z[1669] >= 0
 R1670: y[8] + y[19] + y[26] + y[29] + y[34] + y[38] + y[52] + y[58]
   + y[62] + y[74] + y[75] + y[90] - z[1670] >= 0
 R1671: y[2] + y[10] + y[31] + y[32] + y[43] + y[55] + y[79] + y[81]
   + y[88] + y[89] + y[96] + y[99] - z[1671] >= 0
 R1672: y[29] + y[34] + y[50] + y[52] + y[62] + y[74] + y[75] + y[90]
   - z[1672] >= 0
 R1673: y[2] + y[20] + y[32] + y[35] + y[36] + y[39] + y[48] + y[57]
   + y[72] + y[79] + y[81] + y[86] + y[88] + y[96] - z[1673] >= 0
 R1674: y[2] + y[4] + y[10] + y[31] + y[32] + y[35] + y[43] + y[49] + y[55]
   + y[78] + y[79] + y[81] + y[83] + y[88] + y[89] + y[96] - z[1674] >= 0
 R1675: y[10] + y[13] + y[25] + y[28] + y[31] + y[33] + y[37] + y[43]
   + y[53] + y[55] + y[59] + y[63] + y[68] + y[80] + y[89] - z[1675] >= 0
 R1676: y[8] + y[12] + y[19] + y[22] + y[26] + y[34] + y[38] + y[44]
   + y[45] + y[46] + y[47] + y[58] + y[61] + y[62] + y[67] + y[74] + y[75]
   + y[87] + y[90] - z[1676] >= 0
 R1677: y[3] + y[11] + y[17] + y[54] + y[64] + y[66] + y[77] + y[97]
   - z[1677] >= 0
 R1678: y[4] + y[10] + y[28] + y[30] + y[31] + y[32] + y[33] + y[43]
   + y[78] + y[79] + y[80] + y[81] + y[89] - z[1678] >= 0
 R1679: y[18] + y[21] + y[29] + y[50] + y[69] + y[84] + y[85] + y[90]
   + y[93] - z[1679] >= 0
 R1680: y[1] + y[6] + y[14] + y[65] + y[92] - z[1680] >= 0
 R1681: y[12] + y[19] + y[26] + y[32] + y[38] + y[44] + y[47] + y[49]
   + y[56] + y[67] + y[69] + y[78] + y[81] + y[83] + y[87] - z[1681] >= 0
 R1682: y[9] + y[11] + y[13] + y[40] + y[54] + y[55] + y[60] + y[79]
   + y[99] - z[1682] >= 0
 R1683: y[18] + y[19] + y[26] + y[44] + y[49] + y[50] + y[56] + y[69]
   + y[74] + y[75] + y[78] + y[81] + y[83] + y[84] + y[85] + y[90] + y[93]
   - z[1683] >= 0
 R1684: y[0] + y[15] + y[16] + y[27] + y[41] + y[82] + y[94] - z[1684]
   >= 0
 R1685: y[8] + y[12] + y[19] + y[22] + y[26] + y[38] + y[45] + y[46]
   + y[47] + y[58] + y[61] + y[67] + y[70] + y[87] - z[1685] >= 0
 R1686: y[0] + y[15] + y[16] + y[27] + y[41] + y[82] + y[94] - z[1686]
   >= 0
 R1687: y[8] + y[12] + y[19] + y[22] + y[26] + y[38] + y[44] + y[45]
   + y[46] + y[47] + y[58] + y[61] + y[67] + y[70] + y[74] + y[75] + y[87]
   - z[1687] >= 0
 R1688: y[0] + y[4] + y[15] + y[16] + y[27] + y[28] + y[30] + y[33] + y[43]
   + y[80] + y[82] + y[94] - z[1688] >= 0
 R1689: y[1] + y[14] + y[20] + y[36] + y[39] + y[57] + y[65] + y[92]
   + y[98] - z[1689] >= 0
 R1690: y[8] + y[12] + y[19] + y[22] + y[26] + y[29] + y[34] + y[38]
   + y[44] + y[45] + y[46] + y[52] + y[58] + y[62] + y[74] + y[75] + y[87]
   + y[90] - z[1690] >= 0
 R1691: y[10] + y[13] + y[28] + y[31] + y[33] + y[43] + y[55] + y[59]
   + y[63] + y[79] + y[89] - z[1691] >= 0
 R1692: y[4] + y[10] + y[16] + y[23] + y[25] + y[27] + y[28] + y[30]
   + y[31] + y[33] + y[37] + y[42] + y[43] + y[59] + y[63] + y[80] + y[82]
   + y[89] + y[94] - z[1692] >= 0
 R1693: y[40] + y[48] + y[55] + y[60] + y[72] + y[79] + y[86] + y[88]
   + y[96] + y[99] - z[1693] >= 0
 R1694: y[18] + y[21] + y[50] + y[56] + y[69] + y[84] + y[85] + y[90]
   + y[93] - z[1694] >= 0
 R1695: y[5] + y[7] + y[9] + y[11] + y[13] + y[17] + y[51] + y[53] + y[54]
   + y[64] + y[68] + y[77] + y[95] + y[97] - z[1695] >= 0
 R1696: y[40] + y[48] + y[55] + y[60] + y[72] + y[79] + y[86] + y[88]
   + y[96] + y[99] - z[1696] >= 0
 R1697: y[5] + y[7] + y[9] + y[11] + y[13] + y[17] + y[51] + y[53] + y[54]
   + y[64] + y[68] + y[77] + y[95] + y[97] - z[1697] >= 0
 R1698: y[3] + y[40] + y[48] + y[54] + y[60] + y[72] + y[79] + y[86]
   + y[99] - z[1698] >= 0
 R1699: y[5] + y[7] + y[9] + y[11] + y[13] + y[17] + y[51] + y[53] + y[55]
   + y[59] + y[63] + y[68] + y[95] - z[1699] >= 0
 R1700: y[1] + y[14] + y[39] + y[65] + y[98] - z[1700] >= 0
 R1701: y[8] + y[12] + y[19] + y[22] + y[26] + y[38] + y[44] + y[45]
   + y[46] + y[47] + y[58] + y[61] + y[62] + y[67] + y[70] + y[74] + y[75]
   + y[87] + y[90] - z[1701] >= 0
 R1702: y[18] + y[19] + y[21] + y[29] + y[44] + y[50] + y[56] + y[62]
   + y[69] + y[74] + y[75] + y[84] + y[85] + y[90] + y[93] - z[1702] >= 0
 R1703: y[0] + y[4] + y[15] + y[27] + y[30] + y[47] + y[70] + y[80] + y[82]
   + y[94] - z[1703] >= 0
 R1704: y[12] + y[19] + y[26] + y[38] + y[44] + y[45] + y[46] + y[47]
   + y[49] + y[56] + y[67] + y[70] + y[78] + y[83] + y[87] - z[1704] >= 0
 R1705: y[18] + y[21] + y[29] + y[50] + y[69] + y[84] + y[85] + y[90]
   + y[93] - z[1705] >= 0
 R1706: y[0] + y[4] + y[10] + y[15] + y[27] + y[28] + y[30] + y[33] + y[43]
   + y[47] + y[70] + y[80] + y[82] + y[94] - z[1706] >= 0
 R1707: y[21] + y[36] + y[39] + y[98] - z[1707] >= 0
 R1708: y[2] + y[18] + y[19] + y[32] + y[35] + y[44] + y[49] + y[56]
   + y[69] + y[78] + y[81] + y[83] + y[85] - z[1708] >= 0
 R1709: y[4] + y[10] + y[28] + y[31] + y[33] + y[43] + y[55] + y[59]
   + y[63] + y[79] + y[89] - z[1709] >= 0
 R1710: y[18] + y[21] + y[50] + y[69] + y[84] + y[85] + y[90] + y[93]
   - z[1710] >= 0
 R1711: y[0] + y[4] + y[10] + y[15] + y[27] + y[28] + y[30] + y[31] + y[33]
   + y[43] + y[59] + y[63] + y[80] + y[82] + y[89] + y[94] - z[1711] >= 0
 R1712: y[16] + y[23] + y[25] + y[27] + y[28] + y[30] + y[33] + y[37]
   + y[42] + y[43] + y[59] + y[63] + y[73] + y[76] + y[80] - z[1712] >= 0
 R1713: y[5] + y[7] + y[9] + y[13] + y[25] + y[33] + y[37] + y[51] + y[53]
   + y[55] + y[59] + y[63] + y[68] + y[76] + y[95] - z[1713] >= 0
 R1714: y[0] + y[4] + y[10] + y[15] + y[16] + y[23] + y[27] + y[28] + y[30]
   + y[33] + y[42] + y[43] + y[63] + y[80] + y[82] + y[94] - z[1714] >= 0
 R1715: y[0] + y[15] + y[16] + y[23] + y[24] + y[27] + y[28] + y[30]
   + y[33] + y[42] + y[71] + y[80] + y[82] + y[94] - z[1715] >= 0
 R1716: y[3] + y[11] + y[17] + y[54] + y[64] + y[66] + y[77] + y[97]
   - z[1716] >= 0
 R1717: y[3] + y[40] + y[48] + y[54] + y[60] + y[77] + y[86] - z[1717]
   >= 0
 R1718: y[3] + y[9] + y[11] + y[13] + y[17] + y[40] + y[54] + y[55] + y[60]
   + y[68] + y[77] + y[79] + y[99] - z[1718] >= 0
 R1719: y[3] + y[9] + y[11] + y[13] + y[17] + y[54] + y[64] + y[66] + y[68]
   + y[77] + y[97] - z[1719] >= 0
 R1720: y[16] + y[24] + y[41] + y[71] - z[1720] >= 0
 R1721: y[4] + y[10] + y[16] + y[23] + y[25] + y[27] + y[28] + y[30]
   + y[31] + y[33] + y[37] + y[42] + y[43] + y[59] + y[63] + y[80] + y[89]
   + y[94] - z[1721] >= 0
 R1722: y[0] + y[4] + y[15] + y[27] + y[28] + y[30] + y[43] + y[70] + y[80]
   + y[82] + y[94] - z[1722] >= 0
 R1723: y[41] - z[1723] >= 0
 R1724: y[2] + y[18] + y[19] + y[32] + y[35] + y[44] + y[49] + y[56]
   + y[69] + y[78] + y[81] + y[83] + y[85] + y[93] - z[1724] >= 0
 R1725: y[2] + y[10] + y[31] + y[32] + y[35] + y[49] + y[72] + y[78]
   + y[79] + y[81] + y[83] + y[88] + y[89] + y[96] - z[1725] >= 0
 R1726: y[1] + y[6] + y[14] + y[57] + y[65] + y[92] + y[98] - z[1726] >= 0
 R1727: y[29] + y[34] + y[52] + y[58] + y[62] + y[74] + y[75] - z[1727]
   >= 0
 R1728: y[0] + y[15] + y[16] + y[27] + y[30] + y[80] + y[82] + y[94]
   - z[1728] >= 0
 R1729: y[2] + y[20] + y[32] + y[35] + y[36] + y[39] + y[49] + y[56]
   + y[78] + y[81] + y[83] + y[88] + y[96] - z[1729] >= 0
 R1730: y[3] + y[40] + y[48] + y[54] + y[60] + y[72] + y[86] + y[99]
   - z[1730] >= 0
 R1731: y[2] + y[18] + y[20] + y[21] + y[35] + y[36] + y[39] + y[49]
   + y[56] + y[69] + y[81] + y[84] + y[85] + y[98] - z[1731] >= 0
 R1732: y[18] + y[19] + y[26] + y[29] + y[38] + y[44] + y[50] + y[52]
   + y[58] + y[62] + y[69] + y[74] + y[75] + y[85] + y[90] + y[93]
   - z[1732] >= 0
 R1733: y[8] + y[12] + y[22] + y[26] + y[38] + y[45] + y[46] + y[47]
   + y[61] + y[67] + y[70] + y[87] - z[1733] >= 0
 R1734: y[5] + y[7] + y[9] + y[11] + y[13] + y[17] + y[51] + y[53] + y[64]
   + y[68] + y[95] - z[1734] >= 0
 R1735: y[29] + y[34] + y[52] + y[58] + y[62] + y[74] + y[75] - z[1735]
   >= 0
 R1736: y[18] + y[19] + y[26] + y[29] + y[38] + y[44] + y[50] + y[52]
   + y[58] + y[62] + y[69] + y[74] + y[75] + y[85] + y[87] + y[90] + y[93]
   - z[1736] >= 0
 R1737: y[0] + y[12] + y[15] + y[30] + y[38] + y[45] + y[46] + y[47]
   + y[61] + y[67] + y[70] + y[82] + y[87] + y[94] - z[1737] >= 0
 R1738: y[2] + y[4] + y[10] + y[28] + y[31] + y[32] + y[33] + y[43] + y[55]
   + y[79] + y[81] + y[88] + y[89] + y[96] - z[1738] >= 0
 R1739: y[0] + y[15] + y[16] + y[24] + y[27] + y[41] + y[71] + y[82]
   + y[94] - z[1739] >= 0
 R1740: y[5] + y[7] + y[9] + y[11] + y[13] + y[17] + y[51] + y[53] + y[64]
   + y[68] + y[95] - z[1740] >= 0
 R1741: y[6] + y[14] + y[20] + y[48] + y[57] + y[86] + y[91] + y[92]
   - z[1741] >= 0
 R1742: y[2] + y[20] + y[32] + y[35] + y[36] + y[39] + y[48] + y[57]
   + y[72] + y[79] + y[81] + y[86] + y[88] + y[96] - z[1742] >= 0
 R1743: y[1] + y[14] + y[65] + y[98] - z[1743] >= 0
 R1744: y[2] + y[20] + y[35] + y[36] + y[39] + y[57] + y[88] + y[98]
   - z[1744] >= 0
 R1745: y[0] + y[4] + y[10] + y[15] + y[28] + y[30] + y[43] + y[47] + y[67]
   + y[70] + y[80] + y[82] + y[89] + y[94] - z[1745] >= 0
 R1746: y[4] + y[12] + y[15] + y[19] + y[26] + y[30] + y[38] + y[44]
   + y[47] + y[49] + y[67] + y[70] + y[78] + y[83] + y[87] + y[89]
   - z[1746] >= 0
 R1747: y[18] + y[19] + y[21] + y[29] + y[44] + y[50] + y[56] + y[62]
   + y[69] + y[74] + y[75] + y[84] + y[85] + y[90] + y[93] - z[1747] >= 0
 R1748: y[4] + y[10] + y[28] + y[30] + y[31] + y[32] + y[43] + y[47]
   + y[49] + y[56] + y[78] + y[81] + y[83] + y[89] - z[1748] >= 0
 R1749: y[4] + y[10] + y[28] + y[31] + y[32] + y[33] + y[43] + y[49]
   + y[55] + y[78] + y[79] + y[81] + y[89] - z[1749] >= 0
 R1750: y[16] + y[23] + y[24] + y[25] + y[27] + y[33] + y[37] + y[42]
   + y[59] + y[63] + y[71] + y[73] + y[76] + y[95] - z[1750] >= 0
 R1751: y[6] + y[40] + y[48] + y[57] + y[60] + y[72] + y[86] + y[91]
   + y[92] - z[1751] >= 0
 R1752: y[8] + y[12] + y[22] + y[26] + y[38] + y[45] + y[46] + y[47]
   + y[58] + y[61] + y[67] + y[70] + y[87] - z[1752] >= 0
 R1753: y[24] + y[41] + y[71] - z[1753] >= 0
 R1754: y[12] + y[19] + y[26] + y[38] + y[44] + y[45] + y[46] + y[47]
   + y[67] + y[70] + y[87] - z[1754] >= 0
 R1755: y[5] + y[7] + y[9] + y[11] + y[13] + y[51] + y[53] + y[55] + y[59]
   + y[63] + y[68] + y[95] - z[1755] >= 0
 R1756: y[1] + y[6] + y[14] + y[65] + y[92] + y[98] - z[1756] >= 0
 R1757: y[2] + y[4] + y[10] + y[31] + y[32] + y[35] + y[49] + y[56] + y[78]
   + y[79] + y[81] + y[83] + y[88] + y[89] + y[96] - z[1757] >= 0
 R1758: y[2] + y[10] + y[31] + y[32] + y[35] + y[49] + y[56] + y[78]
   + y[81] + y[83] + y[88] + y[89] + y[96] - z[1758] >= 0
 R1759: y[4] + y[10] + y[15] + y[27] + y[28] + y[30] + y[31] + y[33]
   + y[43] + y[63] + y[80] + y[82] + y[89] + y[94] - z[1759] >= 0
 R1760: y[3] + y[9] + y[11] + y[13] + y[17] + y[54] + y[64] + y[66] + y[68]
   + y[77] + y[97] - z[1760] >= 0
 R1761: y[2] + y[20] + y[35] + y[36] + y[39] + y[48] + y[57] + y[72]
   + y[86] + y[88] + y[91] + y[92] + y[96] - z[1761] >= 0
 R1762: y[7] + y[13] + y[23] + y[25] + y[33] + y[37] + y[42] + y[51]
   + y[53] + y[59] + y[63] + y[68] + y[76] + y[95] - z[1762] >= 0
 R1763: y[5] + y[7] + y[9] + y[11] + y[13] + y[17] + y[51] + y[53] + y[59]
   + y[64] + y[68] + y[95] - z[1763] >= 0
 R1764: y[18] + y[21] + y[36] + y[50] + y[56] + y[69] + y[84] + y[85]
   + y[93] - z[1764] >= 0
 R1765: y[3] + y[11] + y[54] + y[64] + y[66] + y[77] + y[97] - z[1765]
   >= 0
 R1766: y[1] + y[20] + y[36] + y[39] + y[57] + y[65] + y[98] - z[1766]
   >= 0
 R1767: y[18] + y[21] + y[35] + y[36] + y[39] + y[50] + y[56] + y[69]
   + y[84] + y[85] + y[93] + y[98] - z[1767] >= 0
 R1768: y[1] + y[6] + y[14] + y[20] + y[57] + y[65] + y[91] + y[92]
   - z[1768] >= 0
 R1769: y[2] + y[4] + y[19] + y[26] + y[31] + y[32] + y[44] + y[47] + y[49]
   + y[56] + y[69] + y[78] + y[81] + y[83] + y[89] - z[1769] >= 0
 R1770: y[5] + y[7] + y[9] + y[11] + y[13] + y[17] + y[51] + y[53] + y[54]
   + y[64] + y[66] + y[68] + y[77] + y[97] - z[1770] >= 0
 R1771: y[24] + y[41] + y[71] - z[1771] >= 0
 R1772: y[2] + y[20] + y[32] + y[35] + y[36] + y[39] + y[49] + y[56]
   + y[69] + y[78] + y[81] + y[83] + y[85] + y[88] + y[96] - z[1772] >= 0
 R1773: y[4] + y[12] + y[19] + y[26] + y[38] + y[44] + y[45] + y[46]
   + y[47] + y[49] + y[67] + y[70] + y[78] + y[83] + y[87] - z[1773] >= 0
 R1774: y[11] + y[17] + y[64] + y[66] + y[77] + y[97] - z[1774] >= 0
 R1775: y[12] + y[19] + y[22] + y[26] + y[38] + y[44] + y[45] + y[46]
   + y[47] + y[58] + y[67] + y[70] + y[74] + y[75] + y[87] - z[1775] >= 0
 R1776: y[18] + y[19] + y[21] + y[26] + y[29] + y[44] + y[50] + y[56]
   + y[62] + y[69] + y[74] + y[75] + y[84] + y[85] + y[90] + y[93]
   - z[1776] >= 0
 R1777: y[34] + y[52] + y[58] + y[62] - z[1777] >= 0
 R1778: y[1] + y[6] + y[14] + y[65] + y[91] + y[92] - z[1778] >= 0
 R1779: y[2] + y[20] + y[35] + y[36] + y[39] + y[48] + y[57] + y[72]
   + y[86] + y[88] + y[91] + y[92] + y[96] - z[1779] >= 0
 R1780: y[40] + y[48] + y[60] + y[72] + y[79] + y[86] + y[91] + y[96]
   + y[99] - z[1780] >= 0
 R1781: y[2] + y[18] + y[19] + y[26] + y[32] + y[35] + y[44] + y[49]
   + y[56] + y[69] + y[78] + y[81] + y[83] + y[84] + y[85] + y[93]
   - z[1781] >= 0
 R1782: y[2] + y[31] + y[32] + y[35] + y[36] + y[49] + y[56] + y[72]
   + y[78] + y[79] + y[81] + y[83] + y[88] + y[89] + y[96] - z[1782] >= 0
 R1783: y[18] + y[21] + y[29] + y[44] + y[50] + y[62] + y[69] + y[74]
   + y[75] + y[84] + y[85] + y[90] + y[93] - z[1783] >= 0
 R1784: y[2] + y[4] + y[10] + y[31] + y[32] + y[35] + y[43] + y[49] + y[55]
   + y[78] + y[79] + y[81] + y[83] + y[88] + y[89] + y[96] - z[1784] >= 0
 R1785: y[2] + y[20] + y[35] + y[36] + y[39] + y[57] + y[88] + y[96]
   + y[98] - z[1785] >= 0
 R1786: y[3] + y[9] + y[11] + y[40] + y[54] + y[55] + y[60] + y[72] + y[77]
   + y[79] + y[99] - z[1786] >= 0
 R1787: y[8] + y[12] + y[22] + y[26] + y[34] + y[38] + y[45] + y[46]
   + y[58] + y[61] + y[67] + y[70] + y[87] - z[1787] >= 0
 R1788: y[0] + y[4] + y[10] + y[15] + y[16] + y[27] + y[28] + y[30] + y[33]
   + y[43] + y[80] + y[82] + y[89] + y[94] - z[1788] >= 0
 R1789: y[0] + y[4] + y[10] + y[16] + y[23] + y[27] + y[28] + y[30] + y[31]
   + y[33] + y[43] + y[59] + y[63] + y[80] + y[82] + y[89] + y[94]
   - z[1789] >= 0
 R1790: y[3] + y[11] + y[40] + y[54] + y[60] + y[66] + y[77] + y[97]
   + y[99] - z[1790] >= 0
 R1791: y[8] + y[12] + y[19] + y[22] + y[26] + y[38] + y[45] + y[46]
   + y[47] + y[58] + y[61] + y[67] + y[70] + y[87] - z[1791] >= 0
 R1792: y[7] + y[9] + y[10] + y[13] + y[25] + y[28] + y[33] + y[37] + y[43]
   + y[51] + y[53] + y[55] + y[59] + y[63] + y[68] + y[76] + y[80] + y[95]
   - z[1792] >= 0
 R1793: y[41] - z[1793] >= 0
 R1794: y[40] + y[48] + y[60] + y[72] + y[79] + y[86] + y[88] + y[91]
   + y[96] + y[99] - z[1794] >= 0
 R1795: y[6] + y[14] + y[65] + y[91] + y[92] - z[1795] >= 0
 R1796: y[2] + y[19] + y[31] + y[32] + y[35] + y[44] + y[49] + y[56]
   + y[69] + y[78] + y[81] + y[83] + y[85] + y[89] - z[1796] >= 0
 R1797: y[0] + y[4] + y[15] + y[27] + y[30] + y[47] + y[67] + y[70] + y[80]
   + y[82] + y[94] - z[1797] >= 0
 R1798: y[18] + y[21] + y[29] + y[50] + y[62] + y[69] + y[75] + y[84]
   + y[85] + y[90] + y[93] - z[1798] >= 0
 R1799: y[2] + y[4] + y[10] + y[31] + y[32] + y[35] + y[49] + y[56] + y[78]
   + y[81] + y[83] + y[88] + y[89] + y[96] - z[1799] >= 0
 R1800: y[18] + y[19] + y[21] + y[29] + y[44] + y[50] + y[56] + y[62]
   + y[69] + y[74] + y[75] + y[84] + y[85] + y[90] + y[93] - z[1800] >= 0
 R1801: y[0] + y[16] + y[23] + y[24] + y[25] + y[27] + y[37] + y[41]
   + y[42] + y[71] + y[73] + y[80] + y[82] + y[94] - z[1801] >= 0
 R1802: y[3] + y[5] + y[9] + y[11] + y[13] + y[17] + y[51] + y[53] + y[54]
   + y[64] + y[66] + y[68] + y[77] + y[97] - z[1802] >= 0
 R1803: y[4] + y[10] + y[25] + y[27] + y[28] + y[30] + y[31] + y[33]
   + y[37] + y[43] + y[55] + y[59] + y[63] + y[80] + y[89] - z[1803] >= 0
 R1804: y[5] + y[7] + y[9] + y[13] + y[23] + y[25] + y[37] + y[42] + y[51]
   + y[53] + y[59] + y[63] + y[68] + y[76] + y[95] - z[1804] >= 0
 R1805: y[18] + y[19] + y[21] + y[29] + y[44] + y[50] + y[56] + y[62]
   + y[69] + y[74] + y[75] + y[84] + y[85] + y[90] + y[93] - z[1805] >= 0
 R1806: y[4] + y[10] + y[28] + y[30] + y[31] + y[32] + y[33] + y[43]
   + y[49] + y[78] + y[81] + y[83] + y[89] - z[1806] >= 0
 R1807: y[2] + y[31] + y[32] + y[35] + y[40] + y[48] + y[55] + y[60]
   + y[72] + y[79] + y[86] + y[88] + y[96] + y[99] - z[1807] >= 0
 R1808: y[21] + y[84] + y[98] - z[1808] >= 0
 R1809: y[2] + y[18] + y[32] + y[35] + y[36] + y[39] + y[44] + y[49]
   + y[56] + y[69] + y[78] + y[81] + y[83] + y[84] + y[85] + y[88] + y[93]
   + y[96] - z[1809] >= 0
 R1810: y[4] + y[10] + y[28] + y[30] + y[31] + y[32] + y[33] + y[43]
   + y[63] + y[80] + y[89] + y[94] - z[1810] >= 0
 R1811: y[8] + y[12] + y[22] + y[45] + y[46] + y[61] + y[67] + y[70]
   + y[87] - z[1811] >= 0
 R1812: y[1] + y[6] + y[14] + y[57] + y[65] + y[91] + y[92] + y[98]
   - z[1812] >= 0
 R1813: y[3] + y[9] + y[11] + y[13] + y[17] + y[40] + y[54] + y[60] + y[64]
   + y[66] + y[77] + y[97] + y[99] - z[1813] >= 0
 R1814: y[3] + y[9] + y[11] + y[13] + y[17] + y[40] + y[53] + y[54] + y[55]
   + y[60] + y[64] + y[68] + y[77] + y[79] + y[99] - z[1814] >= 0
 R1815: y[0] + y[15] + y[27] + y[30] + y[70] + y[82] + y[94] - z[1815]
   >= 0
 R1816: y[7] + y[23] + y[25] + y[33] + y[37] + y[42] + y[51] + y[53]
   + y[59] + y[63] + y[68] + y[73] + y[76] + y[95] - z[1816] >= 0
 R1817: y[0] + y[4] + y[15] + y[27] + y[28] + y[30] + y[43] + y[70] + y[80]
   + y[82] + y[94] - z[1817] >= 0
 R1818: y[9] + y[10] + y[13] + y[31] + y[33] + y[55] + y[59] + y[63]
   + y[68] + y[79] + y[99] - z[1818] >= 0
 R1819: y[2] + y[18] + y[19] + y[26] + y[32] + y[44] + y[49] + y[50]
   + y[56] + y[69] + y[78] + y[81] + y[83] + y[84] + y[85] + y[90] + y[93]
   - z[1819] >= 0
 R1820: y[7] + y[9] + y[13] + y[25] + y[33] + y[37] + y[51] + y[53] + y[55]
   + y[59] + y[63] + y[68] + y[76] + y[95] - z[1820] >= 0
 R1821: y[2] + y[20] + y[35] + y[36] + y[39] + y[56] + y[57] + y[81]
   + y[84] + y[88] + y[96] + y[98] - z[1821] >= 0
 R1822: y[16] + y[23] + y[24] + y[25] + y[37] + y[42] + y[71] + y[73]
   + y[76] - z[1822] >= 0
 R1823: y[0] + y[15] + y[41] + y[82] - z[1823] >= 0
 R1824: y[8] + y[34] + y[52] + y[58] + y[62] - z[1824] >= 0
 R1825: y[4] + y[10] + y[12] + y[15] + y[26] + y[30] + y[38] + y[47]
   + y[67] + y[70] + y[78] + y[82] + y[83] + y[87] + y[89] + y[94]
   - z[1825] >= 0
 R1826: y[12] + y[15] + y[46] + y[61] + y[70] - z[1826] >= 0
 R1827: y[0] + y[4] + y[10] + y[15] + y[16] + y[27] + y[28] + y[30] + y[33]
   + y[43] + y[63] + y[80] + y[82] + y[89] + y[94] - z[1827] >= 0
 R1828: y[18] + y[21] + y[50] + y[69] + y[84] + y[85] + y[93] - z[1828]
   >= 0
 R1829: y[0] + y[15] + y[16] + y[24] + y[27] + y[41] + y[71] + y[82]
   + y[94] - z[1829] >= 0
 R1830: y[10] + y[13] + y[28] + y[31] + y[33] + y[43] + y[53] + y[55]
   + y[59] + y[63] + y[68] + y[80] + y[89] - z[1830] >= 0
 R1831: y[0] + y[4] + y[10] + y[15] + y[16] + y[23] + y[27] + y[28] + y[30]
   + y[31] + y[33] + y[42] + y[43] + y[59] + y[63] + y[80] + y[82] + y[89]
   + y[94] - z[1831] >= 0
 R1832: y[5] + y[7] + y[9] + y[13] + y[17] + y[37] + y[51] + y[53] + y[68]
   + y[76] + y[95] - z[1832] >= 0
 R1833: y[4] + y[12] + y[19] + y[26] + y[32] + y[38] + y[44] + y[47]
   + y[49] + y[56] + y[67] + y[70] + y[78] + y[81] + y[83] + y[87]
   - z[1833] >= 0
 R1834: y[0] + y[4] + y[15] + y[16] + y[23] + y[27] + y[28] + y[30] + y[33]
   + y[42] + y[43] + y[63] + y[71] + y[80] + y[82] + y[94] - z[1834] >= 0
 R1835: y[2] + y[18] + y[19] + y[26] + y[32] + y[35] + y[44] + y[49]
   + y[50] + y[56] + y[69] + y[78] + y[81] + y[83] + y[84] + y[85] + y[90]
   + y[93] - z[1835] >= 0
 R1836: y[18] + y[21] + y[36] + y[44] + y[49] + y[50] + y[56] + y[69]
   + y[83] + y[84] + y[85] + y[90] + y[93] - z[1836] >= 0
 R1837: y[5] + y[9] + y[11] + y[17] + y[64] + y[66] + y[77] + y[97]
   - z[1837] >= 0
 R1838: y[18] + y[19] + y[26] + y[38] + y[44] + y[47] + y[49] + y[50]
   + y[56] + y[69] + y[74] + y[75] + y[78] + y[81] + y[83] + y[84] + y[85]
   + y[90] + y[93] - z[1838] >= 0
 R1839: y[20] + y[21] + y[35] + y[36] + y[39] + y[84] + y[98] - z[1839]
   >= 0
 R1840: y[4] + y[10] + y[15] + y[27] + y[28] + y[30] + y[31] + y[33]
   + y[43] + y[59] + y[63] + y[80] + y[82] + y[89] + y[94] - z[1840] >= 0
 R1841: y[1] + y[14] + y[20] + y[36] + y[39] + y[57] + y[65] + y[92]
   + y[98] - z[1841] >= 0
 R1842: y[0] + y[4] + y[12] + y[15] + y[27] + y[30] + y[47] + y[67] + y[70]
   + y[80] + y[82] + y[94] - z[1842] >= 0
 R1843: y[16] + y[23] + y[24] + y[25] + y[27] + y[37] + y[42] + y[63]
   + y[71] + y[73] + y[76] + y[80] - z[1843] >= 0
 R1844: y[12] + y[18] + y[19] + y[26] + y[38] + y[44] + y[45] + y[46]
   + y[47] + y[49] + y[56] + y[67] + y[69] + y[74] + y[75] + y[78] + y[83]
   + y[85] + y[87] + y[90] + y[93] - z[1844] >= 0
 R1845: y[3] + y[40] + y[48] + y[60] + y[72] + y[86] + y[91] + y[99]
   - z[1845] >= 0
 R1846: y[1] + y[6] + y[20] + y[35] + y[36] + y[39] + y[57] + y[88] + y[91]
   + y[92] + y[98] - z[1846] >= 0
 R1847: y[3] + y[9] + y[11] + y[13] + y[40] + y[54] + y[55] + y[60] + y[66]
   + y[77] + y[79] + y[99] - z[1847] >= 0
 R1848: y[3] + y[40] + y[48] + y[54] + y[60] + y[66] + y[77] + y[79]
   + y[86] + y[99] - z[1848] >= 0
 R1849: y[5] + y[7] + y[9] + y[11] + y[13] + y[17] + y[25] + y[37] + y[51]
   + y[53] + y[55] + y[59] + y[63] + y[68] + y[76] + y[95] - z[1849] >= 0
 R1850: y[3] + y[5] + y[9] + y[11] + y[13] + y[17] + y[40] + y[51] + y[53]
   + y[54] + y[60] + y[64] + y[66] + y[68] + y[77] + y[97] + y[99]
   - z[1850] >= 0
 R1851: y[41] - z[1851] >= 0
 R1852: y[0] + y[15] + y[41] + y[82] - z[1852] >= 0
 R1853: y[34] + y[52] + y[58] + y[62] + y[74] + y[75] - z[1853] >= 0
 R1854: y[3] + y[40] + y[54] + y[55] + y[60] + y[72] + y[79] + y[99]
   - z[1854] >= 0
 R1855: y[2] + y[20] + y[32] + y[35] + y[36] + y[39] + y[48] + y[57]
   + y[72] + y[79] + y[81] + y[86] + y[88] + y[96] - z[1855] >= 0
 R1856: y[7] + y[13] + y[23] + y[25] + y[28] + y[33] + y[37] + y[42]
   + y[43] + y[51] + y[53] + y[55] + y[59] + y[63] + y[68] + y[76] + y[80]
   + y[95] - z[1856] >= 0
 R1857: y[2] + y[10] + y[31] + y[32] + y[55] + y[72] + y[79] + y[81]
   + y[88] + y[89] + y[96] + y[99] - z[1857] >= 0
 R1858: y[2] + y[20] + y[32] + y[35] + y[36] + y[39] + y[49] + y[56]
   + y[69] + y[78] + y[81] + y[83] + y[85] + y[88] + y[96] - z[1858] >= 0
 R1859: y[18] + y[21] + y[29] + y[44] + y[50] + y[62] + y[69] + y[74]
   + y[75] + y[84] + y[85] + y[90] + y[93] - z[1859] >= 0
 R1860: y[18] + y[19] + y[21] + y[26] + y[44] + y[49] + y[50] + y[56]
   + y[69] + y[74] + y[75] + y[78] + y[81] + y[83] + y[84] + y[85] + y[90]
   + y[93] - z[1860] >= 0
 R1861: y[9] + y[10] + y[13] + y[31] + y[33] + y[55] + y[59] + y[63]
   + y[68] + y[79] + y[99] - z[1861] >= 0
 R1862: y[5] + y[7] + y[9] + y[13] + y[25] + y[37] + y[51] + y[53] + y[55]
   + y[59] + y[63] + y[68] + y[76] + y[95] - z[1862] >= 0
 R1863: y[4] + y[10] + y[28] + y[30] + y[31] + y[32] + y[33] + y[43]
   + y[55] + y[79] + y[81] + y[89] - z[1863] >= 0
 R1864: y[2] + y[4] + y[10] + y[31] + y[32] + y[43] + y[49] + y[55] + y[78]
   + y[79] + y[81] + y[88] + y[89] + y[96] - z[1864] >= 0
 R1865: y[5] + y[7] + y[9] + y[11] + y[13] + y[17] + y[51] + y[53] + y[55]
   + y[59] + y[63] + y[68] + y[95] - z[1865] >= 0
 R1866: y[0] + y[15] + y[27] + y[30] + y[70] + y[82] + y[94] - z[1866]
   >= 0
 R1867: y[2] + y[20] + y[32] + y[35] + y[36] + y[39] + y[49] + y[57]
   + y[72] + y[81] + y[88] + y[96] - z[1867] >= 0
 R1868: y[7] + y[9] + y[13] + y[25] + y[33] + y[37] + y[51] + y[53] + y[55]
   + y[59] + y[63] + y[68] + y[76] + y[95] - z[1868] >= 0
 R1869: y[2] + y[32] + y[35] + y[36] + y[39] + y[49] + y[56] + y[69]
   + y[78] + y[81] + y[83] + y[85] + y[88] + y[96] - z[1869] >= 0
 R1870: y[0] + y[4] + y[10] + y[15] + y[16] + y[27] + y[28] + y[30] + y[33]
   + y[43] + y[80] + y[82] + y[89] + y[94] - z[1870] >= 0
 R1871: y[7] + y[10] + y[13] + y[25] + y[28] + y[31] + y[33] + y[37]
   + y[43] + y[51] + y[53] + y[55] + y[59] + y[63] + y[68] + y[76] + y[80]
   + y[95] - z[1871] >= 0
 R1872: y[2] + y[20] + y[35] + y[36] + y[39] + y[57] + y[88] + y[96]
   + y[98] - z[1872] >= 0
 R1873: y[7] + y[13] + y[23] + y[25] + y[33] + y[37] + y[42] + y[51]
   + y[53] + y[59] + y[63] + y[68] + y[73] + y[76] + y[95] - z[1873] >= 0
 R1874: y[0] + y[41] - z[1874] >= 0
 R1875: y[8] + y[22] + y[34] + y[52] + y[58] + y[62] + y[74] + y[75]
   - z[1875] >= 0
 R1876: y[0] + y[4] + y[12] + y[15] + y[30] + y[47] + y[67] + y[70] + y[82]
   + y[94] - z[1876] >= 0
 R1877: y[2] + y[32] + y[35] + y[36] + y[39] + y[49] + y[56] + y[78]
   + y[81] + y[83] + y[88] + y[96] - z[1877] >= 0
 R1878: y[8] + y[12] + y[19] + y[22] + y[26] + y[34] + y[38] + y[45]
   + y[46] + y[47] + y[58] + y[61] + y[62] + y[67] + y[74] + y[75] + y[87]
   - z[1878] >= 0
 R1879: y[16] + y[23] + y[24] + y[41] + y[42] + y[71] + y[73] - z[1879]
   >= 0
 R1880: y[8] + y[12] + y[19] + y[22] + y[26] + y[38] + y[44] + y[45]
   + y[46] + y[47] + y[58] + y[61] + y[67] + y[70] + y[74] + y[87]
   - z[1880] >= 0
 R1881: y[8] + y[22] + y[34] + y[52] + y[58] + y[62] + y[74] + y[75]
   - z[1881] >= 0
 R1882: y[10] + y[13] + y[28] + y[31] + y[33] + y[43] + y[55] + y[59]
   + y[63] + y[79] + y[80] + y[89] - z[1882] >= 0
 R1883: y[2] + y[32] + y[35] + y[44] + y[49] + y[56] + y[69] + y[78]
   + y[81] + y[83] + y[85] + y[88] + y[96] - z[1883] >= 0
 R1884: y[16] + y[23] + y[24] + y[25] + y[27] + y[37] + y[42] + y[63]
   + y[71] + y[73] + y[76] + y[80] - z[1884] >= 0
 R1885: y[7] + y[23] + y[25] + y[37] + y[42] + y[51] + y[53] + y[59]
   + y[73] + y[76] + y[95] - z[1885] >= 0
 R1886: y[12] + y[19] + y[26] + y[38] + y[44] + y[45] + y[46] + y[47]
   + y[67] + y[70] + y[78] + y[87] - z[1886] >= 0
 R1887: y[18] + y[21] + y[29] + y[50] + y[69] + y[84] + y[85] + y[90]
   + y[93] - z[1887] >= 0
 R1888: y[29] + y[34] + y[52] + y[58] + y[62] + y[74] + y[75] + y[90]
   - z[1888] >= 0
 R1889: y[29] + y[34] + y[50] + y[52] + y[58] + y[62] + y[74] + y[75]
   + y[90] - z[1889] >= 0
 R1890: y[5] + y[7] + y[9] + y[11] + y[13] + y[17] + y[51] + y[53] + y[54]
   + y[64] + y[68] + y[77] + y[95] + y[97] - z[1890] >= 0
 R1891: y[7] + y[9] + y[13] + y[23] + y[25] + y[33] + y[37] + y[42] + y[51]
   + y[53] + y[55] + y[59] + y[63] + y[68] + y[76] + y[95] - z[1891] >= 0
 R1892: y[1] + y[14] + y[39] + y[65] + y[98] - z[1892] >= 0
 R1893: y[5] + y[7] + y[9] + y[11] + y[13] + y[17] + y[51] + y[53] + y[59]
   + y[64] + y[68] + y[95] - z[1893] >= 0
 R1894: y[29] + y[34] + y[52] + y[58] + y[62] + y[74] + y[75] + y[90]
   - z[1894] >= 0
 R1895: y[18] + y[21] + y[35] + y[36] + y[39] + y[50] + y[56] + y[69]
   + y[84] + y[85] + y[93] + y[98] - z[1895] >= 0
 R1896: y[3] + y[9] + y[11] + y[13] + y[40] + y[54] + y[55] + y[60] + y[68]
   + y[79] + y[99] - z[1896] >= 0
 R1897: y[2] + y[10] + y[31] + y[32] + y[35] + y[49] + y[72] + y[78]
   + y[79] + y[81] + y[83] + y[88] + y[89] + y[96] - z[1897] >= 0
 R1898: y[0] + y[15] + y[16] + y[27] + y[30] + y[41] + y[80] + y[82]
   + y[94] - z[1898] >= 0
 R1899: y[16] + y[23] + y[24] + y[25] + y[37] + y[42] + y[71] + y[73]
   + y[76] - z[1899] >= 0
 R1900: y[8] + y[12] + y[22] + y[38] + y[45] + y[46] + y[47] + y[61]
   + y[67] + y[70] + y[87] - z[1900] >= 0
 R1901: y[8] + y[19] + y[22] + y[26] + y[29] + y[34] + y[38] + y[44]
   + y[45] + y[46] + y[52] + y[58] + y[62] + y[74] + y[75] + y[87] + y[90]
   - z[1901] >= 0
 R1902: y[3] + y[9] + y[11] + y[13] + y[17] + y[40] + y[54] + y[55] + y[60]
   + y[66] + y[68] + y[77] + y[79] + y[99] - z[1902] >= 0
 R1903: y[8] + y[12] + y[15] + y[19] + y[22] + y[26] + y[38] + y[45]
   + y[46] + y[47] + y[61] + y[67] + y[70] + y[87] - z[1903] >= 0
 R1904: y[18] + y[21] + y[50] + y[56] + y[69] + y[84] + y[85] + y[90]
   + y[93] - z[1904] >= 0
 R1905: y[3] + y[40] + y[54] + y[60] + y[66] + y[77] - z[1905] >= 0
 R1906: y[4] + y[10] + y[23] + y[25] + y[27] + y[28] + y[30] + y[31]
   + y[33] + y[37] + y[42] + y[43] + y[59] + y[63] + y[80] + y[89]
   - z[1906] >= 0
 R1907: y[12] + y[15] + y[26] + y[38] + y[45] + y[46] + y[47] + y[61]
   + y[67] + y[70] + y[82] + y[87] - z[1907] >= 0
 R1908: y[9] + y[10] + y[13] + y[31] + y[33] + y[43] + y[53] + y[55]
   + y[59] + y[63] + y[68] + y[79] + y[99] - z[1908] >= 0
 R1909: y[18] + y[19] + y[26] + y[29] + y[34] + y[38] + y[44] + y[50]
   + y[52] + y[58] + y[62] + y[74] + y[75] + y[90] + y[93] - z[1909] >= 0
 R1910: y[2] + y[20] + y[35] + y[36] + y[39] + y[57] + y[72] + y[88]
   + y[91] + y[92] + y[96] + y[98] - z[1910] >= 0
 R1911: y[6] + y[14] + y[48] + y[86] + y[91] + y[92] - z[1911] >= 0
 R1912: y[0] + y[4] + y[10] + y[12] + y[15] + y[28] + y[30] + y[43] + y[47]
   + y[67] + y[70] + y[80] + y[82] + y[94] - z[1912] >= 0
 R1913: y[2] + y[20] + y[35] + y[48] + y[57] + y[72] + y[79] + y[86]
   + y[88] + y[96] + y[99] - z[1913] >= 0
 R1914: y[10] + y[31] + y[32] + y[43] + y[55] + y[79] + y[88] + y[89]
   + y[96] + y[99] - z[1914] >= 0
 R1915: y[11] + y[17] + y[64] + y[66] + y[77] + y[97] - z[1915] >= 0
 R1916: y[6] + y[20] + y[48] + y[57] + y[72] + y[86] + y[91] + y[92]
   - z[1916] >= 0
 R1917: y[5] + y[9] + y[11] + y[13] + y[17] + y[54] + y[64] + y[66] + y[68]
   + y[77] + y[97] - z[1917] >= 0
 R1918: y[2] + y[20] + y[32] + y[35] + y[36] + y[39] + y[49] + y[57]
   + y[72] + y[81] + y[83] + y[88] + y[96] - z[1918] >= 0
 R1919: y[5] + y[7] + y[9] + y[13] + y[25] + y[37] + y[51] + y[53] + y[59]
   + y[63] + y[68] + y[76] + y[95] - z[1919] >= 0
 R1920: y[16] + y[23] + y[24] + y[25] + y[27] + y[33] + y[37] + y[42]
   + y[59] + y[63] + y[71] + y[73] + y[76] + y[80] - z[1920] >= 0
 R1921: y[4] + y[10] + y[19] + y[26] + y[31] + y[32] + y[44] + y[47]
   + y[49] + y[56] + y[67] + y[78] + y[81] + y[83] + y[89] - z[1921] >= 0
 R1922: y[8] + y[12] + y[19] + y[22] + y[26] + y[34] + y[38] + y[45]
   + y[46] + y[52] + y[58] + y[61] + y[62] + y[74] + y[75] + y[87] + y[90]
   - z[1922] >= 0
 R1923: y[8] + y[12] + y[22] + y[38] + y[45] + y[46] + y[47] + y[61]
   + y[67] + y[70] + y[87] - z[1923] >= 0
 R1924: y[2] + y[18] + y[19] + y[26] + y[32] + y[44] + y[47] + y[49]
   + y[56] + y[69] + y[78] + y[81] + y[83] + y[85] + y[90] + y[93]
   - z[1924] >= 0
 R1925: y[4] + y[10] + y[16] + y[23] + y[25] + y[27] + y[28] + y[30]
   + y[31] + y[33] + y[37] + y[42] + y[43] + y[59] + y[63] + y[80] + y[82]
   + y[89] + y[94] - z[1925] >= 0
 R1926: y[3] + y[11] + y[17] + y[54] + y[64] + y[66] + y[77] + y[97]
   - z[1926] >= 0
 R1927: y[4] + y[10] + y[28] + y[31] + y[32] + y[33] + y[43] + y[55]
   + y[59] + y[63] + y[79] + y[89] - z[1927] >= 0
 R1928: y[3] + y[11] + y[17] + y[40] + y[54] + y[60] + y[64] + y[66]
   + y[77] + y[97] - z[1928] >= 0
 R1929: y[9] + y[11] + y[13] + y[51] + y[53] + y[55] + y[59] + y[63]
   + y[68] + y[79] + y[99] - z[1929] >= 0
 R1930: y[4] + y[10] + y[26] + y[28] + y[30] + y[31] + y[32] + y[43]
   + y[44] + y[47] + y[49] + y[56] + y[67] + y[78] + y[81] + y[83] + y[89]
   - z[1930] >= 0
 R1931: y[8] + y[12] + y[19] + y[22] + y[26] + y[38] + y[45] + y[46]
   + y[47] + y[58] + y[61] + y[67] + y[70] + y[87] - z[1931] >= 0
 R1932: y[7] + y[9] + y[11] + y[13] + y[17] + y[51] + y[53] + y[54] + y[55]
   + y[59] + y[60] + y[68] + y[79] + y[99] - z[1932] >= 0
 R1933: y[11] + y[17] + y[64] + y[66] + y[77] + y[97] - z[1933] >= 0
 R1934: y[0] + y[15] + y[82] + y[94] - z[1934] >= 0
 R1935: y[4] + y[10] + y[28] + y[30] + y[31] + y[32] + y[33] + y[43]
   + y[49] + y[78] + y[81] + y[83] + y[89] - z[1935] >= 0
 R1936: y[0] + y[15] + y[70] + y[82] - z[1936] >= 0
 R1937: y[12] + y[18] + y[19] + y[26] + y[29] + y[34] + y[38] + y[44]
   + y[45] + y[46] + y[50] + y[52] + y[58] + y[62] + y[67] + y[69] + y[74]
   + y[75] + y[87] + y[90] + y[93] - z[1937] >= 0
 R1938: y[16] + y[23] + y[24] + y[25] + y[27] + y[33] + y[37] + y[42]
   + y[59] + y[63] + y[71] + y[73] + y[76] + y[80] + y[94] - z[1938] >= 0
 R1939: y[3] + y[9] + y[11] + y[13] + y[17] + y[40] + y[54] + y[55] + y[60]
   + y[66] + y[68] + y[77] + y[79] + y[99] - z[1939] >= 0
 R1940: y[2] + y[18] + y[32] + y[35] + y[36] + y[39] + y[44] + y[49]
   + y[56] + y[69] + y[78] + y[81] + y[83] + y[84] + y[85] + y[88] + y[96]
   - z[1940] >= 0
 R1941: y[3] + y[9] + y[11] + y[13] + y[17] + y[40] + y[53] + y[54] + y[55]
   + y[60] + y[64] + y[66] + y[68] + y[77] + y[97] + y[99] - z[1941] >= 0
 R1942: y[2] + y[10] + y[31] + y[32] + y[55] + y[72] + y[79] + y[81]
   + y[88] + y[89] + y[96] + y[99] - z[1942] >= 0
 R1943: y[9] + y[13] + y[31] + y[40] + y[54] + y[55] + y[60] + y[79]
   + y[99] - z[1943] >= 0
 R1944: y[2] + y[31] + y[32] + y[35] + y[49] + y[72] + y[78] + y[79]
   + y[81] + y[83] + y[88] + y[89] + y[96] - z[1944] >= 0
 R1945: y[0] + y[15] + y[82] + y[94] - z[1945] >= 0
 R1946: y[1] + y[14] + y[65] + y[98] - z[1946] >= 0
 R1947: y[0] + y[15] + y[16] + y[27] + y[30] + y[41] + y[71] + y[80]
   + y[82] + y[94] - z[1947] >= 0
 R1948: y[12] + y[19] + y[26] + y[38] + y[44] + y[45] + y[46] + y[47]
   + y[49] + y[56] + y[67] + y[70] + y[78] + y[83] + y[87] - z[1948] >= 0
 R1949: y[3] + y[11] + y[17] + y[54] + y[64] + y[66] + y[77] + y[97]
   - z[1949] >= 0
 R1950: y[10] + y[13] + y[28] + y[31] + y[33] + y[43] + y[55] + y[59]
   + y[63] + y[79] + y[89] + y[99] - z[1950] >= 0
 R1951: y[9] + y[40] + y[54] + y[55] + y[60] + y[72] + y[79] + y[99]
   - z[1951] >= 0
 R1952: y[8] + y[12] + y[19] + y[22] + y[26] + y[38] + y[44] + y[45]
   + y[46] + y[47] + y[58] + y[61] + y[67] + y[70] + y[87] - z[1952] >= 0
 R1953: y[1] + y[20] + y[36] + y[39] + y[57] + y[65] + y[98] - z[1953]
   >= 0
 R1954: y[0] + y[4] + y[12] + y[15] + y[26] + y[30] + y[38] + y[45] + y[46]
   + y[47] + y[61] + y[67] + y[70] + y[82] + y[87] + y[94] - z[1954] >= 0
 R1955: y[12] + y[15] + y[19] + y[26] + y[38] + y[45] + y[46] + y[47]
   + y[61] + y[67] + y[70] + y[87] - z[1955] >= 0
 R1956: y[2] + y[6] + y[20] + y[35] + y[36] + y[39] + y[48] + y[57] + y[72]
   + y[86] + y[88] + y[91] + y[92] + y[96] + y[98] - z[1956] >= 0
 R1957: y[29] + y[34] + y[52] + y[62] + y[74] + y[75] + y[90] - z[1957]
   >= 0
 R1958: y[0] + y[4] + y[10] + y[15] + y[16] + y[27] + y[28] + y[30] + y[31]
   + y[33] + y[43] + y[63] + y[80] + y[82] + y[89] + y[94] - z[1958] >= 0
 R1959: y[1] + y[6] + y[14] + y[20] + y[39] + y[57] + y[65] + y[91] + y[92]
   + y[98] - z[1959] >= 0
 R1960: y[29] + y[34] + y[50] + y[52] + y[58] + y[62] + y[74] + y[75]
   + y[90] - z[1960] >= 0
 R1961: y[1] + y[14] + y[65] + y[98] - z[1961] >= 0
 R1962: y[16] + y[23] + y[24] + y[41] + y[42] + y[71] + y[73] - z[1962]
   >= 0
 R1963: y[5] + y[7] + y[9] + y[11] + y[13] + y[17] + y[51] + y[53] + y[59]
   + y[64] + y[68] + y[95] - z[1963] >= 0
 R1964: y[0] + y[4] + y[12] + y[15] + y[30] + y[38] + y[45] + y[46] + y[47]
   + y[67] + y[70] + y[82] + y[87] + y[94] - z[1964] >= 0
 R1965: y[2] + y[20] + y[35] + y[48] + y[57] + y[72] + y[79] + y[86]
   + y[88] + y[91] + y[92] + y[96] - z[1965] >= 0
 R1966: y[1] + y[6] + y[14] + y[20] + y[48] + y[57] + y[65] + y[86] + y[91]
   + y[92] - z[1966] >= 0
 R1967: y[4] + y[10] + y[15] + y[28] + y[30] + y[31] + y[32] + y[43]
   + y[47] + y[49] + y[78] + y[80] + y[81] + y[83] + y[89] + y[94]
   - z[1967] >= 0
 R1968: y[16] + y[23] + y[24] + y[25] + y[27] + y[33] + y[37] + y[42]
   + y[59] + y[63] + y[71] + y[73] + y[76] + y[80] - z[1968] >= 0
 R1969: y[5] + y[7] + y[9] + y[13] + y[25] + y[37] + y[51] + y[53] + y[59]
   + y[63] + y[68] + y[76] + y[95] - z[1969] >= 0
 R1970: y[2] + y[20] + y[31] + y[32] + y[35] + y[36] + y[49] + y[72]
   + y[79] + y[81] + y[88] + y[89] + y[96] - z[1970] >= 0
 R1971: y[12] + y[18] + y[19] + y[26] + y[29] + y[38] + y[44] + y[45]
   + y[47] + y[50] + y[56] + y[58] + y[62] + y[67] + y[69] + y[74] + y[75]
   + y[85] + y[87] + y[90] + y[93] - z[1971] >= 0
 R1972: y[3] + y[40] + y[54] + y[55] + y[60] + y[72] + y[79] + y[99]
   - z[1972] >= 0
 R1973: y[40] + y[54] + y[55] + y[60] + y[72] + y[79] + y[99] - z[1973]
   >= 0
 R1974: y[16] + y[23] + y[24] + y[27] + y[41] + y[42] + y[71] + y[73]
   - z[1974] >= 0
 R1975: y[8] + y[12] + y[22] + y[38] + y[45] + y[46] + y[47] + y[58]
   + y[61] + y[67] + y[70] + y[87] - z[1975] >= 0
 R1976: y[10] + y[28] + y[31] + y[33] + y[43] + y[55] + y[59] + y[63]
   + y[79] + y[89] - z[1976] >= 0
 R1977: y[18] + y[21] + y[29] + y[44] + y[50] + y[62] + y[69] + y[74]
   + y[75] + y[84] + y[85] + y[90] + y[93] - z[1977] >= 0
 R1978: y[1] + y[6] + y[14] + y[48] + y[57] + y[65] + y[91] + y[92]
   - z[1978] >= 0
 R1979: y[16] + y[23] + y[24] + y[41] + y[42] + y[71] + y[73] - z[1979]
   >= 0
 R1980: y[5] + y[7] + y[9] + y[11] + y[13] + y[17] + y[25] + y[37] + y[51]
   + y[53] + y[55] + y[59] + y[63] + y[68] + y[76] + y[95] - z[1980] >= 0
 R1981: y[1] + y[14] + y[65] + y[98] - z[1981] >= 0
 R1982: y[2] + y[4] + y[10] + y[31] + y[32] + y[35] + y[49] + y[56] + y[78]
   + y[81] + y[83] + y[89] - z[1982] >= 0
 R1983: y[7] + y[9] + y[11] + y[13] + y[17] + y[51] + y[53] + y[54] + y[55]
   + y[59] + y[63] + y[68] + y[79] + y[95] + y[99] - z[1983] >= 0
 R1984: y[18] + y[19] + y[21] + y[26] + y[29] + y[44] + y[50] + y[56]
   + y[62] + y[69] + y[74] + y[75] + y[84] + y[85] + y[90] + y[93]
   - z[1984] >= 0
 R1985: y[4] + y[10] + y[16] + y[23] + y[25] + y[27] + y[28] + y[30]
   + y[31] + y[33] + y[37] + y[42] + y[43] + y[59] + y[63] + y[76] + y[80]
   + y[82] + y[89] + y[94] - z[1985] >= 0
 R1986: y[34] + y[52] + y[58] + y[62] - z[1986] >= 0
 R1987: y[12] + y[19] + y[26] + y[32] + y[38] + y[44] + y[47] + y[49]
   + y[56] + y[67] + y[69] + y[78] + y[81] + y[83] + y[85] + y[87]
   - z[1987] >= 0
 R1988: y[8] + y[12] + y[22] + y[34] + y[38] + y[45] + y[46] + y[58]
   + y[61] + y[74] + y[87] - z[1988] >= 0
 R1989: y[5] + y[9] + y[11] + y[17] + y[51] + y[64] + y[68] + y[97]
   - z[1989] >= 0
 R1990: y[7] + y[9] + y[13] + y[33] + y[51] + y[53] + y[55] + y[59] + y[63]
   + y[68] + y[95] - z[1990] >= 0
 R1991: y[18] + y[21] + y[35] + y[36] + y[39] + y[50] + y[56] + y[69]
   + y[84] + y[85] + y[93] + y[98] - z[1991] >= 0
 R1992: y[3] + y[5] + y[7] + y[9] + y[11] + y[13] + y[17] + y[51] + y[53]
   + y[54] + y[55] + y[64] + y[66] + y[68] + y[77] + y[97] + y[99]
   - z[1992] >= 0
 R1993: y[1] + y[6] + y[14] + y[65] + y[92] + y[98] - z[1993] >= 0
 R1994: y[1] + y[6] + y[14] + y[20] + y[48] + y[57] + y[65] + y[86] + y[91]
   + y[92] - z[1994] >= 0
 R1995: y[3] + y[9] + y[11] + y[17] + y[54] + y[64] + y[66] + y[77] + y[97]
   - z[1995] >= 0
 R1996: y[8] + y[12] + y[22] + y[26] + y[38] + y[45] + y[46] + y[47]
   + y[61] + y[67] + y[70] + y[87] - z[1996] >= 0
 R1997: y[8] + y[12] + y[19] + y[22] + y[26] + y[34] + y[38] + y[44]
   + y[45] + y[46] + y[52] + y[58] + y[61] + y[62] + y[67] + y[74] + y[75]
   + y[87] + y[90] - z[1997] >= 0
 R1998: y[6] + y[48] + y[86] + y[91] - z[1998] >= 0
 R1999: y[18] + y[19] + y[26] + y[44] + y[49] + y[50] + y[56] + y[69]
   + y[74] + y[75] + y[78] + y[81] + y[83] + y[84] + y[85] + y[90] + y[93]
   - z[1999] >= 0
 R2000: y[0] + y[15] - z[2000] >= 0
 R2001: y[18] + y[19] + y[26] + y[29] + y[38] + y[44] + y[47] + y[50]
   + y[56] + y[58] + y[62] + y[69] + y[74] + y[75] + y[85] + y[87] + y[90]
   + y[93] - z[2001] >= 0
 R2002: y[7] + y[16] + y[23] + y[24] + y[25] + y[37] + y[42] + y[59]
   + y[71] + y[73] + y[76] + y[95] - z[2002] >= 0
 R2003: y[20] + y[35] + y[40] + y[48] + y[57] + y[60] + y[72] + y[79]
   + y[86] + y[88] + y[91] + y[92] + y[96] + y[99] - z[2003] >= 0
 R2004: y[10] + y[28] + y[31] + y[32] + y[33] + y[43] + y[55] + y[79]
   + y[89] + y[96] + y[99] - z[2004] >= 0
 R2005: y[2] + y[20] + y[32] + y[35] + y[36] + y[39] + y[49] + y[57]
   + y[72] + y[79] + y[81] + y[88] + y[96] - z[2005] >= 0
 R2006: y[7] + y[13] + y[23] + y[25] + y[28] + y[33] + y[37] + y[42]
   + y[43] + y[51] + y[53] + y[59] + y[63] + y[68] + y[76] + y[80] + y[95]
   - z[2006] >= 0
 R2007: y[0] + y[16] + y[23] + y[24] + y[25] + y[27] + y[28] + y[30]
   + y[33] + y[37] + y[42] + y[43] + y[59] + y[63] + y[71] + y[73] + y[76]
   + y[80] + y[82] + y[94] - z[2007] >= 0
 R2008: y[0] + y[15] + y[41] + y[82] + y[94] - z[2008] >= 0
 R2009: y[0] + y[15] + y[41] + y[82] - z[2009] >= 0
 R2010: y[18] + y[21] + y[29] + y[50] + y[62] + y[69] + y[84] + y[85]
   + y[90] + y[93] - z[2010] >= 0
 R2011: y[18] + y[21] + y[36] + y[69] + y[84] + y[85] + y[93] + y[98]
   - z[2011] >= 0
 R2012: y[40] + y[55] + y[60] + y[72] + y[79] + y[86] + y[96] + y[99]
   - z[2012] >= 0
 R2013: y[6] + y[48] + y[57] + y[86] + y[91] + y[92] - z[2013] >= 0
 R2014: y[2] + y[18] + y[19] + y[26] + y[32] + y[35] + y[44] + y[49]
   + y[50] + y[56] + y[69] + y[78] + y[81] + y[83] + y[84] + y[85] + y[90]
   + y[93] - z[2014] >= 0
 R2015: y[0] + y[15] + y[82] - z[2015] >= 0
 R2016: y[0] + y[12] + y[15] + y[30] + y[47] + y[67] + y[70] + y[82]
   + y[94] - z[2016] >= 0
 R2017: y[4] + y[10] + y[16] + y[23] + y[25] + y[27] + y[28] + y[30]
   + y[31] + y[33] + y[37] + y[42] + y[43] + y[59] + y[63] + y[80] + y[89]
   + y[94] - z[2017] >= 0
 R2018: y[20] + y[40] + y[48] + y[57] + y[60] + y[72] + y[79] + y[86]
   + y[88] + y[91] + y[92] + y[96] + y[99] - z[2018] >= 0
 R2019: y[3] + y[11] + y[54] + y[64] + y[66] + y[77] + y[97] - z[2019]
   >= 0
 R2020: y[3] + y[40] + y[48] + y[54] + y[55] + y[60] + y[72] + y[79]
   + y[86] + y[99] - z[2020] >= 0
 R2021: y[2] + y[20] + y[31] + y[32] + y[35] + y[36] + y[39] + y[49]
   + y[56] + y[78] + y[81] + y[83] + y[88] + y[96] - z[2021] >= 0
 R2022: y[3] + y[9] + y[11] + y[13] + y[17] + y[40] + y[54] + y[55] + y[60]
   + y[68] + y[77] + y[79] + y[99] - z[2022] >= 0
 R2023: y[18] + y[21] + y[36] + y[39] + y[69] + y[84] + y[85] + y[93]
   + y[98] - z[2023] >= 0
 R2024: y[19] + y[26] + y[29] + y[34] + y[38] + y[44] + y[50] + y[52]
   + y[58] + y[62] + y[74] + y[75] + y[90] + y[93] - z[2024] >= 0
 R2025: y[6] + y[20] + y[40] + y[48] + y[57] + y[60] + y[72] + y[86]
   + y[88] + y[91] + y[92] + y[96] - z[2025] >= 0
 R2026: y[2] + y[4] + y[10] + y[28] + y[31] + y[32] + y[43] + y[49] + y[78]
   + y[79] + y[81] + y[83] + y[88] + y[89] + y[96] - z[2026] >= 0
 R2027: y[3] + y[40] + y[48] + y[54] + y[60] + y[66] + y[77] + y[86]
   + y[99] - z[2027] >= 0
 R2028: y[0] + y[41] - z[2028] >= 0
 R2029: y[1] + y[6] + y[14] + y[65] + y[92] - z[2029] >= 0
 R2030: y[0] + y[4] + y[12] + y[15] + y[27] + y[28] + y[30] + y[47] + y[67]
   + y[70] + y[80] + y[82] + y[94] - z[2030] >= 0
 R2031: y[1] + y[14] + y[65] + y[98] - z[2031] >= 0
 R2032: y[0] + y[4] + y[15] + y[16] + y[27] + y[28] + y[30] + y[43] + y[80]
   + y[82] + y[94] - z[2032] >= 0
 R2033: y[3] + y[9] + y[11] + y[17] + y[40] + y[54] + y[60] + y[64] + y[66]
   + y[77] + y[97] + y[99] - z[2033] >= 0
 R2034: y[7] + y[16] + y[23] + y[24] + y[25] + y[37] + y[42] + y[51]
   + y[53] + y[59] + y[63] + y[73] + y[76] + y[95] - z[2034] >= 0
 R2035: y[18] + y[21] + y[44] + y[50] + y[56] + y[69] + y[84] + y[85]
   + y[90] + y[93] - z[2035] >= 0
 R2036: y[10] + y[23] + y[25] + y[27] + y[28] + y[30] + y[31] + y[33]
   + y[37] + y[43] + y[55] + y[59] + y[63] + y[76] + y[80] + y[89]
   - z[2036] >= 0
 R2037: y[5] + y[7] + y[23] + y[25] + y[37] + y[42] + y[51] + y[53] + y[59]
   + y[63] + y[68] + y[73] + y[76] + y[95] - z[2037] >= 0
 R2038: y[3] + y[11] + y[40] + y[54] + y[60] + y[66] + y[77] + y[97]
   + y[99] - z[2038] >= 0
 R2039: y[16] + y[24] + y[41] + y[71] + y[73] - z[2039] >= 0
 R2040: y[5] + y[7] + y[9] + y[11] + y[13] + y[17] + y[51] + y[53] + y[59]
   + y[68] + y[76] + y[95] - z[2040] >= 0
 R2041: y[21] + y[84] + y[85] + y[98] - z[2041] >= 0
 R2042: y[16] + y[23] + y[24] + y[25] + y[27] + y[28] + y[30] + y[33]
   + y[37] + y[42] + y[43] + y[59] + y[63] + y[71] + y[73] + y[76] + y[80]
   + y[94] - z[2042] >= 0
 R2043: y[4] + y[10] + y[28] + y[30] + y[31] + y[32] + y[33] + y[43]
   + y[47] + y[49] + y[78] + y[80] + y[81] + y[83] + y[89] + y[94]
   - z[2043] >= 0
 R2044: y[0] + y[4] + y[10] + y[15] + y[27] + y[28] + y[30] + y[31] + y[33]
   + y[43] + y[63] + y[80] + y[82] + y[89] + y[94] - z[2044] >= 0
 R2045: y[3] + y[9] + y[11] + y[40] + y[54] + y[55] + y[60] + y[77] + y[79]
   + y[99] - z[2045] >= 0
 R2046: y[4] + y[12] + y[19] + y[26] + y[38] + y[44] + y[45] + y[47]
   + y[49] + y[56] + y[67] + y[70] + y[78] + y[81] + y[83] + y[87]
   - z[2046] >= 0
 R2047: y[6] + y[20] + y[48] + y[57] + y[72] + y[86] + y[91] + y[92]
   - z[2047] >= 0
 R2048: y[3] + y[40] + y[48] + y[60] + y[72] + y[86] + y[91] + y[99]
   - z[2048] >= 0
 R2049: y[2] + y[18] + y[20] + y[21] + y[35] + y[36] + y[39] + y[49]
   + y[56] + y[69] + y[81] + y[83] + y[84] + y[85] + y[88] + y[93] + y[98]
   - z[2049] >= 0
 R2050: y[9] + y[13] + y[31] + y[40] + y[54] + y[55] + y[60] + y[79]
   + y[99] - z[2050] >= 0
 R2051: y[21] + y[84] + y[98] - z[2051] >= 0
 R2052: y[41] - z[2052] >= 0
 R2053: y[7] + y[16] + y[23] + y[24] + y[25] + y[27] + y[33] + y[37]
   + y[42] + y[59] + y[63] + y[71] + y[73] + y[76] + y[95] - z[2053] >= 0
 R2054: y[29] + y[34] + y[50] + y[52] + y[58] + y[62] + y[74] + y[75]
   + y[90] - z[2054] >= 0
 R2055: y[6] + y[40] + y[48] + y[86] + y[91] - z[2055] >= 0
 R2056: y[2] + y[18] + y[21] + y[32] + y[35] + y[36] + y[39] + y[44]
   + y[49] + y[50] + y[56] + y[69] + y[78] + y[81] + y[83] + y[84] + y[85]
   + y[93] - z[2056] >= 0
 R2057: y[6] + y[40] + y[48] + y[60] + y[72] + y[86] + y[91] + y[92]
   - z[2057] >= 0
 R2058: y[8] + y[22] + y[34] + y[52] + y[58] + y[62] + y[74] + y[75]
   - z[2058] >= 0
 R2059: y[0] + y[4] + y[15] + y[16] + y[27] + y[28] + y[30] + y[43] + y[80]
   + y[82] + y[94] - z[2059] >= 0
 R2060: y[31] + y[40] + y[55] + y[60] + y[72] + y[79] + y[89] + y[99]
   - z[2060] >= 0
 R2061: y[11] + y[17] + y[64] + y[66] + y[77] + y[97] - z[2061] >= 0
 R2062: y[21] + y[36] + y[39] + y[98] - z[2062] >= 0
 R2063: y[18] + y[21] + y[44] + y[50] + y[56] + y[69] + y[84] + y[85]
   + y[90] + y[93] - z[2063] >= 0
 R2064: y[2] + y[20] + y[32] + y[35] + y[36] + y[48] + y[57] + y[72]
   + y[79] + y[81] + y[86] + y[88] + y[96] - z[2064] >= 0
 R2065: y[1] + y[14] + y[65] - z[2065] >= 0
 R2066: y[3] + y[40] + y[54] + y[60] + y[66] + y[77] - z[2066] >= 0
 R2067: y[2] + y[4] + y[10] + y[28] + y[31] + y[32] + y[33] + y[43] + y[49]
   + y[78] + y[81] + y[83] + y[89] - z[2067] >= 0
 R2068: y[5] + y[7] + y[13] + y[25] + y[37] + y[51] + y[53] + y[59] + y[68]
   + y[76] + y[95] - z[2068] >= 0
 R2069: y[1] + y[6] + y[14] + y[65] + y[92] - z[2069] >= 0
 R2070: y[2] + y[18] + y[19] + y[32] + y[35] + y[44] + y[49] + y[50]
   + y[56] + y[69] + y[78] + y[81] + y[83] + y[84] + y[85] + y[93]
   - z[2070] >= 0
 R2071: y[18] + y[21] + y[36] + y[50] + y[69] + y[84] + y[85] + y[93]
   - z[2071] >= 0
 R2072: y[18] + y[21] + y[50] + y[69] + y[84] + y[85] + y[90] + y[93]
   - z[2072] >= 0
 R2073: y[40] + y[48] + y[54] + y[55] + y[60] + y[72] + y[79] + y[86]
   + y[96] + y[99] - z[2073] >= 0
 R2074: y[40] + y[48] + y[60] + y[72] + y[79] + y[86] + y[88] + y[91]
   + y[96] + y[99] - z[2074] >= 0
 R2075: y[5] + y[9] + y[11] + y[17] + y[64] + y[97] - z[2075] >= 0
 R2076: y[12] + y[15] + y[45] + y[46] + y[61] + y[67] + y[70] + y[87]
   - z[2076] >= 0
 R2077: y[18] + y[19] + y[21] + y[44] + y[49] + y[50] + y[56] + y[69]
   + y[74] + y[75] + y[78] + y[81] + y[83] + y[84] + y[85] + y[90] + y[93]
   - z[2077] >= 0
 R2078: y[2] + y[20] + y[35] + y[36] + y[39] + y[57] + y[72] + y[88]
   + y[92] + y[96] + y[98] - z[2078] >= 0
 R2079: y[18] + y[19] + y[26] + y[29] + y[44] + y[50] + y[52] + y[62]
   + y[69] + y[74] + y[75] + y[84] + y[85] + y[90] + y[93] - z[2079] >= 0
 R2080: y[3] + y[11] + y[40] + y[54] + y[55] + y[60] + y[72] + y[77]
   + y[79] + y[99] - z[2080] >= 0
 R2081: y[5] + y[7] + y[9] + y[11] + y[13] + y[17] + y[51] + y[53] + y[54]
   + y[55] + y[59] + y[68] + y[95] + y[99] - z[2081] >= 0
 R2082: y[20] + y[35] + y[36] + y[39] + y[57] + y[98] - z[2082] >= 0
 R2083: y[3] + y[9] + y[11] + y[13] + y[17] + y[40] + y[54] + y[60] + y[64]
   + y[66] + y[68] + y[77] + y[97] + y[99] - z[2083] >= 0
 R2084: y[0] + y[15] + y[27] + y[41] + y[82] + y[94] - z[2084] >= 0
 R2085: y[1] + y[6] + y[14] + y[57] + y[65] + y[91] + y[92] - z[2085] >= 0
 R2086: y[2] + y[35] + y[40] + y[48] + y[55] + y[60] + y[72] + y[79]
   + y[86] + y[88] + y[96] + y[99] - z[2086] >= 0
 R2087: y[4] + y[10] + y[28] + y[30] + y[31] + y[32] + y[33] + y[43]
   + y[49] + y[78] + y[81] + y[83] + y[89] - z[2087] >= 0
 R2088: y[3] + y[11] + y[17] + y[54] + y[64] + y[66] + y[77] + y[97]
   - z[2088] >= 0
 R2089: y[7] + y[9] + y[11] + y[13] + y[51] + y[53] + y[54] + y[55] + y[59]
   + y[63] + y[68] + y[79] + y[99] - z[2089] >= 0
 R2090: y[18] + y[19] + y[26] + y[38] + y[44] + y[45] + y[47] + y[50]
   + y[56] + y[58] + y[62] + y[67] + y[69] + y[74] + y[75] + y[78] + y[83]
   + y[85] + y[87] + y[90] + y[93] - z[2090] >= 0
 R2091: y[4] + y[12] + y[15] + y[26] + y[30] + y[38] + y[45] + y[46]
   + y[47] + y[67] + y[70] + y[82] + y[87] - z[2091] >= 0
 R2092: y[0] + y[4] + y[10] + y[15] + y[16] + y[27] + y[28] + y[30] + y[31]
   + y[33] + y[43] + y[63] + y[80] + y[82] + y[89] + y[94] - z[2092] >= 0
 R2093: y[8] + y[12] + y[22] + y[38] + y[45] + y[46] + y[47] + y[58]
   + y[61] + y[67] + y[70] + y[87] - z[2093] >= 0
 R2094: y[7] + y[23] + y[25] + y[37] + y[42] + y[51] + y[53] + y[59]
   + y[63] + y[73] + y[76] + y[95] - z[2094] >= 0
 R2095: y[0] + y[4] + y[10] + y[15] + y[16] + y[27] + y[28] + y[30] + y[31]
   + y[33] + y[43] + y[59] + y[63] + y[80] + y[82] + y[89] + y[94]
   - z[2095] >= 0
 R2096: y[4] + y[10] + y[27] + y[28] + y[30] + y[31] + y[33] + y[43]
   + y[55] + y[59] + y[63] + y[80] + y[89] + y[94] - z[2096] >= 0
 R2097: y[16] + y[23] + y[24] + y[41] + y[42] + y[71] + y[73] - z[2097]
   >= 0
 R2098: y[0] + y[16] + y[23] + y[24] + y[25] + y[27] + y[37] + y[41]
   + y[42] + y[71] + y[73] + y[80] + y[82] + y[94] - z[2098] >= 0
 R2099: y[16] + y[23] + y[24] + y[25] + y[37] + y[42] + y[71] + y[73]
   + y[76] - z[2099] >= 0
 R2100: y[3] + y[9] + y[11] + y[13] + y[40] + y[54] + y[55] + y[60] + y[77]
   + y[79] + y[99] - z[2100] >= 0
 R2101: y[3] + y[11] + y[40] + y[54] + y[55] + y[60] + y[66] + y[77]
   + y[79] + y[99] - z[2101] >= 0
 R2102: y[40] + y[48] + y[60] + y[72] + y[79] + y[86] + y[91] + y[96]
   + y[99] - z[2102] >= 0
 R2103: y[9] + y[13] + y[31] + y[54] + y[55] + y[59] + y[60] + y[63]
   + y[68] + y[79] + y[99] - z[2103] >= 0
 R2104: y[2] + y[18] + y[20] + y[32] + y[35] + y[36] + y[39] + y[49]
   + y[56] + y[69] + y[78] + y[81] + y[83] + y[84] + y[85] + y[88] + y[96]
   - z[2104] >= 0
 R2105: y[4] + y[10] + y[28] + y[30] + y[31] + y[33] + y[43] + y[55]
   + y[59] + y[63] + y[80] + y[89] - z[2105] >= 0
 R2106: y[1] + y[6] + y[14] + y[20] + y[36] + y[39] + y[57] + y[65] + y[91]
   + y[92] + y[98] - z[2106] >= 0
 R2107: y[8] + y[12] + y[19] + y[22] + y[26] + y[34] + y[38] + y[44]
   + y[45] + y[46] + y[47] + y[58] + y[61] + y[62] + y[67] + y[70] + y[74]
   + y[75] + y[87] - z[2107] >= 0
 R2108: y[0] + y[16] + y[23] + y[24] + y[25] + y[27] + y[28] + y[30]
   + y[33] + y[37] + y[42] + y[43] + y[59] + y[63] + y[71] + y[73] + y[76]
   + y[80] + y[82] + y[94] - z[2108] >= 0
 R2109: y[0] + y[16] + y[23] + y[24] + y[27] + y[41] + y[42] + y[71]
   + y[73] + y[82] + y[94] - z[2109] >= 0
 R2110: y[2] + y[18] + y[19] + y[21] + y[35] + y[44] + y[49] + y[50]
   + y[56] + y[69] + y[78] + y[81] + y[83] + y[84] + y[85] + y[90] + y[93]
   - z[2110] >= 0
 R2111: y[8] + y[12] + y[22] + y[26] + y[38] + y[45] + y[46] + y[47]
   + y[61] + y[67] + y[70] + y[87] - z[2111] >= 0
 R2112: y[20] + y[21] + y[36] + y[39] + y[84] + y[98] - z[2112] >= 0
 R2113: y[0] + y[15] + y[41] + y[82] - z[2113] >= 0
 R2114: y[18] + y[19] + y[26] + y[29] + y[44] + y[50] + y[52] + y[62]
   + y[69] + y[74] + y[75] + y[84] + y[85] + y[90] + y[93] - z[2114] >= 0
 R2115: y[0] + y[4] + y[15] + y[27] + y[28] + y[30] + y[43] + y[47] + y[67]
   + y[70] + y[80] + y[82] + y[94] - z[2115] >= 0
 R2116: y[5] + y[7] + y[9] + y[11] + y[13] + y[17] + y[51] + y[53] + y[64]
   + y[68] + y[95] + y[97] - z[2116] >= 0
 R2117: y[5] + y[7] + y[13] + y[23] + y[25] + y[37] + y[42] + y[51] + y[53]
   + y[59] + y[63] + y[68] + y[73] + y[76] + y[95] - z[2117] >= 0
 R2118: y[4] + y[10] + y[26] + y[28] + y[30] + y[31] + y[32] + y[43]
   + y[47] + y[49] + y[56] + y[67] + y[78] + y[81] + y[83] + y[89]
   - z[2118] >= 0
 R2119: y[0] + y[15] + y[16] + y[23] + y[24] + y[25] + y[27] + y[28]
   + y[30] + y[33] + y[37] + y[42] + y[63] + y[71] + y[73] + y[76] + y[80]
   + y[82] + y[94] - z[2119] >= 0
 R2120: y[18] + y[21] + y[50] + y[69] + y[84] + y[85] + y[90] + y[93]
   - z[2120] >= 0
 R2121: y[1] + y[6] + y[20] + y[35] + y[36] + y[39] + y[57] + y[88] + y[91]
   + y[92] + y[96] + y[98] - z[2121] >= 0
 R2122: y[4] + y[10] + y[28] + y[30] + y[31] + y[33] + y[43] + y[55]
   + y[59] + y[63] + y[80] + y[89] - z[2122] >= 0
 R2123: y[18] + y[21] + y[44] + y[50] + y[56] + y[69] + y[84] + y[85]
   + y[90] + y[93] - z[2123] >= 0
 R2124: y[8] + y[22] + y[34] + y[38] + y[45] + y[46] + y[52] + y[58]
   + y[61] + y[62] + y[74] + y[75] + y[87] - z[2124] >= 0
 R2125: y[2] + y[20] + y[32] + y[35] + y[36] + y[39] + y[49] + y[56]
   + y[72] + y[78] + y[81] + y[83] + y[88] + y[96] - z[2125] >= 0
 R2126: y[0] + y[4] + y[12] + y[15] + y[30] + y[47] + y[67] + y[70] + y[80]
   + y[82] + y[94] - z[2126] >= 0
 R2127: y[18] + y[19] + y[26] + y[32] + y[38] + y[44] + y[47] + y[49]
   + y[56] + y[67] + y[69] + y[74] + y[78] + y[81] + y[83] + y[85] + y[90]
   + y[93] - z[2127] >= 0
 R2128: y[1] + y[6] + y[14] + y[57] + y[65] + y[91] + y[92] + y[98]
   - z[2128] >= 0
 R2129: y[40] + y[54] + y[55] + y[60] + y[72] + y[79] + y[99] - z[2129]
   >= 0
 R2130: y[3] + y[5] + y[7] + y[9] + y[11] + y[13] + y[17] + y[51] + y[53]
   + y[54] + y[55] + y[64] + y[68] + y[77] + y[97] + y[99] - z[2130] >= 0
 R2131: y[18] + y[29] + y[34] + y[50] + y[52] + y[62] + y[74] + y[75]
   + y[90] + y[93] - z[2131] >= 0
 R2132: y[40] + y[48] + y[60] + y[86] + y[91] - z[2132] >= 0
 R2133: y[8] + y[12] + y[22] + y[26] + y[34] + y[38] + y[45] + y[46]
   + y[58] + y[61] + y[67] + y[74] + y[87] - z[2133] >= 0
 R2134: y[3] + y[40] + y[54] + y[60] + y[66] + y[77] + y[86] + y[99]
   - z[2134] >= 0
 R2135: y[0] + y[4] + y[10] + y[15] + y[16] + y[27] + y[28] + y[30] + y[33]
   + y[43] + y[80] + y[82] + y[94] - z[2135] >= 0
 R2136: y[0] + y[15] + y[70] + y[82] + y[94] - z[2136] >= 0
 R2137: y[5] + y[7] + y[9] + y[11] + y[13] + y[17] + y[51] + y[53] + y[64]
   + y[68] + y[95] - z[2137] >= 0
 R2138: y[6] + y[48] + y[57] + y[72] + y[86] + y[91] + y[92] - z[2138]
   >= 0
 R2139: y[16] + y[23] + y[24] + y[25] + y[27] + y[28] + y[33] + y[37]
   + y[42] + y[59] + y[63] + y[71] + y[73] + y[76] + y[80] - z[2139] >= 0
 R2140: y[1] + y[14] + y[20] + y[36] + y[39] + y[57] + y[65] + y[98]
   - z[2140] >= 0
 R2141: y[18] + y[21] + y[29] + y[50] + y[62] + y[69] + y[84] + y[85]
   + y[90] + y[93] - z[2141] >= 0
 R2142: y[21] + y[39] + y[98] - z[2142] >= 0
 R2143: y[1] + y[6] + y[20] + y[36] + y[39] + y[48] + y[57] + y[72] + y[86]
   + y[88] + y[91] + y[92] + y[96] + y[98] - z[2143] >= 0
 R2144: y[8] + y[12] + y[22] + y[26] + y[38] + y[45] + y[46] + y[47]
   + y[58] + y[61] + y[67] + y[70] + y[87] - z[2144] >= 0
 R2145: y[2] + y[20] + y[35] + y[40] + y[48] + y[57] + y[60] + y[72]
   + y[79] + y[86] + y[88] + y[91] + y[96] + y[99] - z[2145] >= 0
 R2146: y[18] + y[21] + y[36] + y[50] + y[56] + y[69] + y[84] + y[85]
   + y[93] - z[2146] >= 0
 R2147: y[18] + y[21] + y[29] + y[50] + y[62] + y[69] + y[74] + y[75]
   + y[84] + y[85] + y[90] + y[93] - z[2147] >= 0
 R2148: y[2] + y[31] + y[32] + y[40] + y[48] + y[55] + y[60] + y[72]
   + y[79] + y[86] + y[88] + y[96] + y[99] - z[2148] >= 0
 R2149: y[3] + y[40] + y[48] + y[54] + y[55] + y[60] + y[72] + y[77]
   + y[79] + y[86] + y[99] - z[2149] >= 0
 R2150: y[2] + y[20] + y[32] + y[35] + y[36] + y[39] + y[48] + y[57]
   + y[72] + y[79] + y[86] + y[88] + y[96] - z[2150] >= 0
 R2151: y[3] + y[11] + y[17] + y[54] + y[64] + y[66] + y[77] + y[97]
   - z[2151] >= 0
 R2152: y[8] + y[19] + y[22] + y[26] + y[29] + y[34] + y[38] + y[44]
   + y[45] + y[46] + y[50] + y[52] + y[58] + y[62] + y[74] + y[75] + y[87]
   + y[90] + y[93] - z[2152] >= 0
 R2153: y[2] + y[4] + y[19] + y[26] + y[31] + y[32] + y[44] + y[47] + y[49]
   + y[56] + y[69] + y[78] + y[81] + y[83] + y[89] - z[2153] >= 0
 R2154: y[5] + y[7] + y[9] + y[11] + y[13] + y[17] + y[51] + y[53] + y[64]
   + y[68] + y[95] + y[97] - z[2154] >= 0
 R2155: y[1] + y[6] + y[14] + y[65] + y[91] + y[92] - z[2155] >= 0
 R2156: y[40] + y[48] + y[60] + y[72] + y[79] + y[86] + y[88] + y[91]
   + y[96] + y[99] - z[2156] >= 0
 R2157: y[4] + y[10] + y[28] + y[30] + y[31] + y[33] + y[43] + y[55]
   + y[59] + y[63] + y[79] + y[80] + y[89] - z[2157] >= 0
 R2158: y[0] + y[12] + y[15] + y[46] + y[61] + y[67] + y[70] + y[82]
   - z[2158] >= 0
 R2159: y[0] + y[15] - z[2159] >= 0
 R2160: y[3] + y[9] + y[11] + y[13] + y[17] + y[54] + y[64] + y[66] + y[68]
   + y[77] + y[97] - z[2160] >= 0
 R2161: y[8] + y[12] + y[22] + y[34] + y[38] + y[45] + y[46] + y[58]
   + y[61] + y[87] - z[2161] >= 0
 R2162: y[9] + y[40] + y[54] + y[55] + y[60] + y[72] + y[79] + y[99]
   - z[2162] >= 0
 R2163: y[3] + y[40] + y[54] + y[55] + y[60] + y[72] + y[77] + y[79]
   + y[99] - z[2163] >= 0
 R2164: y[40] + y[48] + y[54] + y[55] + y[60] + y[72] + y[79] + y[86]
   + y[99] - z[2164] >= 0
 R2165: y[6] + y[48] + y[57] + y[86] + y[91] + y[92] - z[2165] >= 0
 R2166: y[3] + y[40] + y[48] + y[54] + y[60] + y[72] + y[79] + y[86]
   + y[99] - z[2166] >= 0
 R2167: y[18] + y[19] + y[21] + y[29] + y[44] + y[50] + y[52] + y[62]
   + y[69] + y[74] + y[75] + y[84] + y[85] + y[90] + y[93] - z[2167] >= 0
 R2168: y[18] + y[21] + y[84] + y[85] - z[2168] >= 0
 R2169: y[8] + y[12] + y[22] + y[26] + y[38] + y[45] + y[46] + y[47]
   + y[58] + y[61] + y[67] + y[70] + y[87] - z[2169] >= 0
 R2170: y[4] + y[10] + y[25] + y[27] + y[28] + y[30] + y[31] + y[33]
   + y[37] + y[43] + y[59] + y[63] + y[80] + y[89] + y[94] - z[2170] >= 0
 R2171: y[5] + y[7] + y[9] + y[11] + y[13] + y[17] + y[51] + y[53] + y[64]
   + y[68] + y[95] + y[97] - z[2171] >= 0
 R2172: y[0] + y[4] + y[10] + y[16] + y[23] + y[25] + y[27] + y[28] + y[30]
   + y[33] + y[37] + y[42] + y[43] + y[59] + y[63] + y[73] + y[76] + y[80]
   + y[82] + y[94] - z[2172] >= 0
 R2173: y[9] + y[13] + y[53] + y[55] + y[59] + y[63] + y[68] + y[79]
   + y[99] - z[2173] >= 0
 R2174: y[10] + y[31] + y[32] + y[43] + y[55] + y[79] + y[88] + y[89]
   + y[96] + y[99] - z[2174] >= 0
 R2175: y[2] + y[20] + y[32] + y[35] + y[36] + y[39] + y[49] + y[56]
   + y[57] + y[72] + y[78] + y[81] + y[83] + y[88] + y[96] - z[2175] >= 0
 R2176: y[4] + y[10] + y[28] + y[30] + y[31] + y[32] + y[33] + y[43]
   + y[49] + y[78] + y[80] + y[81] + y[83] + y[89] + y[94] - z[2176] >= 0
 R2177: y[6] + y[20] + y[48] + y[57] + y[72] + y[86] + y[88] + y[91]
   + y[92] + y[96] - z[2177] >= 0
 R2178: y[3] + y[11] + y[17] + y[54] + y[64] + y[66] + y[77] + y[97]
   - z[2178] >= 0
 R2179: y[2] + y[32] + y[35] + y[36] + y[39] + y[49] + y[56] + y[78]
   + y[81] + y[83] + y[88] + y[96] - z[2179] >= 0
 R2180: y[18] + y[19] + y[26] + y[32] + y[38] + y[44] + y[47] + y[49]
   + y[50] + y[56] + y[67] + y[69] + y[74] + y[75] + y[78] + y[81] + y[83]
   + y[85] + y[90] + y[93] - z[2180] >= 0
 R2181: y[12] + y[15] + y[26] + y[38] + y[45] + y[46] + y[47] + y[61]
   + y[67] + y[70] + y[82] + y[87] - z[2181] >= 0
 R2182: y[16] + y[23] + y[25] + y[27] + y[28] + y[33] + y[37] + y[42]
   + y[43] + y[59] + y[63] + y[73] + y[76] + y[80] - z[2182] >= 0
 R2183: y[0] + y[12] + y[15] + y[30] + y[47] + y[67] + y[70] + y[82]
   + y[94] - z[2183] >= 0
 R2184: y[29] + y[34] + y[52] + y[58] + y[62] + y[74] + y[75] - z[2184]
   >= 0
 R2185: y[0] + y[15] + y[16] + y[23] + y[24] + y[27] + y[30] + y[41]
   + y[42] + y[71] + y[73] + y[80] + y[82] + y[94] - z[2185] >= 0
 R2186: y[4] + y[12] + y[15] + y[19] + y[26] + y[38] + y[45] + y[46]
   + y[47] + y[67] + y[70] + y[82] + y[87] - z[2186] >= 0
 R2187: y[5] + y[7] + y[9] + y[11] + y[13] + y[17] + y[51] + y[53] + y[64]
   + y[68] + y[95] + y[97] - z[2187] >= 0
 R2188: y[4] + y[12] + y[19] + y[26] + y[38] + y[44] + y[45] + y[46]
   + y[47] + y[49] + y[56] + y[67] + y[70] + y[78] + y[83] + y[87]
   - z[2188] >= 0
 R2189: y[0] + y[15] + y[70] + y[82] - z[2189] >= 0
 R2190: y[8] + y[22] + y[34] + y[52] + y[58] + y[62] + y[74] + y[75]
   - z[2190] >= 0
 R2191: y[12] + y[19] + y[26] + y[32] + y[38] + y[44] + y[47] + y[49]
   + y[56] + y[67] + y[69] + y[78] + y[81] + y[83] + y[87] - z[2191] >= 0
 R2192: y[0] + y[4] + y[12] + y[15] + y[27] + y[28] + y[30] + y[47] + y[67]
   + y[70] + y[80] + y[82] + y[94] - z[2192] >= 0
 R2193: y[5] + y[7] + y[9] + y[13] + y[25] + y[37] + y[51] + y[53] + y[59]
   + y[63] + y[68] + y[76] + y[95] - z[2193] >= 0
 R2194: y[5] + y[7] + y[9] + y[11] + y[13] + y[17] + y[51] + y[53] + y[54]
   + y[55] + y[64] + y[68] + y[77] + y[95] + y[97] + y[99] - z[2194] >= 0
 R2195: y[5] + y[9] + y[11] + y[13] + y[17] + y[54] + y[64] + y[66] + y[68]
   + y[77] + y[97] - z[2195] >= 0
 R2196: y[5] + y[7] + y[9] + y[13] + y[17] + y[25] + y[37] + y[51] + y[53]
   + y[59] + y[63] + y[68] + y[76] + y[95] - z[2196] >= 0
 R2197: y[16] + y[23] + y[24] + y[25] + y[37] + y[41] + y[42] + y[71]
   + y[73] + y[76] - z[2197] >= 0
 R2198: y[7] + y[23] + y[25] + y[37] + y[42] + y[51] + y[53] + y[59]
   + y[63] + y[73] + y[76] + y[95] - z[2198] >= 0
 R2199: y[3] + y[40] + y[54] + y[60] + y[66] + y[77] - z[2199] >= 0
 R2200: y[2] + y[10] + y[31] + y[32] + y[35] + y[49] + y[72] + y[78]
   + y[79] + y[81] + y[83] + y[88] + y[89] + y[96] - z[2200] >= 0
 R2201: y[0] + y[15] + y[16] + y[41] + y[82] - z[2201] >= 0
 R2202: y[12] + y[18] + y[19] + y[26] + y[29] + y[38] + y[44] + y[45]
   + y[46] + y[47] + y[50] + y[58] + y[62] + y[67] + y[69] + y[74] + y[75]
   + y[85] + y[87] + y[90] + y[93] - z[2202] >= 0
 R2203: y[18] + y[19] + y[21] + y[26] + y[29] + y[44] + y[49] + y[50]
   + y[56] + y[62] + y[69] + y[74] + y[75] + y[78] + y[83] + y[84] + y[85]
   + y[90] + y[93] - z[2203] >= 0
 R2204: y[0] + y[4] + y[12] + y[15] + y[26] + y[30] + y[38] + y[45] + y[46]
   + y[47] + y[67] + y[70] + y[82] + y[87] + y[94] - z[2204] >= 0
 R2205: y[0] + y[4] + y[10] + y[15] + y[27] + y[28] + y[30] + y[31] + y[33]
   + y[43] + y[80] + y[82] + y[89] + y[94] - z[2205] >= 0
 R2206: y[0] + y[41] - z[2206] >= 0
 R2207: y[2] + y[20] + y[32] + y[35] + y[36] + y[39] + y[49] + y[57]
   + y[72] + y[81] + y[88] + y[96] - z[2207] >= 0
 R2208: y[3] + y[9] + y[11] + y[13] + y[17] + y[40] + y[51] + y[53] + y[54]
   + y[55] + y[60] + y[64] + y[68] + y[77] + y[79] + y[99] - z[2208] >= 0
 R2209: y[4] + y[10] + y[16] + y[23] + y[25] + y[27] + y[28] + y[30]
   + y[33] + y[37] + y[42] + y[43] + y[59] + y[63] + y[76] + y[80] + y[94]
   - z[2209] >= 0
 R2210: y[4] + y[10] + y[15] + y[26] + y[28] + y[30] + y[31] + y[43]
   + y[47] + y[49] + y[67] + y[70] + y[78] + y[81] + y[83] + y[89] + y[94]
   - z[2210] >= 0
 R2211: y[9] + y[10] + y[13] + y[31] + y[33] + y[43] + y[53] + y[55]
   + y[59] + y[63] + y[68] + y[79] + y[99] - z[2211] >= 0
 R2212: y[18] + y[19] + y[21] + y[29] + y[44] + y[50] + y[52] + y[62]
   + y[69] + y[74] + y[75] + y[84] + y[85] + y[90] + y[93] - z[2212] >= 0
 R2213: y[1] + y[6] + y[14] + y[57] + y[65] + y[91] + y[92] - z[2213] >= 0
 R2214: y[12] + y[18] + y[19] + y[26] + y[29] + y[38] + y[44] + y[45]
   + y[47] + y[50] + y[56] + y[58] + y[62] + y[67] + y[69] + y[74] + y[75]
   + y[85] + y[87] + y[90] + y[93] - z[2214] >= 0
 R2215: y[18] + y[19] + y[21] + y[29] + y[44] + y[50] + y[52] + y[62]
   + y[69] + y[74] + y[75] + y[84] + y[85] + y[90] + y[93] - z[2215] >= 0
 R2216: y[8] + y[12] + y[19] + y[22] + y[26] + y[29] + y[34] + y[38]
   + y[44] + y[45] + y[46] + y[52] + y[58] + y[62] + y[74] + y[75] + y[87]
   + y[90] - z[2216] >= 0
 R2217: y[10] + y[28] + y[31] + y[33] + y[43] + y[55] + y[59] + y[63]
   + y[79] + y[89] + y[99] - z[2217] >= 0
 R2218: y[0] + y[4] + y[15] + y[27] + y[28] + y[30] + y[70] + y[80] + y[82]
   + y[94] - z[2218] >= 0
 R2219: y[1] + y[14] + y[65] + y[98] - z[2219] >= 0
 R2220: y[0] + y[4] + y[10] + y[15] + y[27] + y[28] + y[30] + y[31] + y[33]
   + y[43] + y[80] + y[82] + y[89] + y[94] - z[2220] >= 0
 R2221: y[5] + y[7] + y[9] + y[11] + y[13] + y[17] + y[37] + y[51] + y[53]
   + y[55] + y[59] + y[63] + y[68] + y[95] - z[2221] >= 0
 R2222: y[3] + y[9] + y[11] + y[40] + y[54] + y[55] + y[60] + y[72] + y[77]
   + y[79] + y[99] - z[2222] >= 0
 R2223: y[9] + y[10] + y[13] + y[28] + y[31] + y[33] + y[43] + y[53]
   + y[55] + y[59] + y[63] + y[68] + y[79] + y[89] + y[99] - z[2223] >= 0
 R2224: y[2] + y[4] + y[10] + y[31] + y[32] + y[35] + y[49] + y[56] + y[78]
   + y[81] + y[83] + y[88] + y[89] + y[96] - z[2224] >= 0
 R2225: y[29] + y[34] + y[52] + y[58] + y[62] + y[74] + y[75] - z[2225]
   >= 0
 R2226: y[18] + y[19] + y[26] + y[29] + y[38] + y[44] + y[50] + y[56]
   + y[58] + y[62] + y[69] + y[74] + y[75] + y[85] + y[87] + y[90] + y[93]
   - z[2226] >= 0
 R2227: y[2] + y[20] + y[35] + y[36] + y[39] + y[48] + y[57] + y[72]
   + y[86] + y[88] + y[91] + y[92] + y[96] + y[98] - z[2227] >= 0
 R2228: y[2] + y[10] + y[31] + y[32] + y[35] + y[49] + y[56] + y[78]
   + y[81] + y[83] + y[88] + y[89] + y[96] - z[2228] >= 0
 R2229: y[19] + y[26] + y[32] + y[38] + y[44] + y[47] + y[49] + y[56]
   + y[67] + y[69] + y[78] + y[81] + y[83] + y[85] - z[2229] >= 0
 R2230: y[2] + y[18] + y[20] + y[32] + y[35] + y[36] + y[39] + y[49]
   + y[56] + y[69] + y[78] + y[81] + y[83] + y[84] + y[85] + y[88] + y[96]
   + y[98] - z[2230] >= 0
 R2231: y[2] + y[20] + y[32] + y[35] + y[36] + y[39] + y[49] + y[56]
   + y[78] + y[81] + y[83] + y[88] + y[96] - z[2231] >= 0
 R2232: y[8] + y[12] + y[22] + y[26] + y[34] + y[38] + y[45] + y[46]
   + y[58] + y[61] + y[67] + y[70] + y[87] - z[2232] >= 0
 R2233: y[41] - z[2233] >= 0
 R2234: y[0] + y[15] + y[41] + y[82] - z[2234] >= 0
 R2235: y[20] + y[21] + y[35] + y[36] + y[39] + y[84] + y[98] - z[2235]
   >= 0
 R2236: y[0] + y[15] + y[70] + y[82] - z[2236] >= 0
 R2237: y[9] + y[11] + y[13] + y[17] + y[40] + y[51] + y[53] + y[54]
   + y[55] + y[60] + y[68] + y[77] + y[79] + y[99] - z[2237] >= 0
 R2238: y[2] + y[18] + y[21] + y[35] + y[36] + y[39] + y[49] + y[50]
   + y[56] + y[69] + y[83] + y[84] + y[85] + y[93] - z[2238] >= 0
 R2239: y[4] + y[10] + y[27] + y[28] + y[30] + y[31] + y[33] + y[43]
   + y[59] + y[63] + y[80] + y[82] + y[89] + y[94] - z[2239] >= 0
 R2240: y[18] + y[21] + y[29] + y[50] + y[52] + y[62] + y[69] + y[74]
   + y[75] + y[84] + y[85] + y[90] + y[93] - z[2240] >= 0
 R2241: y[40] + y[48] + y[55] + y[60] + y[72] + y[79] + y[86] + y[88]
   + y[96] + y[99] - z[2241] >= 0
 R2242: y[8] + y[12] + y[15] + y[22] + y[26] + y[38] + y[45] + y[46]
   + y[47] + y[61] + y[67] + y[70] + y[87] - z[2242] >= 0
 R2243: y[0] + y[12] + y[15] + y[38] + y[45] + y[46] + y[47] + y[61]
   + y[67] + y[70] + y[82] + y[87] - z[2243] >= 0
 R2244: y[8] + y[12] + y[19] + y[22] + y[26] + y[34] + y[38] + y[45]
   + y[46] + y[47] + y[58] + y[61] + y[67] + y[70] + y[74] + y[75] + y[87]
   - z[2244] >= 0
 R2245: y[4] + y[10] + y[28] + y[30] + y[31] + y[32] + y[33] + y[43]
   + y[49] + y[78] + y[80] + y[81] + y[83] + y[89] - z[2245] >= 0
 R2246: y[8] + y[12] + y[19] + y[22] + y[26] + y[38] + y[45] + y[46]
   + y[47] + y[58] + y[61] + y[67] + y[70] + y[87] - z[2246] >= 0
 R2247: y[16] + y[23] + y[24] + y[25] + y[37] + y[42] + y[71] + y[73]
   + y[76] - z[2247] >= 0
 R2248: y[0] + y[16] + y[23] + y[24] + y[27] + y[41] + y[42] + y[71]
   + y[73] - z[2248] >= 0
 R2249: y[0] + y[4] + y[10] + y[15] + y[27] + y[28] + y[30] + y[31] + y[33]
   + y[43] + y[80] + y[82] + y[89] + y[94] - z[2249] >= 0
 R2250: y[0] + y[15] + y[16] + y[23] + y[24] + y[27] + y[28] + y[30]
   + y[33] + y[42] + y[71] + y[80] + y[82] + y[94] - z[2250] >= 0
 R2251: y[21] + y[36] + y[39] + y[84] + y[98] - z[2251] >= 0
 R2252: y[0] + y[15] + y[16] + y[27] + y[28] + y[30] + y[80] + y[82]
   + y[94] - z[2252] >= 0
 R2253: y[0] + y[15] + y[27] + y[30] + y[70] + y[82] + y[94] - z[2253]
   >= 0
 R2254: y[2] + y[20] + y[32] + y[35] + y[36] + y[39] + y[49] + y[57]
   + y[72] + y[81] + y[88] + y[96] + y[98] - z[2254] >= 0
 R2255: y[2] + y[31] + y[32] + y[35] + y[48] + y[72] + y[79] + y[86]
   + y[88] + y[96] + y[99] - z[2255] >= 0
 R2256: y[34] + y[52] + y[58] + y[62] - z[2256] >= 0
 R2257: y[4] + y[10] + y[28] + y[30] + y[31] + y[32] + y[33] + y[43]
   + y[49] + y[78] + y[79] + y[80] + y[81] + y[89] - z[2257] >= 0
 R2258: y[3] + y[9] + y[11] + y[17] + y[54] + y[64] + y[66] + y[77] + y[97]
   - z[2258] >= 0
 R2259: y[6] + y[20] + y[40] + y[48] + y[57] + y[72] + y[86] + y[91]
   + y[92] + y[96] - z[2259] >= 0
 R2260: y[29] + y[34] + y[52] + y[62] - z[2260] >= 0
 R2261: y[9] + y[13] + y[31] + y[55] + y[59] + y[60] + y[63] + y[79]
   + y[99] - z[2261] >= 0
 R2262: y[16] + y[23] + y[24] + y[25] + y[27] + y[33] + y[37] + y[42]
   + y[59] + y[63] + y[71] + y[73] + y[76] + y[80] + y[94] - z[2262] >= 0
 R2263: y[18] + y[29] + y[50] + y[52] + y[62] + y[74] + y[75] + y[90]
   + y[93] - z[2263] >= 0
 R2264: y[4] + y[10] + y[28] + y[30] + y[31] + y[32] + y[33] + y[43]
   + y[47] + y[49] + y[78] + y[80] + y[81] + y[83] + y[89] + y[94]
   - z[2264] >= 0
 R2265: y[2] + y[20] + y[32] + y[35] + y[36] + y[39] + y[48] + y[57]
   + y[72] + y[79] + y[86] + y[88] + y[96] - z[2265] >= 0
 R2266: y[2] + y[31] + y[32] + y[35] + y[36] + y[49] + y[56] + y[78]
   + y[81] + y[83] + y[88] + y[89] + y[96] - z[2266] >= 0
 R2267: y[3] + y[11] + y[40] + y[54] + y[60] + y[66] + y[77] + y[99]
   - z[2267] >= 0
 R2268: y[2] + y[20] + y[32] + y[35] + y[36] + y[39] + y[49] + y[57]
   + y[81] + y[88] + y[96] + y[98] - z[2268] >= 0
 R2269: y[7] + y[16] + y[23] + y[24] + y[25] + y[37] + y[42] + y[59]
   + y[63] + y[71] + y[73] + y[76] + y[95] - z[2269] >= 0
 R2270: y[10] + y[13] + y[28] + y[31] + y[33] + y[43] + y[55] + y[59]
   + y[63] + y[79] + y[80] + y[89] - z[2270] >= 0
 R2271: y[16] + y[23] + y[24] + y[27] + y[41] + y[42] + y[71] + y[73]
   - z[2271] >= 0
 R2272: y[2] + y[10] + y[31] + y[32] + y[35] + y[49] + y[56] + y[78]
   + y[81] + y[83] + y[88] + y[89] + y[96] - z[2272] >= 0
 R2273: y[2] + y[6] + y[20] + y[35] + y[36] + y[39] + y[48] + y[57] + y[72]
   + y[86] + y[88] + y[91] + y[92] + y[96] + y[98] - z[2273] >= 0
 R2274: y[0] + y[4] + y[10] + y[15] + y[27] + y[28] + y[30] + y[33] + y[43]
   + y[47] + y[67] + y[70] + y[80] + y[82] + y[89] + y[94] - z[2274] >= 0
 R2275: y[2] + y[4] + y[10] + y[31] + y[32] + y[44] + y[49] + y[56] + y[78]
   + y[81] + y[83] + y[89] - z[2275] >= 0
 R2276: y[3] + y[11] + y[40] + y[54] + y[60] + y[66] + y[77] + y[99]
   - z[2276] >= 0
 R2277: y[7] + y[16] + y[23] + y[24] + y[25] + y[37] + y[42] + y[53]
   + y[59] + y[63] + y[71] + y[73] + y[76] + y[95] - z[2277] >= 0
 R2278: y[0] + y[15] + y[41] + y[82] - z[2278] >= 0
 R2279: y[2] + y[20] + y[35] + y[36] + y[39] + y[48] + y[57] + y[72]
   + y[86] + y[88] + y[91] + y[92] + y[96] - z[2279] >= 0
 R2280: y[0] + y[4] + y[10] + y[15] + y[27] + y[28] + y[30] + y[43] + y[47]
   + y[67] + y[70] + y[80] + y[82] + y[94] - z[2280] >= 0
 R2281: y[0] + y[12] + y[15] + y[61] + y[70] - z[2281] >= 0
 R2282: y[1] + y[2] + y[20] + y[35] + y[36] + y[39] + y[57] + y[88] + y[92]
   + y[96] + y[98] - z[2282] >= 0
 R2283: y[18] + y[21] + y[50] + y[69] + y[84] + y[85] + y[93] - z[2283]
   >= 0
 R2284: y[3] + y[40] + y[54] + y[60] + y[66] + y[77] + y[99] - z[2284]
   >= 0
 R2285: y[21] + y[36] + y[39] + y[84] + y[98] - z[2285] >= 0
 R2286: y[8] + y[12] + y[22] + y[45] + y[46] + y[61] + y[67] + y[70]
   + y[87] - z[2286] >= 0
 R2287: y[8] + y[22] + y[34] + y[52] + y[58] + y[62] + y[74] + y[75]
   - z[2287] >= 0
 R2288: y[2] + y[10] + y[31] + y[32] + y[35] + y[49] + y[56] + y[78]
   + y[79] + y[81] + y[83] + y[88] + y[89] + y[96] - z[2288] >= 0
 R2289: y[1] + y[6] + y[14] + y[57] + y[65] + y[91] + y[92] - z[2289] >= 0
 R2290: y[18] + y[19] + y[21] + y[29] + y[44] + y[49] + y[50] + y[56]
   + y[62] + y[69] + y[74] + y[75] + y[83] + y[84] + y[85] + y[90] + y[93]
   - z[2290] >= 0
 R2291: y[0] + y[12] + y[15] + y[30] + y[47] + y[67] + y[70] + y[82]
   + y[94] - z[2291] >= 0
 R2292: y[4] + y[10] + y[27] + y[28] + y[30] + y[31] + y[33] + y[43]
   + y[55] + y[59] + y[63] + y[80] + y[89] + y[94] - z[2292] >= 0
 R2293: y[2] + y[10] + y[31] + y[32] + y[35] + y[49] + y[56] + y[78]
   + y[81] + y[83] + y[88] + y[89] + y[96] - z[2293] >= 0
 R2294: y[4] + y[12] + y[15] + y[26] + y[30] + y[38] + y[45] + y[47]
   + y[67] + y[70] + y[82] + y[87] + y[94] - z[2294] >= 0
 R2295: y[3] + y[11] + y[40] + y[54] + y[60] + y[66] + y[77] + y[97]
   + y[99] - z[2295] >= 0
 R2296: y[2] + y[31] + y[32] + y[40] + y[55] + y[60] + y[72] + y[79]
   + y[86] + y[88] + y[96] + y[99] - z[2296] >= 0
 R2297: y[18] + y[21] + y[29] + y[44] + y[50] + y[52] + y[62] + y[69]
   + y[74] + y[75] + y[84] + y[85] + y[90] + y[93] - z[2297] >= 0
 R2298: y[3] + y[40] + y[48] + y[54] + y[60] + y[72] + y[77] + y[79]
   + y[86] + y[99] - z[2298] >= 0
 R2299: y[1] + y[6] + y[20] + y[35] + y[36] + y[39] + y[57] + y[88] + y[91]
   + y[92] + y[96] + y[98] - z[2299] >= 0
 R2300: y[1] + y[2] + y[20] + y[35] + y[36] + y[39] + y[57] + y[88] + y[92]
   + y[96] + y[98] - z[2300] >= 0
 R2301: y[0] + y[4] + y[10] + y[15] + y[27] + y[28] + y[30] + y[31] + y[33]
   + y[43] + y[80] + y[82] + y[89] + y[94] - z[2301] >= 0
 R2302: y[12] + y[18] + y[19] + y[26] + y[38] + y[44] + y[45] + y[46]
   + y[47] + y[50] + y[56] + y[58] + y[62] + y[67] + y[69] + y[74] + y[75]
   + y[85] + y[87] + y[90] + y[93] - z[2302] >= 0
 R2303: y[0] + y[4] + y[10] + y[15] + y[16] + y[27] + y[28] + y[30] + y[33]
   + y[43] + y[80] + y[82] + y[94] - z[2303] >= 0
 R2304: y[8] + y[12] + y[19] + y[22] + y[26] + y[34] + y[38] + y[44]
   + y[45] + y[46] + y[52] + y[58] + y[62] + y[67] + y[74] + y[75] + y[87]
   + y[90] - z[2304] >= 0
 R2305: y[7] + y[9] + y[13] + y[33] + y[51] + y[53] + y[55] + y[59] + y[63]
   + y[68] + y[79] + y[99] - z[2305] >= 0
 R2306: y[2] + y[31] + y[32] + y[35] + y[55] + y[72] + y[79] + y[88]
   + y[89] + y[96] + y[99] - z[2306] >= 0
 R2307: y[1] + y[6] + y[20] + y[35] + y[36] + y[39] + y[57] + y[88] + y[91]
   + y[92] + y[96] + y[98] - z[2307] >= 0
 R2308: y[16] + y[23] + y[24] + y[25] + y[27] + y[33] + y[37] + y[42]
   + y[59] + y[63] + y[71] + y[73] + y[76] + y[80] - z[2308] >= 0
 R2309: y[9] + y[10] + y[13] + y[31] + y[33] + y[55] + y[59] + y[63]
   + y[68] + y[79] + y[99] - z[2309] >= 0
 R2310: y[2] + y[10] + y[31] + y[32] + y[35] + y[36] + y[49] + y[56]
   + y[78] + y[81] + y[83] + y[88] + y[89] + y[96] - z[2310] >= 0
 R2311: y[8] + y[12] + y[22] + y[38] + y[45] + y[46] + y[47] + y[61]
   + y[67] + y[70] + y[87] - z[2311] >= 0
 R2312: y[10] + y[23] + y[25] + y[27] + y[28] + y[30] + y[31] + y[33]
   + y[37] + y[42] + y[43] + y[55] + y[59] + y[63] + y[76] + y[80] + y[89]
   - z[2312] >= 0
 R2313: y[9] + y[10] + y[13] + y[31] + y[33] + y[55] + y[59] + y[63]
   + y[79] + y[89] + y[99] - z[2313] >= 0
 R2314: y[0] + y[15] + y[27] + y[70] + y[82] + y[94] - z[2314] >= 0
 R2315: y[0] + y[15] + y[27] + y[30] + y[70] + y[82] + y[94] - z[2315]
   >= 0
 R2316: y[1] + y[6] + y[20] + y[35] + y[36] + y[39] + y[57] + y[88] + y[91]
   + y[92] + y[98] - z[2316] >= 0
 R2317: y[4] + y[10] + y[28] + y[31] + y[32] + y[33] + y[43] + y[55]
   + y[79] + y[81] + y[89] - z[2317] >= 0
 R2318: y[1] + y[65] + y[98] - z[2318] >= 0
 R2319: y[1] + y[6] + y[14] + y[20] + y[36] + y[39] + y[57] + y[65] + y[91]
   + y[92] + y[98] - z[2319] >= 0
 R2320: y[8] + y[29] + y[34] + y[52] + y[58] + y[62] + y[74] + y[75]
   - z[2320] >= 0
 R2321: y[4] + y[10] + y[15] + y[27] + y[28] + y[30] + y[31] + y[33]
   + y[43] + y[80] + y[82] + y[89] + y[94] - z[2321] >= 0
 R2322: y[8] + y[12] + y[19] + y[22] + y[26] + y[38] + y[44] + y[45]
   + y[46] + y[47] + y[58] + y[61] + y[67] + y[70] + y[74] + y[75] + y[87]
   + y[90] - z[2322] >= 0
 R2323: y[5] + y[7] + y[9] + y[11] + y[13] + y[17] + y[51] + y[53] + y[54]
   + y[64] + y[66] + y[68] + y[77] + y[97] - z[2323] >= 0
 R2324: y[2] + y[4] + y[10] + y[28] + y[30] + y[31] + y[32] + y[43] + y[49]
   + y[56] + y[78] + y[81] + y[83] + y[89] - z[2324] >= 0
 R2325: y[0] + y[12] + y[15] + y[47] + y[67] + y[70] + y[82] + y[94]
   - z[2325] >= 0
 R2326: y[1] + y[14] + y[65] - z[2326] >= 0
 R2327: y[0] + y[15] + y[16] + y[23] + y[24] + y[27] + y[41] + y[42]
   + y[71] + y[73] + y[80] + y[82] + y[94] - z[2327] >= 0
 R2328: y[4] + y[10] + y[28] + y[30] + y[31] + y[32] + y[33] + y[43]
   + y[55] + y[63] + y[79] + y[80] + y[81] + y[89] - z[2328] >= 0
 R2329: y[1] + y[20] + y[36] + y[39] + y[57] + y[65] + y[92] + y[98]
   - z[2329] >= 0
 R2330: y[12] + y[19] + y[26] + y[38] + y[44] + y[45] + y[46] + y[47]
   + y[67] + y[70] + y[87] - z[2330] >= 0
 R2331: y[18] + y[19] + y[21] + y[29] + y[44] + y[50] + y[56] + y[62]
   + y[69] + y[74] + y[75] + y[84] + y[85] + y[90] + y[93] - z[2331] >= 0
 R2332: y[18] + y[21] + y[29] + y[50] + y[52] + y[62] + y[69] + y[74]
   + y[75] + y[84] + y[85] + y[90] + y[93] - z[2332] >= 0
 R2333: y[1] + y[6] + y[14] + y[65] - z[2333] >= 0
 R2334: y[5] + y[7] + y[9] + y[11] + y[13] + y[17] + y[51] + y[53] + y[64]
   + y[68] + y[95] + y[97] - z[2334] >= 0
 R2335: y[1] + y[6] + y[14] + y[48] + y[57] + y[65] + y[91] + y[92]
   - z[2335] >= 0
 R2336: y[8] + y[12] + y[19] + y[22] + y[26] + y[34] + y[38] + y[44]
   + y[45] + y[46] + y[47] + y[58] + y[62] + y[67] + y[74] + y[75] + y[87]
   + y[90] + y[93] - z[2336] >= 0
 R2337: y[4] + y[10] + y[27] + y[28] + y[30] + y[31] + y[33] + y[43]
   + y[55] + y[59] + y[63] + y[80] + y[89] + y[94] - z[2337] >= 0
 R2338: y[4] + y[10] + y[27] + y[28] + y[30] + y[31] + y[33] + y[43]
   + y[55] + y[59] + y[63] + y[80] + y[89] - z[2338] >= 0
 R2339: y[3] + y[9] + y[11] + y[13] + y[17] + y[40] + y[54] + y[55] + y[60]
   + y[64] + y[66] + y[77] + y[97] + y[99] - z[2339] >= 0
 R2340: y[20] + y[36] + y[39] + y[98] - z[2340] >= 0
 R2341: y[1] + y[14] + y[65] + y[98] - z[2341] >= 0
 R2342: y[8] + y[12] + y[19] + y[22] + y[26] + y[38] + y[45] + y[46]
   + y[47] + y[58] + y[61] + y[67] + y[70] + y[87] - z[2342] >= 0
 R2343: y[41] + y[71] - z[2343] >= 0
 R2344: y[6] + y[40] + y[48] + y[72] + y[86] + y[91] + y[92] - z[2344]
   >= 0
 R2345: y[8] + y[12] + y[19] + y[22] + y[26] + y[29] + y[34] + y[38]
   + y[44] + y[45] + y[46] + y[50] + y[52] + y[58] + y[62] + y[67] + y[74]
   + y[75] + y[87] + y[90] + y[93] - z[2345] >= 0
 R2346: y[5] + y[7] + y[9] + y[11] + y[13] + y[17] + y[51] + y[53] + y[55]
   + y[59] + y[68] + y[95] - z[2346] >= 0
 R2347: y[8] + y[12] + y[15] + y[22] + y[26] + y[38] + y[45] + y[46]
   + y[47] + y[61] + y[67] + y[70] + y[87] - z[2347] >= 0
 R2348: y[18] + y[21] + y[50] + y[69] + y[84] + y[85] + y[93] - z[2348]
   >= 0
 R2349: y[24] + y[41] + y[71] - z[2349] >= 0
 R2350: y[3] + y[9] + y[11] + y[13] + y[17] + y[40] + y[54] + y[60] + y[64]
   + y[66] + y[68] + y[77] + y[97] + y[99] - z[2350] >= 0
 R2351: y[11] + y[17] + y[64] + y[66] + y[77] + y[97] - z[2351] >= 0
 R2352: y[16] + y[23] + y[24] + y[25] + y[37] + y[42] + y[71] + y[73]
   + y[76] - z[2352] >= 0
 R2353: y[0] + y[4] + y[10] + y[15] + y[27] + y[28] + y[30] + y[31] + y[33]
   + y[43] + y[80] + y[82] + y[89] + y[94] - z[2353] >= 0
 R2354: y[2] + y[20] + y[35] + y[36] + y[39] + y[57] + y[88] + y[98]
   - z[2354] >= 0
 R2355: y[5] + y[7] + y[9] + y[11] + y[13] + y[17] + y[51] + y[53] + y[54]
   + y[55] + y[59] + y[64] + y[68] + y[95] + y[99] - z[2355] >= 0
 R2356: y[0] + y[15] + y[27] + y[30] + y[70] + y[82] + y[94] - z[2356]
   >= 0
 R2357: y[6] + y[48] + y[57] + y[72] + y[86] + y[91] + y[92] - z[2357]
   >= 0
 R2358: y[5] + y[7] + y[9] + y[11] + y[13] + y[17] + y[51] + y[53] + y[54]
   + y[55] + y[59] + y[60] + y[68] + y[79] + y[99] - z[2358] >= 0
 R2359: y[1] + y[14] + y[65] + y[98] - z[2359] >= 0
 R2360: y[2] + y[6] + y[20] + y[35] + y[36] + y[39] + y[48] + y[57] + y[72]
   + y[86] + y[88] + y[91] + y[92] + y[96] - z[2360] >= 0
 R2361: y[1] + y[14] + y[39] + y[65] + y[98] - z[2361] >= 0
 R2362: y[4] + y[10] + y[28] + y[30] + y[31] + y[32] + y[33] + y[43]
   + y[55] + y[78] + y[79] + y[80] + y[81] + y[89] - z[2362] >= 0
 R2363: y[18] + y[21] + y[29] + y[50] + y[69] + y[84] + y[85] + y[90]
   + y[93] - z[2363] >= 0
 R2364: y[34] + y[52] + y[58] + y[62] - z[2364] >= 0
 R2365: y[0] + y[12] + y[15] + y[38] + y[45] + y[46] + y[47] + y[61]
   + y[67] + y[70] + y[82] + y[87] - z[2365] >= 0
 R2366: y[18] + y[21] + y[36] + y[39] + y[50] + y[56] + y[69] + y[84]
   + y[85] + y[93] - z[2366] >= 0
 R2367: y[5] + y[9] + y[11] + y[13] + y[17] + y[54] + y[64] + y[66] + y[77]
   + y[97] - z[2367] >= 0
 R2368: y[18] + y[21] + y[36] + y[39] + y[50] + y[56] + y[69] + y[84]
   + y[85] + y[93] - z[2368] >= 0
 R2369: y[7] + y[9] + y[11] + y[13] + y[17] + y[51] + y[53] + y[54] + y[55]
   + y[59] + y[68] + y[79] + y[99] - z[2369] >= 0
 R2370: y[16] + y[23] + y[25] + y[27] + y[28] + y[33] + y[37] + y[42]
   + y[43] + y[59] + y[63] + y[73] + y[76] + y[80] - z[2370] >= 0
 R2371: y[4] + y[10] + y[28] + y[30] + y[31] + y[32] + y[33] + y[43]
   + y[55] + y[63] + y[80] + y[89] - z[2371] >= 0
 R2372: y[8] + y[12] + y[22] + y[38] + y[45] + y[46] + y[47] + y[61]
   + y[67] + y[70] + y[87] - z[2372] >= 0
 R2373: y[40] + y[48] + y[54] + y[55] + y[60] + y[72] + y[79] + y[86]
   + y[99] - z[2373] >= 0
 R2374: y[18] + y[19] + y[26] + y[32] + y[44] + y[49] + y[50] + y[56]
   + y[69] + y[74] + y[75] + y[78] + y[81] + y[83] + y[84] + y[85] + y[90]
   + y[93] - z[2374] >= 0
 R2375: y[4] + y[10] + y[28] + y[30] + y[31] + y[32] + y[43] + y[47]
   + y[49] + y[56] + y[78] + y[81] + y[83] + y[89] - z[2375] >= 0
 R2376: y[7] + y[13] + y[23] + y[25] + y[33] + y[37] + y[42] + y[51]
   + y[53] + y[59] + y[63] + y[68] + y[76] + y[80] + y[95] - z[2376] >= 0
 R2377: y[7] + y[9] + y[13] + y[25] + y[33] + y[37] + y[51] + y[53] + y[55]
   + y[59] + y[63] + y[68] + y[76] + y[95] - z[2377] >= 0
 R2378: y[29] + y[34] + y[52] + y[58] + y[62] + y[74] + y[75] + y[90]
   - z[2378] >= 0
 R2379: y[11] + y[17] + y[64] + y[66] + y[97] - z[2379] >= 0
 R2380: y[7] + y[13] + y[23] + y[25] + y[33] + y[37] + y[42] + y[51]
   + y[53] + y[59] + y[63] + y[68] + y[73] + y[76] + y[80] + y[95]
   - z[2380] >= 0
 R2381: y[41] - z[2381] >= 0
 R2382: y[29] + y[34] + y[50] + y[52] + y[62] + y[74] + y[75] + y[90]
   - z[2382] >= 0
 R2383: y[1] + y[6] + y[14] + y[20] + y[39] + y[57] + y[65] + y[92] + y[98]
   - z[2383] >= 0
 R2384: y[8] + y[12] + y[19] + y[22] + y[26] + y[38] + y[44] + y[45]
   + y[46] + y[47] + y[58] + y[61] + y[67] + y[70] + y[74] + y[75] + y[87]
   - z[2384] >= 0
 R2385: y[20] + y[40] + y[48] + y[57] + y[60] + y[72] + y[79] + y[86]
   + y[88] + y[91] + y[92] + y[96] + y[99] - z[2385] >= 0
 R2386: y[6] + y[40] + y[48] + y[60] + y[72] + y[86] + y[91] + y[92]
   - z[2386] >= 0
 R2387: y[0] + y[15] + y[27] + y[41] + y[82] + y[94] - z[2387] >= 0
 R2388: y[1] + y[39] + y[98] - z[2388] >= 0
 R2389: y[1] + y[20] + y[35] + y[36] + y[39] + y[57] + y[98] - z[2389]
   >= 0
 R2390: y[16] + y[23] + y[24] + y[25] + y[27] + y[33] + y[37] + y[42]
   + y[59] + y[63] + y[71] + y[73] + y[76] + y[80] - z[2390] >= 0
 R2391: y[16] + y[23] + y[24] + y[25] + y[27] + y[37] + y[41] + y[42]
   + y[71] + y[73] - z[2391] >= 0
 R2392: y[18] + y[19] + y[21] + y[26] + y[29] + y[44] + y[50] + y[52]
   + y[62] + y[69] + y[74] + y[75] + y[84] + y[85] + y[90] + y[93]
   - z[2392] >= 0
 R2393: y[1] + y[6] + y[14] + y[20] + y[36] + y[39] + y[57] + y[65] + y[91]
   + y[92] + y[98] - z[2393] >= 0
 R2394: y[3] + y[40] + y[48] + y[54] + y[55] + y[60] + y[72] + y[79]
   + y[86] + y[99] - z[2394] >= 0
 R2395: y[2] + y[18] + y[20] + y[21] + y[32] + y[35] + y[36] + y[39]
   + y[49] + y[56] + y[69] + y[78] + y[81] + y[83] + y[84] + y[85] + y[88]
   + y[96] + y[98] - z[2395] >= 0
 R2396: y[3] + y[9] + y[11] + y[40] + y[54] + y[55] + y[60] + y[66] + y[77]
   + y[79] + y[99] - z[2396] >= 0
 R2397: y[4] + y[12] + y[19] + y[26] + y[38] + y[44] + y[47] + y[49]
   + y[56] + y[67] + y[70] + y[78] + y[81] + y[83] + y[87] - z[2397] >= 0
 R2398: y[7] + y[23] + y[25] + y[37] + y[42] + y[51] + y[53] + y[59]
   + y[63] + y[73] + y[76] + y[95] - z[2398] >= 0
 R2399: y[5] + y[7] + y[9] + y[11] + y[13] + y[17] + y[51] + y[53] + y[55]
   + y[59] + y[64] + y[68] + y[95] - z[2399] >= 0
 R2400: y[2] + y[20] + y[32] + y[35] + y[36] + y[39] + y[48] + y[57]
   + y[72] + y[79] + y[86] + y[88] + y[96] - z[2400] >= 0
 R2401: y[8] + y[12] + y[15] + y[22] + y[38] + y[45] + y[46] + y[47]
   + y[61] + y[67] + y[70] + y[82] + y[87] - z[2401] >= 0
 R2402: y[6] + y[20] + y[35] + y[36] + y[39] + y[48] + y[57] + y[72]
   + y[86] + y[88] + y[91] + y[92] + y[96] - z[2402] >= 0
 R2403: y[7] + y[9] + y[13] + y[33] + y[51] + y[53] + y[55] + y[59] + y[63]
   + y[68] + y[95] - z[2403] >= 0
 R2404: y[8] + y[12] + y[22] + y[38] + y[45] + y[46] + y[47] + y[61]
   + y[67] + y[70] + y[87] - z[2404] >= 0
 R2405: y[9] + y[10] + y[13] + y[28] + y[31] + y[33] + y[43] + y[55]
   + y[59] + y[63] + y[79] + y[89] + y[99] - z[2405] >= 0
 R2406: y[4] + y[10] + y[28] + y[30] + y[31] + y[32] + y[33] + y[43]
   + y[80] + y[89] + y[94] - z[2406] >= 0
 R2407: y[18] + y[19] + y[26] + y[29] + y[44] + y[50] + y[56] + y[62]
   + y[69] + y[74] + y[75] + y[84] + y[85] + y[90] + y[93] - z[2407] >= 0
 R2408: y[2] + y[20] + y[32] + y[35] + y[36] + y[39] + y[49] + y[57]
   + y[72] + y[81] + y[88] + y[96] - z[2408] >= 0
 R2409: y[0] + y[16] + y[24] + y[41] + y[71] - z[2409] >= 0
 R2410: y[3] + y[40] + y[48] + y[54] + y[60] + y[72] + y[86] + y[99]
   - z[2410] >= 0
 R2411: y[2] + y[6] + y[20] + y[35] + y[36] + y[39] + y[48] + y[57] + y[72]
   + y[86] + y[88] + y[91] + y[92] + y[96] - z[2411] >= 0
 R2412: y[12] + y[18] + y[19] + y[26] + y[29] + y[38] + y[44] + y[45]
   + y[46] + y[47] + y[50] + y[58] + y[62] + y[67] + y[69] + y[74] + y[75]
   + y[87] + y[90] + y[93] - z[2412] >= 0
 R2413: y[5] + y[7] + y[9] + y[11] + y[13] + y[17] + y[51] + y[53] + y[64]
   + y[68] + y[95] + y[97] - z[2413] >= 0
 R2414: y[8] + y[12] + y[19] + y[22] + y[26] + y[38] + y[44] + y[45]
   + y[46] + y[47] + y[58] + y[61] + y[67] + y[70] + y[74] + y[75] + y[87]
   - z[2414] >= 0
 R2415: y[0] + y[4] + y[12] + y[15] + y[28] + y[30] + y[47] + y[67] + y[70]
   + y[80] + y[82] + y[94] - z[2415] >= 0
 R2416: y[1] + y[6] + y[14] + y[65] + y[92] - z[2416] >= 0
 R2417: y[4] + y[10] + y[28] + y[30] + y[31] + y[33] + y[43] + y[55]
   + y[59] + y[63] + y[79] + y[80] + y[89] - z[2417] >= 0
 R2418: y[2] + y[18] + y[20] + y[32] + y[35] + y[36] + y[39] + y[49]
   + y[56] + y[69] + y[78] + y[81] + y[83] + y[84] + y[85] + y[88] + y[96]
   + y[98] - z[2418] >= 0
 R2419: y[0] + y[16] + y[23] + y[24] + y[25] + y[27] + y[37] + y[41]
   + y[42] + y[71] + y[73] + y[76] + y[80] + y[82] + y[94] - z[2419] >= 0
 R2420: y[2] + y[4] + y[10] + y[31] + y[32] + y[35] + y[44] + y[49] + y[56]
   + y[78] + y[81] + y[83] + y[89] - z[2420] >= 0
 R2421: y[8] + y[22] + y[34] + y[52] + y[58] + y[62] + y[74] + y[75]
   - z[2421] >= 0
 R2422: y[2] + y[20] + y[35] + y[36] + y[39] + y[57] + y[88] + y[98]
   - z[2422] >= 0
 R2423: y[4] + y[10] + y[28] + y[30] + y[31] + y[33] + y[43] + y[55]
   + y[59] + y[63] + y[79] + y[80] + y[89] - z[2423] >= 0
 R2424: y[4] + y[10] + y[27] + y[28] + y[30] + y[31] + y[33] + y[43]
   + y[59] + y[63] + y[80] + y[89] + y[94] - z[2424] >= 0
 R2425: y[2] + y[6] + y[20] + y[35] + y[36] + y[39] + y[48] + y[57] + y[72]
   + y[86] + y[88] + y[91] + y[92] + y[96] - z[2425] >= 0
 R2426: y[0] + y[4] + y[10] + y[15] + y[16] + y[27] + y[28] + y[30] + y[33]
   + y[43] + y[80] + y[82] + y[94] - z[2426] >= 0
 R2427: y[8] + y[12] + y[15] + y[22] + y[26] + y[38] + y[45] + y[46]
   + y[47] + y[61] + y[67] + y[70] + y[87] - z[2427] >= 0
 R2428: y[2] + y[10] + y[31] + y[32] + y[43] + y[55] + y[72] + y[79]
   + y[81] + y[88] + y[89] + y[96] + y[99] - z[2428] >= 0
 R2429: y[29] + y[34] + y[52] + y[58] + y[62] + y[74] + y[75] + y[90]
   - z[2429] >= 0
 R2430: y[18] + y[19] + y[21] + y[26] + y[44] + y[49] + y[50] + y[56]
   + y[69] + y[74] + y[75] + y[78] + y[81] + y[83] + y[84] + y[85] + y[90]
   + y[93] - z[2430] >= 0
 R2431: y[9] + y[13] + y[31] + y[40] + y[54] + y[55] + y[60] + y[79]
   + y[99] - z[2431] >= 0
 R2432: y[9] + y[11] + y[13] + y[40] + y[54] + y[55] + y[60] + y[79]
   + y[99] - z[2432] >= 0
 R2433: y[0] + y[15] + y[16] + y[27] + y[41] + y[82] + y[94] - z[2433]
   >= 0
 R2434: y[0] + y[4] + y[10] + y[15] + y[16] + y[23] + y[27] + y[28] + y[30]
   + y[33] + y[42] + y[43] + y[63] + y[80] + y[82] + y[94] - z[2434] >= 0
 R2435: y[3] + y[11] + y[40] + y[54] + y[55] + y[60] + y[66] + y[77]
   + y[79] + y[99] - z[2435] >= 0
 R2436: y[8] + y[12] + y[19] + y[22] + y[26] + y[38] + y[44] + y[45]
   + y[46] + y[47] + y[50] + y[58] + y[62] + y[67] + y[69] + y[74] + y[75]
   + y[87] + y[90] + y[93] - z[2436] >= 0
 R2437: y[21] + y[35] + y[36] + y[39] + y[84] + y[85] + y[98] - z[2437]
   >= 0
 R2438: y[18] + y[19] + y[26] + y[29] + y[34] + y[38] + y[44] + y[50]
   + y[52] + y[58] + y[62] + y[69] + y[74] + y[75] + y[90] + y[93]
   - z[2438] >= 0
 R2439: y[0] + y[16] + y[23] + y[24] + y[27] + y[41] + y[42] + y[71]
   + y[73] - z[2439] >= 0
 R2440: y[2] + y[20] + y[32] + y[35] + y[36] + y[39] + y[48] + y[57]
   + y[72] + y[86] + y[88] + y[91] + y[92] + y[96] - z[2440] >= 0
 R2441: y[1] + y[14] + y[65] - z[2441] >= 0
 R2442: y[18] + y[21] + y[50] + y[69] + y[84] + y[85] + y[93] - z[2442]
   >= 0
 R2443: y[16] + y[23] + y[24] + y[25] + y[27] + y[33] + y[37] + y[42]
   + y[59] + y[63] + y[71] + y[73] + y[76] + y[95] - z[2443] >= 0
 R2444: y[11] + y[17] + y[64] + y[66] + y[77] + y[97] - z[2444] >= 0
 R2445: y[40] + y[48] + y[57] + y[60] + y[72] + y[79] + y[86] + y[91]
   + y[92] + y[96] + y[99] - z[2445] >= 0
 R2446: y[3] + y[11] + y[40] + y[54] + y[60] + y[66] + y[77] + y[99]
   - z[2446] >= 0
 R2447: y[2] + y[31] + y[32] + y[35] + y[48] + y[55] + y[72] + y[79]
   + y[86] + y[88] + y[96] + y[99] - z[2447] >= 0
 R2448: y[2] + y[20] + y[35] + y[36] + y[39] + y[48] + y[57] + y[72]
   + y[79] + y[86] + y[88] + y[91] + y[96] - z[2448] >= 0
 R2449: y[1] + y[6] + y[14] + y[20] + y[36] + y[39] + y[48] + y[57] + y[65]
   + y[86] + y[91] + y[92] + y[98] - z[2449] >= 0
 R2450: y[16] + y[24] + y[41] + y[71] - z[2450] >= 0
 R2451: y[6] + y[20] + y[35] + y[36] + y[39] + y[48] + y[57] + y[72]
   + y[86] + y[88] + y[91] + y[92] + y[96] + y[98] - z[2451] >= 0
 R2452: y[9] + y[10] + y[13] + y[28] + y[31] + y[33] + y[43] + y[55]
   + y[59] + y[63] + y[68] + y[79] + y[89] + y[99] - z[2452] >= 0
 R2453: y[0] + y[15] + y[27] + y[30] + y[70] + y[80] + y[82] + y[94]
   - z[2453] >= 0
 R2454: y[2] + y[18] + y[21] + y[32] + y[35] + y[36] + y[44] + y[49]
   + y[50] + y[56] + y[69] + y[78] + y[81] + y[83] + y[84] + y[85] + y[90]
   + y[93] - z[2454] >= 0
 R2455: y[4] + y[10] + y[27] + y[28] + y[30] + y[31] + y[33] + y[43]
   + y[59] + y[63] + y[80] + y[82] + y[89] + y[94] - z[2455] >= 0
 R2456: y[0] + y[15] + y[16] + y[23] + y[24] + y[25] + y[27] + y[30]
   + y[37] + y[41] + y[42] + y[71] + y[73] + y[80] + y[82] + y[94]
   - z[2456] >= 0
 R2457: y[0] + y[15] + y[30] + y[70] + y[82] + y[94] - z[2457] >= 0
 R2458: y[2] + y[18] + y[32] + y[35] + y[36] + y[44] + y[49] + y[56]
   + y[69] + y[78] + y[81] + y[83] + y[84] + y[85] + y[88] + y[93]
   - z[2458] >= 0
 R2459: y[20] + y[40] + y[48] + y[57] + y[60] + y[72] + y[79] + y[86]
   + y[88] + y[91] + y[96] + y[99] - z[2459] >= 0
 R2460: y[0] + y[12] + y[15] + y[45] + y[46] + y[47] + y[61] + y[67]
   + y[70] + y[82] + y[87] - z[2460] >= 0
 R2461: y[6] + y[20] + y[35] + y[36] + y[39] + y[48] + y[57] + y[72]
   + y[86] + y[88] + y[91] + y[92] + y[96] - z[2461] >= 0
 R2462: y[29] + y[34] + y[50] + y[52] + y[58] + y[62] + y[74] + y[75]
   + y[90] - z[2462] >= 0
 R2463: y[2] + y[4] + y[10] + y[28] + y[31] + y[32] + y[43] + y[49] + y[55]
   + y[78] + y[79] + y[81] + y[83] + y[88] + y[89] + y[96] - z[2463] >= 0
 R2464: y[18] + y[19] + y[26] + y[29] + y[44] + y[50] + y[52] + y[58]
   + y[62] + y[69] + y[74] + y[75] + y[85] + y[90] + y[93] - z[2464] >= 0
 R2465: y[3] + y[40] + y[48] + y[54] + y[60] + y[77] + y[86] + y[99]
   - z[2465] >= 0
 R2466: y[0] + y[15] + y[70] + y[82] + y[94] - z[2466] >= 0
 R2467: y[2] + y[20] + y[32] + y[35] + y[36] + y[39] + y[49] + y[57]
   + y[72] + y[81] + y[83] + y[88] + y[96] - z[2467] >= 0
 R2468: y[8] + y[12] + y[22] + y[26] + y[34] + y[38] + y[45] + y[46]
   + y[47] + y[58] + y[61] + y[67] + y[70] + y[87] - z[2468] >= 0
 R2469: y[2] + y[18] + y[19] + y[21] + y[32] + y[35] + y[36] + y[44]
   + y[49] + y[50] + y[56] + y[69] + y[78] + y[81] + y[83] + y[84] + y[85]
   + y[90] + y[93] - z[2469] >= 0
 R2470: y[8] + y[12] + y[15] + y[22] + y[26] + y[38] + y[45] + y[46]
   + y[47] + y[61] + y[67] + y[70] + y[87] - z[2470] >= 0
 R2471: y[1] + y[20] + y[35] + y[36] + y[39] + y[57] + y[98] - z[2471]
   >= 0
 R2472: y[0] + y[4] + y[15] + y[27] + y[28] + y[30] + y[33] + y[43] + y[70]
   + y[80] + y[82] + y[94] - z[2472] >= 0
 R2473: y[8] + y[12] + y[19] + y[22] + y[26] + y[34] + y[38] + y[45]
   + y[46] + y[52] + y[58] + y[62] + y[74] + y[75] + y[87] + y[90]
   - z[2473] >= 0
 R2474: y[18] + y[19] + y[26] + y[32] + y[38] + y[44] + y[47] + y[49]
   + y[50] + y[56] + y[69] + y[74] + y[75] + y[78] + y[81] + y[83] + y[84]
   + y[85] + y[90] + y[93] - z[2474] >= 0
 R2475: y[18] + y[19] + y[26] + y[29] + y[34] + y[38] + y[44] + y[50]
   + y[52] + y[58] + y[62] + y[74] + y[75] + y[90] + y[93] - z[2475] >= 0
 R2476: y[4] + y[10] + y[28] + y[30] + y[31] + y[32] + y[33] + y[43]
   + y[55] + y[59] + y[63] + y[79] + y[80] + y[89] - z[2476] >= 0
 R2477: y[18] + y[21] + y[29] + y[50] + y[62] + y[69] + y[74] + y[75]
   + y[84] + y[85] + y[90] + y[93] - z[2477] >= 0
 R2478: y[2] + y[31] + y[32] + y[35] + y[44] + y[49] + y[56] + y[69]
   + y[78] + y[81] + y[83] + y[85] + y[88] + y[89] - z[2478] >= 0
 R2479: y[18] + y[21] + y[36] + y[50] + y[56] + y[69] + y[84] + y[85]
   + y[93] - z[2479] >= 0
 R2480: y[12] + y[18] + y[19] + y[26] + y[38] + y[44] + y[45] + y[46]
   + y[47] + y[49] + y[56] + y[58] + y[67] + y[69] + y[74] + y[75] + y[78]
   + y[83] + y[85] + y[87] + y[90] + y[93] - z[2480] >= 0
 R2481: y[0] + y[15] + y[70] + y[82] - z[2481] >= 0
 R2482: y[0] + y[15] + y[70] + y[82] + y[94] - z[2482] >= 0
 R2483: y[8] + y[12] + y[22] + y[26] + y[38] + y[45] + y[46] + y[58]
   + y[61] + y[67] + y[70] + y[87] - z[2483] >= 0
 R2484: y[7] + y[16] + y[23] + y[25] + y[27] + y[33] + y[37] + y[42]
   + y[53] + y[59] + y[63] + y[73] + y[76] + y[80] + y[95] - z[2484] >= 0
 R2485: y[2] + y[31] + y[32] + y[55] + y[72] + y[79] + y[88] + y[89]
   + y[96] + y[99] - z[2485] >= 0
 R2486: y[4] + y[10] + y[19] + y[26] + y[30] + y[31] + y[32] + y[44]
   + y[47] + y[49] + y[56] + y[67] + y[78] + y[81] + y[83] + y[89]
   - z[2486] >= 0
 R2487: y[3] + y[11] + y[40] + y[54] + y[60] + y[66] + y[77] + y[99]
   - z[2487] >= 0
 R2488: y[8] + y[12] + y[19] + y[22] + y[26] + y[38] + y[45] + y[46]
   + y[47] + y[61] + y[67] + y[70] + y[87] - z[2488] >= 0
 R2489: y[18] + y[21] + y[29] + y[50] + y[52] + y[62] + y[74] + y[75]
   + y[84] + y[90] + y[93] - z[2489] >= 0
 R2490: y[3] + y[40] + y[48] + y[54] + y[60] + y[72] + y[79] + y[86]
   + y[99] - z[2490] >= 0
 R2491: y[3] + y[40] + y[48] + y[54] + y[60] + y[72] + y[79] + y[86]
   + y[99] - z[2491] >= 0
 R2492: y[4] + y[10] + y[27] + y[28] + y[30] + y[31] + y[33] + y[43]
   + y[59] + y[63] + y[80] + y[82] + y[89] + y[94] - z[2492] >= 0
 R2493: y[3] + y[11] + y[54] + y[64] + y[66] + y[77] + y[97] - z[2493]
   >= 0
 R2494: y[8] + y[29] + y[34] + y[52] + y[58] + y[62] + y[74] + y[75]
   + y[90] - z[2494] >= 0
 R2495: y[2] + y[10] + y[31] + y[32] + y[43] + y[55] + y[79] + y[81]
   + y[88] + y[89] + y[96] - z[2495] >= 0
 R2496: y[3] + y[9] + y[11] + y[40] + y[54] + y[55] + y[60] + y[66] + y[77]
   + y[79] + y[99] - z[2496] >= 0
 R2497: y[2] + y[20] + y[32] + y[35] + y[36] + y[39] + y[57] + y[72]
   + y[79] + y[81] + y[86] + y[88] + y[96] - z[2497] >= 0
 R2498: y[18] + y[19] + y[21] + y[29] + y[44] + y[50] + y[52] + y[62]
   + y[69] + y[74] + y[75] + y[84] + y[85] + y[90] + y[93] - z[2498] >= 0
 R2499: y[8] + y[12] + y[22] + y[26] + y[34] + y[38] + y[45] + y[46]
   + y[47] + y[58] + y[61] + y[67] + y[70] + y[87] - z[2499] >= 0
 R2500: y[8] + y[12] + y[19] + y[22] + y[26] + y[38] + y[44] + y[45]
   + y[46] + y[47] + y[58] + y[61] + y[62] + y[67] + y[70] + y[74] + y[75]
   + y[87] + y[90] - z[2500] >= 0
 R2501: y[12] + y[18] + y[19] + y[26] + y[38] + y[44] + y[45] + y[46]
   + y[47] + y[49] + y[56] + y[67] + y[69] + y[74] + y[75] + y[78] + y[83]
   + y[85] + y[87] + y[90] + y[93] - z[2501] >= 0
 R2502: y[8] + y[12] + y[22] + y[45] + y[46] + y[61] + y[67] + y[70]
   + y[87] - z[2502] >= 0
 R2503: y[0] + y[41] - z[2503] >= 0
 R2504: y[0] + y[16] + y[24] + y[27] + y[41] + y[71] + y[82] - z[2504]
   >= 0
 R2505: y[10] + y[13] + y[31] + y[33] + y[43] + y[55] + y[59] + y[63]
   + y[79] + y[89] + y[99] - z[2505] >= 0
 R2506: y[1] + y[14] + y[65] + y[98] - z[2506] >= 0
 R2507: y[4] + y[10] + y[15] + y[28] + y[30] + y[31] + y[43] + y[47]
   + y[67] + y[70] + y[78] + y[80] + y[82] + y[89] + y[94] - z[2507] >= 0
 R2508: y[5] + y[7] + y[9] + y[11] + y[13] + y[17] + y[51] + y[53] + y[54]
   + y[55] + y[59] + y[63] + y[68] + y[95] + y[99] - z[2508] >= 0
 R2509: y[0] + y[15] + y[27] + y[41] + y[82] + y[94] - z[2509] >= 0
 R2510: y[2] + y[6] + y[20] + y[35] + y[36] + y[39] + y[57] + y[72] + y[88]
   + y[91] + y[92] + y[96] + y[98] - z[2510] >= 0
 R2511: y[8] + y[12] + y[22] + y[26] + y[38] + y[45] + y[46] + y[47]
   + y[58] + y[61] + y[67] + y[70] + y[87] - z[2511] >= 0
 R2512: y[4] + y[12] + y[19] + y[26] + y[38] + y[44] + y[45] + y[46]
   + y[47] + y[67] + y[70] + y[78] + y[83] + y[87] - z[2512] >= 0
 R2513: y[2] + y[18] + y[32] + y[35] + y[36] + y[39] + y[44] + y[49]
   + y[56] + y[69] + y[78] + y[81] + y[83] + y[84] + y[85] + y[88] + y[93]
   - z[2513] >= 0
 R2514: y[4] + y[10] + y[28] + y[30] + y[31] + y[32] + y[43] + y[47]
   + y[49] + y[56] + y[78] + y[81] + y[83] + y[89] - z[2514] >= 0
 R2515: y[4] + y[12] + y[15] + y[19] + y[26] + y[30] + y[38] + y[45]
   + y[46] + y[47] + y[67] + y[70] + y[82] + y[87] - z[2515] >= 0
 R2516: y[12] + y[19] + y[26] + y[38] + y[44] + y[45] + y[46] + y[47]
   + y[67] + y[70] + y[87] - z[2516] >= 0
 R2517: y[8] + y[12] + y[15] + y[22] + y[38] + y[45] + y[46] + y[47]
   + y[61] + y[67] + y[70] + y[87] - z[2517] >= 0
 R2518: y[7] + y[9] + y[11] + y[13] + y[17] + y[51] + y[53] + y[55] + y[59]
   + y[63] + y[68] + y[79] + y[95] + y[99] - z[2518] >= 0
 R2519: y[16] + y[23] + y[24] + y[25] + y[27] + y[33] + y[37] + y[42]
   + y[59] + y[63] + y[71] + y[73] + y[76] + y[80] - z[2519] >= 0
 R2520: y[2] + y[18] + y[19] + y[21] + y[35] + y[44] + y[49] + y[50]
   + y[56] + y[69] + y[78] + y[81] + y[83] + y[84] + y[85] + y[90] + y[93]
   - z[2520] >= 0
 R2521: y[1] + y[14] + y[65] + y[98] - z[2521] >= 0
 R2522: y[4] + y[10] + y[16] + y[23] + y[25] + y[27] + y[28] + y[30]
   + y[33] + y[37] + y[42] + y[43] + y[59] + y[63] + y[76] + y[80] + y[94]
   - z[2522] >= 0
 R2523: y[7] + y[16] + y[23] + y[24] + y[25] + y[27] + y[33] + y[37]
   + y[42] + y[59] + y[63] + y[71] + y[73] + y[76] + y[80] + y[95]
   - z[2523] >= 0
 R2524: y[16] + y[23] + y[24] + y[25] + y[27] + y[33] + y[37] + y[42]
   + y[59] + y[63] + y[71] + y[73] + y[76] + y[80] - z[2524] >= 0
 R2525: y[40] + y[48] + y[60] + y[72] + y[79] + y[86] + y[91] + y[99]
   - z[2525] >= 0
 R2526: y[0] + y[16] + y[23] + y[24] + y[27] + y[41] + y[42] + y[71]
   + y[73] - z[2526] >= 0
 R2527: y[1] + y[20] + y[36] + y[39] + y[98] - z[2527] >= 0
 R2528: y[10] + y[31] + y[55] + y[60] + y[72] + y[79] + y[89] + y[96]
   + y[99] - z[2528] >= 0
 R2529: y[3] + y[9] + y[11] + y[17] + y[54] + y[64] + y[66] + y[77] + y[97]
   - z[2529] >= 0
 R2530: y[5] + y[7] + y[9] + y[11] + y[13] + y[17] + y[51] + y[53] + y[64]
   + y[68] + y[95] - z[2530] >= 0
 R2531: y[5] + y[7] + y[9] + y[11] + y[13] + y[17] + y[25] + y[37] + y[51]
   + y[53] + y[55] + y[59] + y[63] + y[68] + y[76] + y[95] - z[2531] >= 0
 R2532: y[21] + y[36] + y[39] + y[84] + y[98] - z[2532] >= 0
 R2533: y[8] + y[12] + y[19] + y[22] + y[26] + y[38] + y[44] + y[45]
   + y[46] + y[47] + y[58] + y[61] + y[67] + y[70] + y[74] + y[75] + y[87]
   - z[2533] >= 0
 R2534: y[3] + y[9] + y[11] + y[13] + y[40] + y[54] + y[55] + y[60] + y[68]
   + y[77] + y[79] + y[99] - z[2534] >= 0
 R2535: y[8] + y[12] + y[15] + y[22] + y[38] + y[45] + y[46] + y[47]
   + y[61] + y[67] + y[70] + y[87] - z[2535] >= 0
 R2536: y[10] + y[16] + y[23] + y[25] + y[27] + y[28] + y[30] + y[33]
   + y[37] + y[42] + y[43] + y[59] + y[63] + y[76] + y[80] - z[2536] >= 0
 R2537: y[18] + y[21] + y[44] + y[50] + y[56] + y[69] + y[84] + y[85]
   + y[90] + y[93] - z[2537] >= 0
 R2538: y[1] + y[6] + y[14] + y[65] + y[92] - z[2538] >= 0
 R2539: y[1] + y[6] + y[14] + y[65] + y[91] + y[92] - z[2539] >= 0
 R2540: y[0] + y[4] + y[10] + y[15] + y[27] + y[28] + y[30] + y[31] + y[33]
   + y[43] + y[63] + y[80] + y[82] + y[89] + y[94] - z[2540] >= 0
 R2541: y[18] + y[21] + y[35] + y[36] + y[44] + y[49] + y[50] + y[56]
   + y[69] + y[83] + y[84] + y[85] + y[90] + y[93] - z[2541] >= 0
 R2542: y[40] + y[48] + y[60] + y[72] + y[79] + y[86] + y[88] + y[96]
   + y[99] - z[2542] >= 0
 R2543: y[3] + y[9] + y[11] + y[17] + y[54] + y[64] + y[66] + y[77] + y[97]
   - z[2543] >= 0
 R2544: y[0] + y[4] + y[10] + y[15] + y[27] + y[28] + y[30] + y[31] + y[33]
   + y[43] + y[80] + y[82] + y[89] + y[94] - z[2544] >= 0
 R2545: y[18] + y[19] + y[21] + y[44] + y[49] + y[50] + y[56] + y[69]
   + y[78] + y[81] + y[83] + y[84] + y[85] + y[90] + y[93] - z[2545] >= 0
 R2546: y[11] + y[17] + y[64] + y[66] + y[77] + y[97] - z[2546] >= 0
 R2547: y[11] + y[17] + y[64] + y[66] + y[77] + y[97] - z[2547] >= 0
 R2548: y[2] + y[20] + y[35] + y[36] + y[39] + y[48] + y[57] + y[72]
   + y[79] + y[86] + y[88] + y[91] + y[96] - z[2548] >= 0
 R2549: y[5] + y[9] + y[11] + y[13] + y[17] + y[54] + y[64] + y[66] + y[68]
   + y[77] + y[97] - z[2549] >= 0
 R2550: y[2] + y[10] + y[31] + y[32] + y[35] + y[55] + y[72] + y[79]
   + y[81] + y[88] + y[89] + y[96] - z[2550] >= 0
 R2551: y[1] + y[36] + y[39] + y[98] - z[2551] >= 0
 R2552: y[5] + y[7] + y[9] + y[11] + y[13] + y[17] + y[51] + y[53] + y[64]
   + y[68] + y[97] - z[2552] >= 0
 R2553: y[3] + y[9] + y[11] + y[17] + y[54] + y[64] + y[66] + y[77] + y[97]
   - z[2553] >= 0
 R2554: y[1] + y[6] + y[14] + y[65] + y[91] + y[92] - z[2554] >= 0
 R2555: y[19] + y[29] + y[34] + y[50] + y[52] + y[58] + y[62] + y[74]
   + y[75] + y[90] - z[2555] >= 0
 R2556: y[3] + y[9] + y[13] + y[40] + y[54] + y[55] + y[60] + y[72] + y[79]
   + y[99] - z[2556] >= 0
 R2557: y[6] + y[20] + y[48] + y[57] + y[72] + y[86] + y[88] + y[91]
   + y[92] + y[96] - z[2557] >= 0
 R2558: y[40] + y[48] + y[60] + y[72] + y[79] + y[86] + y[88] + y[96]
   + y[99] - z[2558] >= 0
 R2559: y[1] + y[6] + y[14] + y[20] + y[39] + y[48] + y[57] + y[65] + y[86]
   + y[91] + y[92] + y[98] - z[2559] >= 0
 R2560: y[5] + y[7] + y[9] + y[13] + y[25] + y[37] + y[51] + y[53] + y[55]
   + y[59] + y[63] + y[68] + y[76] + y[95] - z[2560] >= 0
 R2561: y[0] + y[4] + y[15] + y[16] + y[27] + y[30] + y[70] + y[80] + y[82]
   + y[94] - z[2561] >= 0
 R2562: y[4] + y[10] + y[28] + y[30] + y[31] + y[32] + y[43] + y[47]
   + y[49] + y[56] + y[78] + y[81] + y[83] + y[89] - z[2562] >= 0
 R2563: y[0] + y[16] + y[24] + y[27] + y[41] + y[71] + y[82] - z[2563]
   >= 0
 R2564: y[16] + y[23] + y[24] + y[25] + y[27] + y[37] + y[41] + y[42]
   + y[71] + y[73] - z[2564] >= 0
 R2565: y[21] + y[84] + y[98] - z[2565] >= 0
 R2566: y[1] + y[6] + y[14] + y[57] + y[65] + y[91] + y[92] - z[2566] >= 0
 R2567: y[3] + y[9] + y[11] + y[40] + y[54] + y[60] + y[66] + y[77] + y[99]
   - z[2567] >= 0
 R2568: y[2] + y[18] + y[19] + y[26] + y[32] + y[35] + y[44] + y[49]
   + y[50] + y[56] + y[69] + y[78] + y[81] + y[83] + y[84] + y[85] + y[90]
   + y[93] - z[2568] >= 0
 R2569: y[2] + y[18] + y[21] + y[32] + y[35] + y[36] + y[39] + y[49]
   + y[56] + y[69] + y[78] + y[81] + y[83] + y[84] + y[85] + y[88] + y[93]
   - z[2569] >= 0
 R2570: y[31] + y[40] + y[54] + y[55] + y[60] + y[72] + y[79] + y[96]
   + y[99] - z[2570] >= 0
 R2571: y[2] + y[6] + y[20] + y[35] + y[36] + y[39] + y[48] + y[57] + y[72]
   + y[86] + y[88] + y[91] + y[92] + y[96] + y[98] - z[2571] >= 0
 R2572: y[0] + y[4] + y[10] + y[15] + y[27] + y[28] + y[30] + y[31] + y[33]
   + y[43] + y[47] + y[70] + y[80] + y[82] + y[89] + y[94] - z[2572] >= 0
 R2573: y[6] + y[48] + y[57] + y[72] + y[86] + y[91] + y[92] - z[2573]
   >= 0
 R2574: y[16] + y[23] + y[24] + y[25] + y[27] + y[37] + y[42] + y[59]
   + y[63] + y[71] + y[73] + y[76] + y[80] - z[2574] >= 0
 R2575: y[18] + y[19] + y[26] + y[29] + y[34] + y[38] + y[44] + y[45]
   + y[50] + y[52] + y[58] + y[62] + y[69] + y[74] + y[75] + y[85] + y[87]
   + y[90] + y[93] - z[2575] >= 0
 R2576: y[29] + y[34] + y[50] + y[52] + y[58] + y[62] + y[74] + y[75]
   + y[90] - z[2576] >= 0
 R2577: y[4] + y[10] + y[28] + y[30] + y[31] + y[32] + y[33] + y[43]
   + y[55] + y[59] + y[63] + y[79] + y[80] + y[89] - z[2577] >= 0
 R2578: y[2] + y[4] + y[10] + y[31] + y[32] + y[35] + y[49] + y[78] + y[79]
   + y[81] + y[83] + y[88] + y[89] + y[96] - z[2578] >= 0
 R2579: y[2] + y[20] + y[32] + y[35] + y[36] + y[39] + y[49] + y[57]
   + y[72] + y[78] + y[81] + y[83] + y[88] + y[96] - z[2579] >= 0
 R2580: y[2] + y[20] + y[35] + y[36] + y[39] + y[49] + y[56] + y[57]
   + y[81] + y[84] + y[85] + y[88] + y[96] + y[98] - z[2580] >= 0
 R2581: y[7] + y[9] + y[13] + y[33] + y[51] + y[53] + y[55] + y[59] + y[63]
   + y[68] + y[95] - z[2581] >= 0
 R2582: y[2] + y[4] + y[10] + y[31] + y[32] + y[35] + y[43] + y[49] + y[56]
   + y[78] + y[81] + y[83] + y[88] + y[89] + y[96] - z[2582] >= 0
 R2583: y[0] + y[4] + y[10] + y[12] + y[15] + y[26] + y[28] + y[30] + y[43]
   + y[47] + y[67] + y[70] + y[80] + y[82] + y[89] + y[94] - z[2583] >= 0
 R2584: y[18] + y[19] + y[21] + y[29] + y[44] + y[50] + y[52] + y[62]
   + y[69] + y[74] + y[75] + y[84] + y[85] + y[90] + y[93] - z[2584] >= 0
 R2585: y[18] + y[19] + y[26] + y[29] + y[44] + y[50] + y[56] + y[62]
   + y[69] + y[74] + y[75] + y[84] + y[85] + y[90] + y[93] - z[2585] >= 0
 R2586: y[18] + y[21] + y[50] + y[69] + y[84] + y[85] + y[93] - z[2586]
   >= 0
 R2587: y[16] + y[23] + y[24] + y[25] + y[37] + y[42] + y[59] + y[63]
   + y[71] + y[73] + y[76] - z[2587] >= 0
 R2588: y[2] + y[20] + y[35] + y[36] + y[39] + y[57] + y[88] + y[96]
   + y[98] - z[2588] >= 0
 R2589: y[3] + y[11] + y[40] + y[54] + y[60] + y[66] + y[77] + y[99]
   - z[2589] >= 0
 R2590: y[16] + y[24] + y[41] + y[71] + y[73] - z[2590] >= 0
 R2591: y[11] + y[17] + y[64] + y[66] + y[77] + y[97] - z[2591] >= 0
 R2592: y[4] + y[10] + y[25] + y[27] + y[28] + y[30] + y[31] + y[33]
   + y[37] + y[43] + y[55] + y[59] + y[63] + y[80] + y[89] - z[2592] >= 0
 R2593: y[40] + y[48] + y[54] + y[55] + y[60] + y[72] + y[79] + y[86]
   + y[88] + y[96] + y[99] - z[2593] >= 0
 R2594: y[24] + y[41] + y[71] - z[2594] >= 0
 R2595: y[3] + y[40] + y[48] + y[54] + y[55] + y[60] + y[72] + y[79]
   + y[86] + y[99] - z[2595] >= 0
 R2596: y[2] + y[20] + y[32] + y[35] + y[36] + y[39] + y[49] + y[56]
   + y[57] + y[78] + y[81] + y[83] + y[88] + y[96] - z[2596] >= 0
 R2597: y[0] + y[4] + y[15] + y[27] + y[28] + y[30] + y[43] + y[47] + y[67]
   + y[70] + y[80] + y[82] + y[94] - z[2597] >= 0
 R2598: y[5] + y[9] + y[11] + y[13] + y[17] + y[54] + y[64] + y[66] + y[77]
   + y[97] - z[2598] >= 0
 R2599: y[3] + y[40] + y[48] + y[60] + y[86] + y[91] - z[2599] >= 0
 R2600: y[0] + y[16] + y[23] + y[24] + y[25] + y[27] + y[30] + y[33]
   + y[37] + y[42] + y[63] + y[71] + y[73] + y[76] + y[80] + y[82] + y[94]
   - z[2600] >= 0
 R2601: y[0] + y[15] + y[16] + y[27] + y[41] + y[82] + y[94] - z[2601]
   >= 0
 R2602: y[18] + y[19] + y[26] + y[29] + y[38] + y[44] + y[50] + y[56]
   + y[62] + y[69] + y[74] + y[75] + y[83] + y[84] + y[85] + y[90] + y[93]
   - z[2602] >= 0
 R2603: y[2] + y[10] + y[31] + y[32] + y[35] + y[49] + y[55] + y[72]
   + y[79] + y[81] + y[88] + y[89] + y[96] - z[2603] >= 0
 R2604: y[1] + y[14] + y[39] + y[65] + y[98] - z[2604] >= 0
 R2605: y[3] + y[40] + y[48] + y[60] + y[72] + y[86] + y[91] + y[99]
   - z[2605] >= 0
 R2606: y[18] + y[21] + y[36] + y[39] + y[84] + y[85] + y[98] - z[2606]
   >= 0
 R2607: y[19] + y[29] + y[34] + y[50] + y[52] + y[58] + y[62] + y[74]
   + y[75] + y[90] + y[93] - z[2607] >= 0
 R2608: y[16] + y[23] + y[24] + y[25] + y[37] + y[42] + y[71] + y[73]
   + y[76] - z[2608] >= 0
 R2609: y[29] + y[34] + y[52] + y[58] + y[62] + y[74] + y[75] - z[2609]
   >= 0
 R2610: y[0] + y[4] + y[10] + y[15] + y[27] + y[28] + y[30] + y[31] + y[33]
   + y[43] + y[47] + y[80] + y[82] + y[89] + y[94] - z[2610] >= 0
 R2611: y[8] + y[19] + y[22] + y[26] + y[29] + y[34] + y[38] + y[45]
   + y[52] + y[58] + y[62] + y[74] + y[75] + y[87] + y[90] - z[2611] >= 0
 R2612: y[18] + y[19] + y[29] + y[44] + y[50] + y[52] + y[62] + y[69]
   + y[74] + y[75] + y[90] + y[93] - z[2612] >= 0
 R2613: y[3] + y[40] + y[54] + y[60] + y[66] + y[77] - z[2613] >= 0
 R2614: y[5] + y[7] + y[9] + y[11] + y[13] + y[17] + y[51] + y[53] + y[54]
   + y[64] + y[66] + y[68] + y[77] + y[97] - z[2614] >= 0
 R2615: y[18] + y[29] + y[50] + y[52] + y[62] + y[74] + y[75] + y[90]
   + y[93] - z[2615] >= 0
 R2616: y[0] + y[16] + y[23] + y[24] + y[25] + y[27] + y[41] + y[42]
   + y[71] + y[73] - z[2616] >= 0
 R2617: y[3] + y[40] + y[54] + y[60] + y[66] + y[77] + y[99] - z[2617]
   >= 0
 R2618: y[40] + y[48] + y[60] + y[72] + y[79] + y[86] + y[91] + y[96]
   + y[99] - z[2618] >= 0
 R2619: y[4] + y[10] + y[28] + y[30] + y[31] + y[32] + y[33] + y[43]
   + y[49] + y[78] + y[81] + y[83] + y[89] - z[2619] >= 0
 R2620: y[6] + y[48] + y[57] + y[72] + y[86] + y[91] + y[92] - z[2620]
   >= 0
 R2621: y[4] + y[10] + y[28] + y[31] + y[33] + y[43] + y[55] + y[59]
   + y[63] + y[79] + y[89] + y[99] - z[2621] >= 0
 R2622: y[4] + y[10] + y[12] + y[15] + y[26] + y[28] + y[30] + y[38]
   + y[43] + y[47] + y[67] + y[70] + y[78] + y[82] + y[83] + y[89] + y[94]
   - z[2622] >= 0
 R2623: y[2] + y[18] + y[20] + y[32] + y[35] + y[36] + y[39] + y[49]
   + y[56] + y[69] + y[78] + y[81] + y[83] + y[84] + y[85] + y[88] + y[96]
   - z[2623] >= 0
 R2624: y[2] + y[20] + y[32] + y[35] + y[36] + y[39] + y[48] + y[57]
   + y[72] + y[81] + y[86] + y[88] + y[96] - z[2624] >= 0
 R2625: y[8] + y[12] + y[22] + y[26] + y[38] + y[45] + y[46] + y[47]
   + y[58] + y[61] + y[67] + y[70] + y[87] - z[2625] >= 0
 R2626: y[7] + y[23] + y[24] + y[25] + y[37] + y[42] + y[59] + y[71]
   + y[73] + y[76] + y[95] - z[2626] >= 0
 R2627: y[3] + y[11] + y[17] + y[40] + y[54] + y[60] + y[64] + y[66]
   + y[77] + y[97] - z[2627] >= 0
 R2628: y[2] + y[32] + y[35] + y[36] + y[39] + y[49] + y[56] + y[69]
   + y[78] + y[81] + y[83] + y[85] + y[88] + y[96] - z[2628] >= 0
 R2629: y[1] + y[14] + y[20] + y[36] + y[39] + y[57] + y[65] + y[98]
   - z[2629] >= 0
 R2630: y[3] + y[11] + y[40] + y[54] + y[60] + y[66] + y[77] + y[99]
   - z[2630] >= 0
 R2631: y[7] + y[16] + y[23] + y[24] + y[25] + y[37] + y[42] + y[59]
   + y[71] + y[73] + y[76] + y[95] - z[2631] >= 0
 R2632: y[16] + y[23] + y[24] + y[25] + y[27] + y[33] + y[37] + y[42]
   + y[59] + y[63] + y[71] + y[73] + y[76] + y[80] - z[2632] >= 0
 R2633: y[9] + y[10] + y[13] + y[31] + y[33] + y[55] + y[59] + y[63]
   + y[68] + y[79] + y[89] + y[99] - z[2633] >= 0
 R2634: y[3] + y[9] + y[11] + y[13] + y[17] + y[40] + y[51] + y[53] + y[54]
   + y[55] + y[60] + y[64] + y[66] + y[68] + y[77] + y[97] + y[99]
   - z[2634] >= 0
 R2635: y[5] + y[9] + y[11] + y[13] + y[17] + y[51] + y[54] + y[64] + y[66]
   + y[68] + y[77] + y[97] - z[2635] >= 0
 R2636: y[2] + y[18] + y[19] + y[32] + y[35] + y[36] + y[44] + y[49]
   + y[50] + y[56] + y[69] + y[78] + y[81] + y[83] + y[84] + y[85] + y[93]
   - z[2636] >= 0
 R2637: y[0] + y[4] + y[10] + y[15] + y[27] + y[28] + y[30] + y[43] + y[47]
   + y[67] + y[70] + y[80] + y[82] + y[94] - z[2637] >= 0
 R2638: y[8] + y[12] + y[19] + y[22] + y[26] + y[34] + y[38] + y[44]
   + y[45] + y[46] + y[47] + y[58] + y[61] + y[62] + y[67] + y[74] + y[75]
   + y[87] + y[90] - z[2638] >= 0
 R2639: y[18] + y[19] + y[21] + y[26] + y[44] + y[49] + y[50] + y[56]
   + y[69] + y[74] + y[75] + y[78] + y[81] + y[83] + y[84] + y[85] + y[90]
   + y[93] - z[2639] >= 0
 R2640: y[18] + y[19] + y[21] + y[44] + y[49] + y[50] + y[56] + y[69]
   + y[74] + y[75] + y[78] + y[83] + y[84] + y[85] + y[90] + y[93]
   - z[2640] >= 0
 R2641: y[3] + y[40] + y[48] + y[54] + y[60] + y[72] + y[79] + y[86]
   + y[91] + y[96] + y[99] - z[2641] >= 0
 R2642: y[2] + y[20] + y[35] + y[36] + y[39] + y[57] + y[88] + y[98]
   - z[2642] >= 0
 R2643: y[2] + y[18] + y[21] + y[32] + y[35] + y[36] + y[39] + y[44]
   + y[49] + y[50] + y[56] + y[69] + y[78] + y[81] + y[83] + y[84] + y[85]
   + y[93] - z[2643] >= 0
 R2644: y[5] + y[7] + y[9] + y[11] + y[13] + y[17] + y[51] + y[53] + y[54]
   + y[55] + y[59] + y[68] + y[95] + y[99] - z[2644] >= 0
 R2645: y[10] + y[13] + y[25] + y[28] + y[31] + y[33] + y[37] + y[43]
   + y[55] + y[59] + y[63] + y[76] + y[80] + y[89] - z[2645] >= 0
 R2646: y[4] + y[12] + y[19] + y[26] + y[38] + y[44] + y[45] + y[46]
   + y[47] + y[67] + y[70] + y[78] + y[83] + y[87] - z[2646] >= 0
 R2647: y[1] + y[20] + y[36] + y[39] + y[98] - z[2647] >= 0
 R2648: y[12] + y[19] + y[26] + y[38] + y[44] + y[45] + y[46] + y[47]
   + y[67] + y[70] + y[78] + y[83] + y[87] - z[2648] >= 0
 R2649: y[3] + y[9] + y[11] + y[40] + y[54] + y[55] + y[60] + y[66] + y[77]
   + y[79] + y[99] - z[2649] >= 0
 R2650: y[16] + y[23] + y[24] + y[25] + y[37] + y[42] + y[71] + y[73]
   + y[76] - z[2650] >= 0
 R2651: y[2] + y[6] + y[20] + y[35] + y[36] + y[39] + y[48] + y[57] + y[72]
   + y[86] + y[88] + y[91] + y[92] + y[96] - z[2651] >= 0
 R2652: y[8] + y[22] + y[29] + y[34] + y[38] + y[45] + y[52] + y[58]
   + y[62] + y[74] + y[75] + y[87] + y[90] - z[2652] >= 0
 R2653: y[21] + y[84] + y[98] - z[2653] >= 0
 R2654: y[3] + y[9] + y[11] + y[13] + y[17] + y[40] + y[51] + y[53] + y[54]
   + y[55] + y[60] + y[64] + y[66] + y[68] + y[77] + y[97] + y[99]
   - z[2654] >= 0
 R2655: y[29] + y[34] + y[52] + y[58] + y[62] - z[2655] >= 0
 R2656: y[7] + y[16] + y[23] + y[25] + y[27] + y[28] + y[33] + y[37]
   + y[42] + y[43] + y[53] + y[59] + y[63] + y[73] + y[76] + y[80] + y[95]
   - z[2656] >= 0
 R2657: y[1] + y[6] + y[14] + y[65] + y[91] + y[92] - z[2657] >= 0
 R2658: y[5] + y[7] + y[9] + y[11] + y[13] + y[17] + y[25] + y[37] + y[51]
   + y[53] + y[55] + y[59] + y[63] + y[68] + y[76] + y[95] - z[2658] >= 0
 R2659: y[0] + y[4] + y[10] + y[15] + y[28] + y[30] + y[31] + y[33] + y[43]
   + y[47] + y[67] + y[70] + y[80] + y[82] + y[89] + y[94] - z[2659] >= 0
 R2660: y[9] + y[11] + y[13] + y[40] + y[54] + y[55] + y[59] + y[60]
   + y[68] + y[79] + y[99] - z[2660] >= 0
 R2661: y[1] + y[6] + y[14] + y[20] + y[39] + y[57] + y[65] + y[91] + y[92]
   + y[98] - z[2661] >= 0
 R2662: y[1] + y[20] + y[36] + y[39] + y[98] - z[2662] >= 0
 R2663: y[2] + y[10] + y[31] + y[32] + y[35] + y[49] + y[56] + y[78]
   + y[79] + y[81] + y[83] + y[88] + y[89] + y[96] - z[2663] >= 0
 R2664: y[1] + y[14] + y[65] + y[98] - z[2664] >= 0
 R2665: y[3] + y[40] + y[54] + y[60] + y[66] + y[77] - z[2665] >= 0
 R2666: y[0] + y[15] + y[41] + y[82] - z[2666] >= 0
 R2667: y[8] + y[12] + y[19] + y[22] + y[26] + y[34] + y[38] + y[45]
   + y[46] + y[47] + y[58] + y[61] + y[62] + y[67] + y[74] + y[75] + y[87]
   - z[2667] >= 0
 R2668: y[5] + y[7] + y[9] + y[11] + y[13] + y[17] + y[51] + y[53] + y[64]
   + y[68] + y[95] + y[97] - z[2668] >= 0
 R2669: y[18] + y[19] + y[26] + y[38] + y[44] + y[47] + y[49] + y[56]
   + y[67] + y[69] + y[74] + y[75] + y[78] + y[81] + y[83] + y[85] + y[87]
   + y[90] + y[93] - z[2669] >= 0
 R2670: y[2] + y[31] + y[32] + y[35] + y[55] + y[72] + y[79] + y[88]
   + y[96] + y[99] - z[2670] >= 0
 R2671: y[9] + y[13] + y[31] + y[40] + y[54] + y[55] + y[60] + y[79]
   + y[99] - z[2671] >= 0
 R2672: y[0] + y[16] + y[23] + y[24] + y[27] + y[41] + y[42] + y[71]
   + y[73] + y[94] - z[2672] >= 0
 R2673: y[12] + y[19] + y[26] + y[38] + y[44] + y[45] + y[46] + y[47]
   + y[56] + y[58] + y[67] + y[70] + y[74] + y[75] + y[78] + y[83] + y[87]
   - z[2673] >= 0
 R2674: y[8] + y[19] + y[22] + y[26] + y[29] + y[34] + y[38] + y[45]
   + y[46] + y[52] + y[58] + y[62] + y[74] + y[75] + y[87] + y[90]
   - z[2674] >= 0
 R2675: y[8] + y[12] + y[15] + y[22] + y[26] + y[38] + y[45] + y[46]
   + y[47] + y[61] + y[67] + y[70] + y[87] - z[2675] >= 0
 R2676: y[18] + y[19] + y[21] + y[26] + y[29] + y[44] + y[49] + y[50]
   + y[56] + y[62] + y[69] + y[74] + y[75] + y[78] + y[83] + y[84] + y[85]
   + y[90] + y[93] - z[2676] >= 0
 R2677: y[1] + y[98] - z[2677] >= 0
 R2678: y[5] + y[7] + y[9] + y[13] + y[25] + y[37] + y[42] + y[51] + y[53]
   + y[59] + y[63] + y[68] + y[76] + y[95] - z[2678] >= 0
 R2679: y[0] + y[15] + y[41] + y[82] - z[2679] >= 0
 R2680: y[10] + y[31] + y[40] + y[55] + y[60] + y[72] + y[79] + y[88]
   + y[89] + y[96] + y[99] - z[2680] >= 0
 R2681: y[5] + y[7] + y[9] + y[11] + y[13] + y[17] + y[51] + y[53] + y[64]
   + y[68] + y[95] - z[2681] >= 0
 R2682: y[2] + y[6] + y[20] + y[35] + y[36] + y[39] + y[48] + y[57] + y[72]
   + y[86] + y[88] + y[91] + y[92] + y[96] + y[98] - z[2682] >= 0
 R2683: y[1] + y[6] + y[20] + y[35] + y[36] + y[39] + y[57] + y[88] + y[91]
   + y[92] + y[98] - z[2683] >= 0
 R2684: y[4] + y[10] + y[28] + y[30] + y[31] + y[32] + y[33] + y[43]
   + y[49] + y[78] + y[81] + y[83] + y[89] - z[2684] >= 0
 R2685: y[11] + y[17] + y[64] + y[66] + y[77] + y[97] - z[2685] >= 0
 R2686: y[7] + y[16] + y[23] + y[25] + y[27] + y[33] + y[37] + y[42]
   + y[53] + y[59] + y[63] + y[73] + y[76] + y[80] + y[95] - z[2686] >= 0
 R2687: y[12] + y[19] + y[26] + y[38] + y[44] + y[45] + y[46] + y[47]
   + y[56] + y[58] + y[67] + y[69] + y[70] + y[74] + y[75] + y[78] + y[87]
   + y[90] - z[2687] >= 0
 R2688: y[18] + y[19] + y[26] + y[32] + y[38] + y[44] + y[47] + y[49]
   + y[56] + y[67] + y[69] + y[78] + y[81] + y[83] + y[85] + y[93]
   - z[2688] >= 0
 R2689: y[4] + y[10] + y[28] + y[30] + y[31] + y[32] + y[33] + y[43]
   + y[49] + y[78] + y[81] + y[83] + y[89] - z[2689] >= 0
 R2690: y[3] + y[40] + y[48] + y[60] + y[86] - z[2690] >= 0
 R2691: y[4] + y[12] + y[19] + y[26] + y[38] + y[44] + y[45] + y[46]
   + y[47] + y[67] + y[70] + y[78] + y[83] + y[87] - z[2691] >= 0
 R2692: y[10] + y[28] + y[31] + y[33] + y[43] + y[55] + y[59] + y[63]
   + y[79] + y[89] + y[99] - z[2692] >= 0
 R2693: y[18] + y[21] + y[29] + y[50] + y[69] + y[84] + y[85] + y[90]
   + y[93] - z[2693] >= 0
 R2694: y[0] + y[16] + y[23] + y[24] + y[25] + y[27] + y[37] + y[41]
   + y[42] + y[71] + y[73] + y[76] + y[80] + y[82] + y[94] - z[2694] >= 0
 R2695: y[10] + y[28] + y[31] + y[32] + y[33] + y[43] + y[55] + y[79]
   + y[81] + y[89] + y[96] + y[99] - z[2695] >= 0
 R2696: y[18] + y[21] + y[50] + y[69] + y[84] + y[85] + y[90] + y[93]
   - z[2696] >= 0
 R2697: y[7] + y[9] + y[13] + y[31] + y[33] + y[43] + y[51] + y[53] + y[55]
   + y[59] + y[63] + y[68] + y[79] + y[99] - z[2697] >= 0
 R2698: y[0] + y[41] - z[2698] >= 0
 R2699: y[31] + y[40] + y[54] + y[55] + y[60] + y[72] + y[79] + y[99]
   - z[2699] >= 0
 R2700: y[2] + y[4] + y[10] + y[28] + y[30] + y[31] + y[32] + y[33] + y[43]
   + y[49] + y[78] + y[81] + y[83] + y[89] - z[2700] >= 0
 R2701: y[2] + y[20] + y[32] + y[35] + y[36] + y[39] + y[49] + y[56]
   + y[57] + y[72] + y[78] + y[81] + y[83] + y[88] + y[96] - z[2701] >= 0
 R2702: y[18] + y[19] + y[21] + y[29] + y[44] + y[50] + y[56] + y[62]
   + y[69] + y[74] + y[75] + y[84] + y[85] + y[90] + y[93] - z[2702] >= 0
 R2703: y[2] + y[18] + y[21] + y[35] + y[36] + y[39] + y[50] + y[56]
   + y[69] + y[84] + y[85] + y[93] + y[98] - z[2703] >= 0
 R2704: y[12] + y[18] + y[19] + y[26] + y[38] + y[44] + y[47] + y[49]
   + y[56] + y[67] + y[69] + y[74] + y[75] + y[78] + y[81] + y[83] + y[85]
   + y[87] + y[90] + y[93] - z[2704] >= 0
 R2705: y[29] + y[34] + y[52] + y[62] + y[74] + y[75] + y[90] - z[2705]
   >= 0
 R2706: y[9] + y[10] + y[13] + y[28] + y[31] + y[33] + y[43] + y[55]
   + y[59] + y[63] + y[68] + y[79] + y[89] + y[99] - z[2706] >= 0
 R2707: y[10] + y[31] + y[55] + y[59] + y[60] + y[79] + y[89] + y[99]
   - z[2707] >= 0
 R2708: y[0] + y[16] + y[23] + y[24] + y[25] + y[27] + y[28] + y[30]
   + y[33] + y[37] + y[42] + y[43] + y[59] + y[63] + y[71] + y[73] + y[76]
   + y[80] + y[82] + y[94] - z[2708] >= 0
 R2709: y[16] + y[23] + y[24] + y[25] + y[27] + y[37] + y[42] + y[71]
   + y[73] + y[76] - z[2709] >= 0
 R2710: y[2] + y[10] + y[31] + y[32] + y[35] + y[49] + y[56] + y[78]
   + y[81] + y[83] + y[88] + y[89] + y[96] - z[2710] >= 0
 R2711: y[18] + y[21] + y[35] + y[36] + y[39] + y[50] + y[56] + y[69]
   + y[84] + y[85] + y[93] + y[98] - z[2711] >= 0
 R2712: y[29] + y[34] + y[52] + y[58] + y[62] + y[74] + y[75] + y[90]
   - z[2712] >= 0
 R2713: y[0] + y[16] + y[24] + y[27] + y[41] + y[71] - z[2713] >= 0
 R2714: y[7] + y[13] + y[23] + y[25] + y[28] + y[33] + y[37] + y[42]
   + y[43] + y[51] + y[53] + y[59] + y[63] + y[68] + y[76] + y[80] + y[95]
   - z[2714] >= 0
 R2715: y[2] + y[20] + y[35] + y[36] + y[39] + y[57] + y[88] + y[96]
   + y[98] - z[2715] >= 0
 R2716: y[18] + y[21] + y[50] + y[69] + y[84] + y[85] + y[90] + y[93]
   - z[2716] >= 0
 R2717: y[3] + y[9] + y[11] + y[13] + y[17] + y[40] + y[54] + y[55] + y[60]
   + y[66] + y[77] + y[79] + y[99] - z[2717] >= 0
 R2718: y[8] + y[19] + y[22] + y[26] + y[29] + y[34] + y[38] + y[45]
   + y[46] + y[52] + y[58] + y[62] + y[74] + y[75] + y[87] + y[90]
   - z[2718] >= 0
 R2719: y[4] + y[10] + y[28] + y[30] + y[31] + y[33] + y[43] + y[55]
   + y[59] + y[63] + y[80] + y[89] - z[2719] >= 0
 R2720: y[0] + y[4] + y[10] + y[15] + y[27] + y[28] + y[30] + y[31] + y[33]
   + y[43] + y[80] + y[82] + y[89] + y[94] - z[2720] >= 0
 R2721: y[2] + y[20] + y[32] + y[35] + y[36] + y[39] + y[48] + y[57]
   + y[72] + y[79] + y[86] + y[88] + y[96] - z[2721] >= 0
 R2722: y[1] + y[6] + y[14] + y[65] + y[92] - z[2722] >= 0
 R2723: y[0] + y[15] + y[70] + y[82] + y[94] - z[2723] >= 0
 R2724: y[0] + y[4] + y[10] + y[15] + y[16] + y[27] + y[28] + y[30] + y[31]
   + y[33] + y[43] + y[59] + y[63] + y[80] + y[82] + y[89] + y[94]
   - z[2724] >= 0
 R2725: y[3] + y[40] + y[54] + y[60] + y[66] + y[77] + y[99] - z[2725]
   >= 0
 R2726: y[18] + y[19] + y[26] + y[29] + y[44] + y[50] + y[52] + y[58]
   + y[62] + y[69] + y[74] + y[75] + y[85] + y[90] + y[93] - z[2726] >= 0
 R2727: y[3] + y[40] + y[48] + y[54] + y[55] + y[60] + y[72] + y[79]
   + y[86] + y[99] - z[2727] >= 0
 R2728: y[4] + y[10] + y[28] + y[31] + y[33] + y[43] + y[55] + y[59]
   + y[63] + y[79] + y[80] + y[89] - z[2728] >= 0
 R2729: y[18] + y[21] + y[50] + y[69] + y[84] + y[85] + y[93] - z[2729]
   >= 0
 R2730: y[5] + y[7] + y[9] + y[11] + y[13] + y[17] + y[51] + y[53] + y[64]
   + y[68] + y[95] - z[2730] >= 0
 R2731: y[3] + y[11] + y[17] + y[54] + y[64] + y[66] + y[77] + y[97]
   - z[2731] >= 0
 R2732: y[16] + y[23] + y[25] + y[27] + y[28] + y[30] + y[33] + y[37]
   + y[42] + y[43] + y[59] + y[63] + y[73] + y[76] + y[80] + y[94]
   - z[2732] >= 0
 R2733: y[1] + y[6] + y[14] + y[65] + y[91] + y[92] - z[2733] >= 0
 R2734: y[8] + y[12] + y[15] + y[22] + y[26] + y[38] + y[45] + y[46]
   + y[47] + y[61] + y[67] + y[70] + y[87] - z[2734] >= 0
 R2735: y[3] + y[40] + y[48] + y[60] + y[72] + y[86] + y[91] + y[99]
   - z[2735] >= 0
 R2736: y[0] + y[12] + y[15] + y[45] + y[46] + y[47] + y[61] + y[67]
   + y[70] + y[82] + y[87] - z[2736] >= 0
 R2737: y[4] + y[19] + y[26] + y[32] + y[44] + y[47] + y[49] + y[56]
   + y[67] + y[69] + y[78] + y[81] + y[83] + y[89] - z[2737] >= 0
 R2738: y[11] + y[17] + y[64] + y[66] + y[77] + y[97] - z[2738] >= 0
 R2739: y[0] + y[4] + y[10] + y[15] + y[27] + y[28] + y[30] + y[31] + y[33]
   + y[43] + y[80] + y[82] + y[89] + y[94] - z[2739] >= 0
 R2740: y[3] + y[9] + y[11] + y[13] + y[40] + y[54] + y[55] + y[60] + y[77]
   + y[79] + y[99] - z[2740] >= 0
 R2741: y[0] + y[15] + y[16] + y[27] + y[30] + y[41] + y[80] + y[82]
   + y[94] - z[2741] >= 0
 R2742: y[5] + y[7] + y[9] + y[11] + y[13] + y[17] + y[51] + y[53] + y[64]
   + y[68] + y[95] - z[2742] >= 0
 R2743: y[18] + y[21] + y[29] + y[50] + y[62] + y[69] + y[74] + y[75]
   + y[84] + y[85] + y[90] + y[93] - z[2743] >= 0
 R2744: y[3] + y[9] + y[11] + y[13] + y[17] + y[40] + y[54] + y[60] + y[64]
   + y[66] + y[77] + y[97] + y[99] - z[2744] >= 0
 R2745: y[18] + y[19] + y[26] + y[29] + y[44] + y[50] + y[52] + y[58]
   + y[62] + y[69] + y[74] + y[75] + y[85] + y[90] + y[93] - z[2745] >= 0
 R2746: y[8] + y[12] + y[22] + y[38] + y[45] + y[46] + y[47] + y[58]
   + y[61] + y[67] + y[70] + y[87] - z[2746] >= 0
 R2747: y[3] + y[5] + y[7] + y[9] + y[11] + y[13] + y[17] + y[51] + y[53]
   + y[54] + y[55] + y[60] + y[64] + y[68] + y[77] + y[97] + y[99]
   - z[2747] >= 0
 R2748: y[3] + y[40] + y[48] + y[54] + y[60] + y[72] + y[86] + y[99]
   - z[2748] >= 0
 R2749: y[1] + y[6] + y[14] + y[57] + y[65] + y[91] + y[92] - z[2749] >= 0
 R2750: y[16] + y[23] + y[24] + y[25] + y[27] + y[37] + y[41] + y[42]
   + y[71] + y[73] + y[76] - z[2750] >= 0
 R2751: y[18] + y[21] + y[36] + y[50] + y[56] + y[69] + y[84] + y[85]
   + y[93] - z[2751] >= 0
 R2752: y[4] + y[10] + y[28] + y[30] + y[31] + y[33] + y[43] + y[55]
   + y[59] + y[63] + y[80] + y[89] - z[2752] >= 0
 R2753: y[18] + y[19] + y[21] + y[29] + y[44] + y[50] + y[56] + y[69]
   + y[74] + y[75] + y[83] + y[84] + y[85] + y[90] + y[93] - z[2753] >= 0
 R2754: y[0] + y[4] + y[10] + y[15] + y[27] + y[28] + y[30] + y[33] + y[43]
   + y[47] + y[70] + y[80] + y[82] + y[89] + y[94] - z[2754] >= 0
 R2755: y[2] + y[20] + y[35] + y[36] + y[39] + y[57] + y[72] + y[88]
   + y[92] + y[96] + y[98] - z[2755] >= 0
 R2756: y[11] + y[17] + y[64] + y[66] + y[77] + y[97] - z[2756] >= 0
 R2757: y[8] + y[22] + y[34] + y[52] + y[58] + y[62] + y[74] + y[75]
   - z[2757] >= 0
 R2758: y[6] + y[20] + y[35] + y[36] + y[39] + y[48] + y[57] + y[72]
   + y[86] + y[88] + y[91] + y[92] + y[96] - z[2758] >= 0
 R2759: y[3] + y[40] + y[48] + y[54] + y[60] + y[72] + y[79] + y[86]
   + y[99] - z[2759] >= 0
 R2760: y[12] + y[18] + y[19] + y[26] + y[38] + y[44] + y[45] + y[47]
   + y[49] + y[56] + y[67] + y[69] + y[74] + y[75] + y[78] + y[81] + y[83]
   + y[85] + y[87] + y[90] + y[93] - z[2760] >= 0
 R2761: y[0] + y[16] + y[23] + y[24] + y[25] + y[27] + y[37] + y[41]
   + y[42] + y[71] + y[73] + y[76] + y[80] + y[82] + y[94] - z[2761] >= 0
 R2762: y[0] + y[4] + y[10] + y[15] + y[16] + y[27] + y[28] + y[30] + y[33]
   + y[43] + y[63] + y[80] + y[82] + y[89] + y[94] - z[2762] >= 0
 R2763: y[5] + y[7] + y[9] + y[11] + y[13] + y[17] + y[51] + y[53] + y[64]
   + y[68] + y[95] + y[97] - z[2763] >= 0
 R2764: y[3] + y[9] + y[11] + y[13] + y[17] + y[40] + y[54] + y[55] + y[60]
   + y[64] + y[66] + y[68] + y[77] + y[79] + y[99] - z[2764] >= 0
 R2765: y[18] + y[19] + y[26] + y[38] + y[44] + y[47] + y[49] + y[50]
   + y[56] + y[67] + y[69] + y[74] + y[75] + y[78] + y[81] + y[83] + y[85]
   + y[87] + y[90] + y[93] - z[2765] >= 0
 R2766: y[5] + y[7] + y[9] + y[13] + y[25] + y[37] + y[51] + y[53] + y[59]
   + y[63] + y[68] + y[76] + y[95] - z[2766] >= 0
 R2767: y[18] + y[19] + y[21] + y[44] + y[49] + y[50] + y[56] + y[69]
   + y[74] + y[75] + y[78] + y[81] + y[83] + y[84] + y[85] + y[90] + y[93]
   - z[2767] >= 0
 R2768: y[5] + y[7] + y[9] + y[11] + y[13] + y[17] + y[51] + y[53] + y[59]
   + y[68] + y[76] + y[95] - z[2768] >= 0
 R2769: y[2] + y[18] + y[21] + y[32] + y[35] + y[36] + y[44] + y[49]
   + y[50] + y[56] + y[69] + y[78] + y[81] + y[83] + y[84] + y[85] + y[90]
   + y[93] - z[2769] >= 0
 R2770: y[18] + y[21] + y[36] + y[39] + y[50] + y[69] + y[84] + y[85]
   + y[93] + y[98] - z[2770] >= 0
 R2771: y[3] + y[11] + y[17] + y[54] + y[64] + y[66] + y[77] + y[97]
   - z[2771] >= 0
 R2772: y[8] + y[12] + y[22] + y[38] + y[45] + y[46] + y[61] + y[67]
   + y[70] + y[87] - z[2772] >= 0
 R2773: y[16] + y[23] + y[24] + y[41] + y[42] + y[71] + y[73] - z[2773]
   >= 0
 R2774: y[18] + y[19] + y[21] + y[44] + y[49] + y[50] + y[56] + y[69]
   + y[75] + y[78] + y[81] + y[83] + y[84] + y[85] + y[90] + y[93]
   - z[2774] >= 0
 R2775: y[7] + y[13] + y[23] + y[25] + y[37] + y[42] + y[51] + y[53]
   + y[59] + y[63] + y[68] + y[73] + y[76] + y[95] - z[2775] >= 0
 R2776: y[8] + y[12] + y[19] + y[22] + y[26] + y[38] + y[44] + y[45]
   + y[46] + y[47] + y[58] + y[62] + y[67] + y[70] + y[74] + y[75] + y[87]
   + y[90] - z[2776] >= 0
 R2777: y[8] + y[12] + y[22] + y[34] + y[38] + y[45] + y[46] + y[58]
   + y[61] + y[87] - z[2777] >= 0
 R2778: y[40] + y[48] + y[60] + y[72] + y[79] + y[86] + y[88] + y[91]
   + y[96] + y[99] - z[2778] >= 0
 R2779: y[1] + y[2] + y[6] + y[20] + y[35] + y[36] + y[39] + y[57] + y[72]
   + y[88] + y[91] + y[92] + y[96] + y[98] - z[2779] >= 0
 R2780: y[2] + y[4] + y[10] + y[31] + y[32] + y[35] + y[49] + y[56] + y[78]
   + y[81] + y[83] + y[88] + y[89] + y[96] - z[2780] >= 0
 R2781: y[5] + y[7] + y[9] + y[11] + y[13] + y[17] + y[51] + y[53] + y[59]
   + y[68] + y[76] + y[95] - z[2781] >= 0
 R2782: y[5] + y[9] + y[11] + y[13] + y[17] + y[51] + y[64] + y[66] + y[68]
   + y[77] + y[97] - z[2782] >= 0
 R2783: y[16] + y[24] + y[41] + y[71] - z[2783] >= 0
 R2784: y[40] + y[48] + y[60] + y[72] + y[79] + y[86] + y[91] + y[96]
   + y[99] - z[2784] >= 0
 R2785: y[2] + y[4] + y[10] + y[26] + y[31] + y[32] + y[44] + y[47] + y[49]
   + y[56] + y[78] + y[81] + y[83] + y[89] - z[2785] >= 0
 R2786: y[3] + y[9] + y[40] + y[54] + y[55] + y[60] + y[72] + y[79] + y[99]
   - z[2786] >= 0
 R2787: y[3] + y[11] + y[40] + y[54] + y[60] + y[66] + y[77] + y[79]
   + y[99] - z[2787] >= 0
 R2788: y[18] + y[19] + y[26] + y[44] + y[49] + y[50] + y[56] + y[69]
   + y[74] + y[75] + y[78] + y[81] + y[83] + y[84] + y[85] + y[90] + y[93]
   - z[2788] >= 0
 R2789: y[5] + y[7] + y[9] + y[13] + y[25] + y[37] + y[51] + y[53] + y[59]
   + y[63] + y[68] + y[76] + y[95] - z[2789] >= 0
 R2790: y[8] + y[12] + y[19] + y[22] + y[26] + y[34] + y[38] + y[44]
   + y[45] + y[46] + y[47] + y[58] + y[61] + y[62] + y[67] + y[74] + y[75]
   + y[87] + y[90] - z[2790] >= 0
 R2791: y[7] + y[23] + y[25] + y[37] + y[42] + y[51] + y[53] + y[59]
   + y[63] + y[73] + y[76] + y[95] - z[2791] >= 0
 R2792: y[3] + y[9] + y[11] + y[13] + y[40] + y[54] + y[55] + y[60] + y[77]
   + y[79] + y[99] - z[2792] >= 0
 R2793: y[3] + y[40] + y[48] + y[54] + y[60] + y[72] + y[79] + y[86]
   + y[96] + y[99] - z[2793] >= 0
 R2794: y[12] + y[19] + y[26] + y[38] + y[44] + y[45] + y[46] + y[47]
   + y[67] + y[70] + y[87] - z[2794] >= 0
 R2795: y[8] + y[12] + y[19] + y[22] + y[26] + y[38] + y[45] + y[46]
   + y[47] + y[61] + y[67] + y[70] + y[87] - z[2795] >= 0
 R2796: y[2] + y[20] + y[32] + y[35] + y[36] + y[39] + y[49] + y[56]
   + y[57] + y[72] + y[78] + y[81] + y[83] + y[88] + y[96] - z[2796] >= 0
 R2797: y[1] + y[20] + y[35] + y[36] + y[39] + y[57] + y[88] + y[92]
   + y[98] - z[2797] >= 0
 R2798: y[3] + y[40] + y[48] + y[54] + y[60] + y[72] + y[79] + y[86]
   + y[91] + y[99] - z[2798] >= 0
 R2799: y[1] + y[6] + y[14] + y[65] + y[91] + y[92] - z[2799] >= 0
 R2800: y[2] + y[18] + y[19] + y[26] + y[32] + y[35] + y[44] + y[49]
   + y[56] + y[69] + y[78] + y[81] + y[83] + y[84] + y[85] + y[93]
   - z[2800] >= 0
 R2801: y[0] + y[15] + y[70] + y[82] - z[2801] >= 0
 R2802: y[5] + y[7] + y[9] + y[11] + y[13] + y[17] + y[51] + y[53] + y[54]
   + y[55] + y[59] + y[64] + y[68] + y[95] - z[2802] >= 0
 R2803: y[1] + y[6] + y[14] + y[65] + y[92] + y[98] - z[2803] >= 0
 R2804: y[11] + y[17] + y[64] + y[66] + y[77] + y[97] - z[2804] >= 0
 R2805: y[3] + y[40] + y[48] + y[54] + y[60] + y[72] + y[79] + y[86]
   + y[99] - z[2805] >= 0
 R2806: y[5] + y[7] + y[13] + y[23] + y[25] + y[37] + y[42] + y[51] + y[53]
   + y[59] + y[63] + y[68] + y[76] + y[95] - z[2806] >= 0
 R2807: y[0] + y[4] + y[10] + y[16] + y[27] + y[28] + y[30] + y[31] + y[33]
   + y[43] + y[59] + y[63] + y[80] + y[82] + y[89] + y[94] - z[2807] >= 0
 R2808: y[3] + y[9] + y[11] + y[13] + y[40] + y[54] + y[55] + y[60] + y[79]
   + y[99] - z[2808] >= 0
 R2809: y[3] + y[9] + y[11] + y[17] + y[40] + y[54] + y[60] + y[64] + y[66]
   + y[77] + y[97] - z[2809] >= 0
 R2810: y[1] + y[14] + y[39] + y[65] + y[98] - z[2810] >= 0
 R2811: y[5] + y[7] + y[9] + y[11] + y[13] + y[17] + y[37] + y[51] + y[53]
   + y[59] + y[63] + y[68] + y[76] + y[95] - z[2811] >= 0
 R2812: y[3] + y[40] + y[48] + y[54] + y[60] + y[66] + y[77] + y[86]
   + y[99] - z[2812] >= 0
 R2813: y[3] + y[40] + y[48] + y[54] + y[55] + y[60] + y[72] + y[77]
   + y[79] + y[86] + y[99] - z[2813] >= 0
 R2814: y[12] + y[18] + y[19] + y[26] + y[29] + y[38] + y[44] + y[45]
   + y[46] + y[47] + y[50] + y[58] + y[62] + y[67] + y[69] + y[74] + y[75]
   + y[85] + y[87] + y[90] + y[93] - z[2814] >= 0
 R2815: y[2] + y[18] + y[21] + y[35] + y[36] + y[44] + y[49] + y[50]
   + y[56] + y[69] + y[78] + y[81] + y[83] + y[84] + y[85] + y[90] + y[93]
   - z[2815] >= 0
 R2816: y[8] + y[12] + y[19] + y[22] + y[26] + y[38] + y[44] + y[45]
   + y[46] + y[47] + y[58] + y[61] + y[67] + y[70] + y[87] - z[2816] >= 0
 R2817: y[40] + y[48] + y[57] + y[60] + y[72] + y[79] + y[86] + y[88]
   + y[91] + y[96] + y[99] - z[2817] >= 0
 R2818: y[18] + y[21] + y[44] + y[50] + y[56] + y[69] + y[84] + y[85]
   + y[90] + y[93] - z[2818] >= 0
 R2819: y[6] + y[48] + y[57] + y[86] + y[91] + y[92] - z[2819] >= 0
 R2820: y[0] + y[12] + y[15] + y[30] + y[47] + y[67] + y[70] + y[82]
   + y[94] - z[2820] >= 0
 R2821: y[2] + y[18] + y[21] + y[32] + y[35] + y[36] + y[39] + y[44]
   + y[49] + y[50] + y[56] + y[69] + y[78] + y[81] + y[83] + y[84] + y[85]
   + y[93] - z[2821] >= 0
 R2822: y[8] + y[12] + y[19] + y[22] + y[26] + y[38] + y[45] + y[46]
   + y[47] + y[58] + y[61] + y[67] + y[70] + y[87] - z[2822] >= 0
 R2823: y[1] + y[6] + y[14] + y[65] + y[92] - z[2823] >= 0
 R2824: y[8] + y[19] + y[22] + y[26] + y[29] + y[34] + y[38] + y[45]
   + y[46] + y[52] + y[58] + y[62] + y[74] + y[75] + y[87] + y[90]
   - z[2824] >= 0
 R2825: y[1] + y[14] + y[20] + y[36] + y[39] + y[57] + y[65] + y[98]
   - z[2825] >= 0
 R2826: y[1] + y[6] + y[14] + y[65] + y[92] - z[2826] >= 0
 R2827: y[0] + y[4] + y[10] + y[15] + y[27] + y[28] + y[30] + y[43] + y[47]
   + y[67] + y[70] + y[80] + y[82] + y[94] - z[2827] >= 0
 R2828: y[1] + y[14] + y[20] + y[36] + y[39] + y[57] + y[65] + y[98]
   - z[2828] >= 0
 R2829: y[5] + y[7] + y[9] + y[11] + y[13] + y[17] + y[51] + y[53] + y[59]
   + y[64] + y[68] + y[95] - z[2829] >= 0
 R2830: y[1] + y[14] + y[65] - z[2830] >= 0
 R2831: y[5] + y[7] + y[9] + y[13] + y[25] + y[37] + y[51] + y[53] + y[55]
   + y[59] + y[63] + y[68] + y[76] + y[95] - z[2831] >= 0
 R2832: y[5] + y[7] + y[9] + y[11] + y[13] + y[17] + y[51] + y[53] + y[55]
   + y[59] + y[64] + y[68] + y[95] - z[2832] >= 0
 R2833: y[0] + y[15] + y[70] + y[82] - z[2833] >= 0
 R2834: y[41] + y[71] - z[2834] >= 0
 R2835: y[21] + y[84] + y[85] - z[2835] >= 0
 R2836: y[3] + y[5] + y[7] + y[9] + y[11] + y[13] + y[17] + y[51] + y[53]
   + y[54] + y[55] + y[60] + y[64] + y[68] + y[77] + y[97] + y[99]
   - z[2836] >= 0
 R2837: y[5] + y[9] + y[11] + y[13] + y[17] + y[51] + y[64] + y[68] + y[97]
   - z[2837] >= 0
 R2838: y[1] + y[6] + y[14] + y[20] + y[57] + y[65] + y[91] + y[92] + y[98]
   - z[2838] >= 0
 R2839: y[2] + y[20] + y[35] + y[36] + y[39] + y[57] + y[88] + y[98]
   - z[2839] >= 0
 R2840: y[5] + y[7] + y[9] + y[11] + y[13] + y[17] + y[51] + y[53] + y[64]
   + y[68] + y[95] - z[2840] >= 0
 R2841: y[3] + y[40] + y[48] + y[54] + y[60] + y[72] + y[79] + y[86]
   + y[99] - z[2841] >= 0
 R2842: y[1] + y[6] + y[20] + y[36] + y[39] + y[48] + y[57] + y[72] + y[86]
   + y[88] + y[91] + y[92] + y[96] + y[98] - z[2842] >= 0
 R2843: y[5] + y[7] + y[9] + y[11] + y[13] + y[17] + y[51] + y[53] + y[55]
   + y[59] + y[63] + y[68] + y[95] - z[2843] >= 0
 R2844: y[12] + y[19] + y[26] + y[38] + y[44] + y[45] + y[46] + y[47]
   + y[67] + y[70] + y[87] - z[2844] >= 0
 R2845: y[10] + y[28] + y[31] + y[33] + y[43] + y[55] + y[59] + y[63]
   + y[79] + y[89] + y[99] - z[2845] >= 0
 R2846: y[7] + y[13] + y[23] + y[25] + y[33] + y[37] + y[42] + y[51]
   + y[53] + y[59] + y[63] + y[68] + y[76] + y[95] - z[2846] >= 0
 R2847: y[0] + y[15] + y[16] + y[23] + y[24] + y[25] + y[27] + y[28]
   + y[30] + y[33] + y[37] + y[42] + y[71] + y[73] + y[80] + y[82] + y[94]
   - z[2847] >= 0
 R2848: y[7] + y[9] + y[13] + y[25] + y[33] + y[37] + y[51] + y[53] + y[55]
   + y[59] + y[63] + y[68] + y[76] + y[95] - z[2848] >= 0
 R2849: y[0] + y[4] + y[10] + y[15] + y[16] + y[23] + y[27] + y[28] + y[30]
   + y[33] + y[42] + y[43] + y[63] + y[80] + y[82] + y[94] - z[2849] >= 0
 R2850: y[12] + y[19] + y[26] + y[38] + y[44] + y[45] + y[46] + y[47]
   + y[49] + y[56] + y[67] + y[70] + y[78] + y[83] + y[87] - z[2850] >= 0
 R2851: y[1] + y[6] + y[14] + y[20] + y[36] + y[39] + y[57] + y[65] + y[92]
   + y[98] - z[2851] >= 0
 R2852: y[5] + y[9] + y[11] + y[17] + y[64] + y[66] + y[77] + y[97]
   - z[2852] >= 0
 R2853: y[6] + y[20] + y[48] + y[57] + y[72] + y[86] + y[88] + y[91]
   + y[92] + y[96] - z[2853] >= 0
 R2854: y[2] + y[18] + y[21] + y[35] + y[36] + y[44] + y[49] + y[50]
   + y[56] + y[69] + y[78] + y[81] + y[83] + y[84] + y[85] + y[90] + y[93]
   - z[2854] >= 0
 R2855: y[40] + y[48] + y[60] + y[72] + y[79] + y[86] + y[88] + y[91]
   + y[96] + y[99] - z[2855] >= 0
 R2856: y[3] + y[11] + y[17] + y[40] + y[54] + y[60] + y[64] + y[66]
   + y[77] + y[97] - z[2856] >= 0
 R2857: y[6] + y[20] + y[48] + y[57] + y[72] + y[86] + y[91] + y[92]
   - z[2857] >= 0
 R2858: y[1] + y[6] + y[20] + y[35] + y[36] + y[39] + y[48] + y[57] + y[86]
   + y[88] + y[91] + y[92] + y[96] + y[98] - z[2858] >= 0
 R2859: y[4] + y[10] + y[19] + y[26] + y[31] + y[32] + y[44] + y[47]
   + y[49] + y[56] + y[67] + y[78] + y[81] + y[83] + y[89] - z[2859] >= 0
 R2860: y[5] + y[11] + y[17] + y[64] + y[66] + y[77] + y[97] - z[2860]
   >= 0
 R2861: y[29] + y[34] + y[50] + y[52] + y[58] + y[62] + y[74] + y[75]
   + y[90] - z[2861] >= 0
 R2862: y[0] + y[12] + y[15] + y[47] + y[67] + y[70] + y[82] + y[94]
   - z[2862] >= 0
 R2863: y[10] + y[31] + y[32] + y[43] + y[55] + y[72] + y[79] + y[89]
   + y[96] + y[99] - z[2863] >= 0
 R2864: y[2] + y[20] + y[35] + y[36] + y[39] + y[48] + y[57] + y[72]
   + y[86] + y[88] + y[91] + y[92] + y[96] + y[98] - z[2864] >= 0
 R2865: y[18] + y[19] + y[21] + y[29] + y[44] + y[50] + y[52] + y[62]
   + y[69] + y[74] + y[75] + y[84] + y[85] + y[90] + y[93] - z[2865] >= 0
 R2866: y[1] + y[14] + y[39] + y[65] + y[98] - z[2866] >= 0
 R2867: y[11] + y[17] + y[64] + y[66] + y[77] + y[97] - z[2867] >= 0
 R2868: y[2] + y[20] + y[35] + y[36] + y[39] + y[48] + y[57] + y[72]
   + y[86] + y[88] + y[91] + y[92] + y[96] + y[98] - z[2868] >= 0
 R2869: y[18] + y[21] + y[36] + y[44] + y[49] + y[50] + y[56] + y[69]
   + y[83] + y[84] + y[85] + y[90] + y[93] - z[2869] >= 0
 R2870: y[0] + y[16] + y[23] + y[24] + y[25] + y[27] + y[28] + y[30]
   + y[33] + y[37] + y[42] + y[43] + y[59] + y[63] + y[71] + y[73] + y[76]
   + y[80] + y[82] + y[94] - z[2870] >= 0
 R2871: y[0] + y[4] + y[10] + y[15] + y[16] + y[23] + y[27] + y[28] + y[30]
   + y[31] + y[33] + y[43] + y[59] + y[63] + y[80] + y[82] + y[89] + y[94]
   - z[2871] >= 0
 R2872: y[3] + y[11] + y[40] + y[54] + y[60] + y[66] + y[77] + y[99]
   - z[2872] >= 0
 R2873: y[0] + y[15] + y[41] + y[82] - z[2873] >= 0
 R2874: y[1] + y[6] + y[14] + y[20] + y[39] + y[48] + y[57] + y[65] + y[86]
   + y[91] + y[92] + y[98] - z[2874] >= 0
 R2875: y[3] + y[40] + y[54] + y[55] + y[60] + y[72] + y[79] + y[86]
   + y[99] - z[2875] >= 0
 R2876: y[18] + y[19] + y[26] + y[29] + y[44] + y[49] + y[50] + y[56]
   + y[62] + y[69] + y[74] + y[75] + y[78] + y[83] + y[84] + y[85] + y[90]
   + y[93] - z[2876] >= 0
 R2877: y[18] + y[19] + y[29] + y[34] + y[44] + y[50] + y[52] + y[58]
   + y[62] + y[74] + y[75] + y[90] + y[93] - z[2877] >= 0
 R2878: y[0] + y[4] + y[10] + y[15] + y[27] + y[28] + y[30] + y[31] + y[33]
   + y[43] + y[47] + y[80] + y[82] + y[89] + y[94] - z[2878] >= 0
 R2879: y[8] + y[12] + y[19] + y[22] + y[26] + y[29] + y[34] + y[38]
   + y[44] + y[45] + y[46] + y[52] + y[58] + y[62] + y[74] + y[75] + y[87]
   + y[90] - z[2879] >= 0
 R2880: y[5] + y[7] + y[9] + y[11] + y[13] + y[17] + y[51] + y[53] + y[64]
   + y[68] + y[95] - z[2880] >= 0
 R2881: y[3] + y[40] + y[48] + y[54] + y[60] + y[77] + y[86] - z[2881]
   >= 0
 R2882: y[2] + y[4] + y[10] + y[28] + y[31] + y[32] + y[43] + y[49] + y[78]
   + y[81] + y[83] + y[89] + y[96] - z[2882] >= 0
 R2883: y[29] + y[34] + y[50] + y[52] + y[62] + y[74] + y[75] + y[90]
   + y[93] - z[2883] >= 0
 R2884: y[3] + y[9] + y[11] + y[13] + y[17] + y[40] + y[53] + y[54] + y[55]
   + y[60] + y[64] + y[66] + y[68] + y[77] + y[97] + y[99] - z[2884] >= 0
 R2885: y[2] + y[18] + y[19] + y[26] + y[32] + y[44] + y[47] + y[49]
   + y[56] + y[69] + y[78] + y[81] + y[83] + y[85] + y[93] - z[2885] >= 0
 R2886: y[3] + y[9] + y[11] + y[17] + y[54] + y[64] + y[66] + y[77] + y[97]
   - z[2886] >= 0
 R2887: y[2] + y[18] + y[19] + y[21] + y[32] + y[35] + y[36] + y[44]
   + y[49] + y[50] + y[56] + y[69] + y[78] + y[81] + y[83] + y[84] + y[85]
   + y[90] + y[93] - z[2887] >= 0
 R2888: y[29] + y[34] + y[52] + y[58] + y[62] + y[74] + y[75] + y[90]
   - z[2888] >= 0
 R2889: y[2] + y[31] + y[32] + y[35] + y[55] + y[72] + y[79] + y[88]
   + y[89] + y[96] + y[99] - z[2889] >= 0
 R2890: y[1] + y[14] + y[65] + y[98] - z[2890] >= 0
 R2891: y[40] + y[54] + y[55] + y[60] + y[72] + y[79] + y[99] - z[2891]
   >= 0
 R2892: y[0] + y[15] + y[16] + y[23] + y[24] + y[25] + y[27] + y[28]
   + y[30] + y[33] + y[37] + y[42] + y[43] + y[63] + y[71] + y[73] + y[80]
   + y[82] + y[94] - z[2892] >= 0
 R2893: y[21] + y[36] + y[39] + y[98] - z[2893] >= 0
 R2894: y[2] + y[20] + y[35] + y[36] + y[39] + y[48] + y[57] + y[72]
   + y[79] + y[86] + y[88] + y[91] + y[92] + y[96] - z[2894] >= 0
 R2895: y[2] + y[20] + y[35] + y[36] + y[39] + y[57] + y[88] + y[96]
   + y[98] - z[2895] >= 0
 R2896: y[0] + y[4] + y[12] + y[15] + y[30] + y[47] + y[67] + y[70] + y[82]
   + y[87] + y[94] - z[2896] >= 0
 R2897: y[6] + y[48] + y[57] + y[72] + y[86] + y[91] + y[92] - z[2897]
   >= 0
 R2898: y[2] + y[20] + y[32] + y[35] + y[36] + y[39] + y[49] + y[56]
   + y[78] + y[81] + y[83] + y[88] + y[96] - z[2898] >= 0
 R2899: y[3] + y[5] + y[9] + y[11] + y[13] + y[17] + y[54] + y[64] + y[66]
   + y[68] + y[77] + y[97] - z[2899] >= 0
 R2900: y[3] + y[9] + y[11] + y[40] + y[54] + y[55] + y[60] + y[72] + y[79]
   + y[99] - z[2900] >= 0
 R2901: y[10] + y[13] + y[25] + y[28] + y[31] + y[33] + y[37] + y[43]
   + y[55] + y[59] + y[63] + y[80] + y[89] - z[2901] >= 0
 R2902: y[8] + y[12] + y[22] + y[26] + y[34] + y[38] + y[45] + y[46]
   + y[58] + y[61] + y[67] + y[70] + y[87] - z[2902] >= 0
 R2903: y[21] + y[36] + y[39] + y[84] + y[98] - z[2903] >= 0
 R2904: y[7] + y[16] + y[23] + y[25] + y[27] + y[33] + y[37] + y[42]
   + y[53] + y[59] + y[63] + y[73] + y[76] + y[80] + y[95] - z[2904] >= 0
 R2905: y[0] + y[15] + y[41] + y[82] + y[94] - z[2905] >= 0
 R2906: y[9] + y[10] + y[13] + y[31] + y[33] + y[55] + y[59] + y[63]
   + y[79] + y[89] + y[99] - z[2906] >= 0
 R2907: y[2] + y[18] + y[21] + y[35] + y[36] + y[39] + y[49] + y[56]
   + y[69] + y[78] + y[81] + y[83] + y[84] + y[85] + y[93] + y[98]
   - z[2907] >= 0
 R2908: y[1] + y[20] + y[36] + y[39] + y[98] - z[2908] >= 0
 R2909: y[7] + y[9] + y[13] + y[25] + y[33] + y[37] + y[51] + y[53] + y[55]
   + y[59] + y[63] + y[68] + y[76] + y[95] - z[2909] >= 0
 R2910: y[3] + y[40] + y[48] + y[54] + y[60] + y[72] + y[86] - z[2910]
   >= 0
 R2911: y[3] + y[9] + y[11] + y[17] + y[54] + y[64] + y[66] + y[77] + y[97]
   - z[2911] >= 0
 R2912: y[5] + y[7] + y[9] + y[11] + y[13] + y[17] + y[51] + y[53] + y[54]
   + y[64] + y[68] + y[77] + y[95] + y[97] - z[2912] >= 0
 R2913: y[1] + y[6] + y[14] + y[20] + y[36] + y[39] + y[57] + y[65] + y[92]
   + y[98] - z[2913] >= 0
 R2914: y[3] + y[40] + y[54] + y[60] + y[66] + y[77] - z[2914] >= 0
 R2915: y[2] + y[20] + y[32] + y[35] + y[36] + y[39] + y[48] + y[57]
   + y[72] + y[86] + y[88] + y[91] + y[92] + y[96] - z[2915] >= 0
 R2916: y[1] + y[6] + y[14] + y[20] + y[48] + y[57] + y[65] + y[86] + y[91]
   + y[92] - z[2916] >= 0
 R2917: y[10] + y[23] + y[25] + y[27] + y[28] + y[33] + y[37] + y[42]
   + y[43] + y[53] + y[59] + y[63] + y[76] + y[80] - z[2917] >= 0
 R2918: y[29] + y[34] + y[50] + y[52] + y[58] + y[62] + y[74] + y[75]
   + y[90] - z[2918] >= 0
 R2919: y[24] + y[41] + y[71] - z[2919] >= 0
 R2920: y[4] + y[19] + y[26] + y[32] + y[38] + y[44] + y[47] + y[49]
   + y[56] + y[67] + y[78] + y[81] + y[83] - z[2920] >= 0
 R2921: y[3] + y[9] + y[11] + y[17] + y[54] + y[64] + y[66] + y[77] + y[97]
   - z[2921] >= 0
 R2922: y[1] + y[14] + y[65] - z[2922] >= 0
 R2923: y[3] + y[40] + y[48] + y[54] + y[60] + y[72] + y[79] + y[86]
   + y[99] - z[2923] >= 0
 R2924: y[2] + y[20] + y[32] + y[35] + y[36] + y[39] + y[49] + y[57]
   + y[72] + y[78] + y[81] + y[83] + y[88] + y[96] - z[2924] >= 0
 R2925: y[0] + y[12] + y[15] + y[47] + y[67] + y[70] + y[82] + y[94]
   - z[2925] >= 0
 R2926: y[2] + y[20] + y[31] + y[32] + y[35] + y[36] + y[49] + y[72]
   + y[78] + y[79] + y[81] + y[83] + y[88] + y[89] + y[96] - z[2926] >= 0
 R2927: y[5] + y[7] + y[9] + y[11] + y[13] + y[17] + y[51] + y[53] + y[64]
   + y[68] + y[95] - z[2927] >= 0
 R2928: y[3] + y[40] + y[48] + y[54] + y[60] + y[72] + y[77] + y[79]
   + y[86] + y[99] - z[2928] >= 0
 R2929: y[40] + y[48] + y[55] + y[60] + y[72] + y[79] + y[86] + y[88]
   + y[96] + y[99] - z[2929] >= 0
 R2930: y[8] + y[19] + y[22] + y[26] + y[29] + y[34] + y[38] + y[44]
   + y[45] + y[50] + y[52] + y[58] + y[62] + y[74] + y[75] + y[87] + y[90]
   - z[2930] >= 0
 R2931: y[10] + y[31] + y[32] + y[43] + y[55] + y[79] + y[89] + y[96]
   + y[99] - z[2931] >= 0
 R2932: y[5] + y[7] + y[9] + y[13] + y[17] + y[25] + y[37] + y[51] + y[53]
   + y[59] + y[68] + y[76] + y[95] - z[2932] >= 0
 R2933: y[11] + y[17] + y[64] + y[66] + y[77] + y[97] - z[2933] >= 0
 R2934: y[8] + y[12] + y[19] + y[22] + y[26] + y[29] + y[34] + y[38]
   + y[44] + y[45] + y[46] + y[50] + y[52] + y[58] + y[62] + y[67] + y[74]
   + y[75] + y[87] + y[90] + y[93] - z[2934] >= 0
 R2935: y[16] + y[23] + y[24] + y[25] + y[37] + y[42] + y[71] + y[73]
   + y[76] - z[2935] >= 0
 R2936: y[0] + y[12] + y[15] + y[38] + y[45] + y[46] + y[47] + y[61]
   + y[67] + y[70] + y[82] + y[87] - z[2936] >= 0
 R2937: y[4] + y[10] + y[27] + y[28] + y[30] + y[31] + y[33] + y[43]
   + y[59] + y[63] + y[80] + y[89] + y[94] - z[2937] >= 0
 R2938: y[5] + y[7] + y[9] + y[11] + y[13] + y[17] + y[51] + y[53] + y[64]
   + y[68] + y[95] + y[97] - z[2938] >= 0
 R2939: y[9] + y[11] + y[13] + y[40] + y[54] + y[55] + y[60] + y[68]
   + y[79] + y[99] - z[2939] >= 0
 R2940: y[40] + y[54] + y[55] + y[60] + y[72] + y[79] + y[99] - z[2940]
   >= 0
 R2941: y[1] + y[6] + y[14] + y[57] + y[65] + y[91] + y[92] - z[2941] >= 0
 R2942: y[3] + y[9] + y[11] + y[40] + y[54] + y[55] + y[60] + y[66] + y[77]
   + y[79] + y[99] - z[2942] >= 0
 R2943: y[2] + y[20] + y[35] + y[36] + y[39] + y[48] + y[57] + y[72]
   + y[86] + y[88] + y[91] + y[92] + y[96] - z[2943] >= 0
 R2944: y[8] + y[12] + y[19] + y[22] + y[26] + y[38] + y[44] + y[45]
   + y[46] + y[47] + y[58] + y[61] + y[67] + y[70] + y[74] + y[75] + y[87]
   + y[90] - z[2944] >= 0
 R2945: y[4] + y[10] + y[28] + y[31] + y[32] + y[33] + y[43] + y[55]
   + y[79] + y[81] + y[89] - z[2945] >= 0
 R2946: y[3] + y[9] + y[11] + y[13] + y[40] + y[54] + y[55] + y[60] + y[66]
   + y[77] + y[99] - z[2946] >= 0
 R2947: y[0] + y[16] + y[23] + y[24] + y[25] + y[27] + y[33] + y[37]
   + y[42] + y[63] + y[71] + y[73] + y[76] + y[80] + y[94] - z[2947] >= 0
 R2948: y[0] + y[4] + y[12] + y[15] + y[30] + y[38] + y[47] + y[67] + y[70]
   + y[82] + y[87] + y[94] - z[2948] >= 0
 R2949: y[0] + y[4] + y[15] + y[16] + y[27] + y[28] + y[30] + y[33] + y[43]
   + y[80] + y[82] + y[94] - z[2949] >= 0
 R2950: y[0] + y[4] + y[10] + y[15] + y[27] + y[28] + y[30] + y[33] + y[43]
   + y[80] + y[82] + y[89] + y[94] - z[2950] >= 0
 R2951: y[6] + y[20] + y[48] + y[57] + y[72] + y[86] + y[88] + y[91]
   + y[92] + y[96] - z[2951] >= 0
 R2952: y[3] + y[40] + y[48] + y[54] + y[60] + y[72] + y[77] + y[86]
   + y[99] - z[2952] >= 0
 R2953: y[4] + y[10] + y[27] + y[28] + y[30] + y[31] + y[33] + y[43]
   + y[55] + y[59] + y[63] + y[80] + y[89] - z[2953] >= 0
 R2954: y[2] + y[20] + y[32] + y[35] + y[36] + y[39] + y[49] + y[56]
   + y[57] + y[72] + y[78] + y[81] + y[83] + y[88] + y[96] - z[2954] >= 0
 R2955: y[0] + y[41] - z[2955] >= 0
 R2956: y[0] + y[15] + y[82] - z[2956] >= 0
 R2957: y[98] - z[2957] >= 0
 R2958: y[20] + y[35] + y[36] + y[39] + y[57] + y[98] - z[2958] >= 0
 R2959: y[4] + y[10] + y[28] + y[31] + y[33] + y[43] + y[55] + y[59]
   + y[63] + y[79] + y[89] - z[2959] >= 0
 R2960: y[1] + y[6] + y[14] + y[20] + y[36] + y[39] + y[57] + y[65] + y[91]
   + y[92] + y[98] - z[2960] >= 0
 R2961: y[16] + y[24] + y[41] + y[71] - z[2961] >= 0
 R2962: y[8] + y[12] + y[19] + y[22] + y[26] + y[38] + y[44] + y[45]
   + y[46] + y[47] + y[58] + y[67] + y[70] + y[74] + y[75] + y[87]
   - z[2962] >= 0
 R2963: y[0] + y[12] + y[15] + y[47] + y[67] + y[70] + y[82] + y[94]
   - z[2963] >= 0
 R2964: y[31] + y[40] + y[55] + y[60] + y[72] + y[79] + y[88] + y[96]
   + y[99] - z[2964] >= 0
 R2965: y[3] + y[11] + y[40] + y[54] + y[55] + y[60] + y[72] + y[77]
   + y[79] + y[99] - z[2965] >= 0
 R2966: y[1] + y[14] + y[65] - z[2966] >= 0
 R2967: y[2] + y[18] + y[19] + y[26] + y[32] + y[44] + y[47] + y[49]
   + y[56] + y[69] + y[78] + y[81] + y[83] + y[85] + y[93] - z[2967] >= 0
 R2968: y[1] + y[6] + y[14] + y[65] + y[92] - z[2968] >= 0
 R2969: y[18] + y[21] + y[35] + y[36] + y[39] + y[69] + y[84] + y[85]
   + y[98] - z[2969] >= 0
 R2970: y[8] + y[12] + y[22] + y[38] + y[45] + y[46] + y[47] + y[61]
   + y[67] + y[70] + y[87] - z[2970] >= 0
 R2971: y[6] + y[20] + y[48] + y[57] + y[72] + y[86] + y[91] + y[92]
   - z[2971] >= 0
 R2972: y[5] + y[7] + y[9] + y[13] + y[17] + y[25] + y[37] + y[51] + y[53]
   + y[59] + y[63] + y[68] + y[76] + y[95] - z[2972] >= 0
 R2973: y[6] + y[40] + y[48] + y[60] + y[72] + y[86] + y[91] + y[92]
   - z[2973] >= 0
 R2974: y[3] + y[11] + y[40] + y[54] + y[60] + y[66] + y[77] + y[97]
   + y[99] - z[2974] >= 0
 R2975: y[0] + y[12] + y[15] + y[38] + y[45] + y[46] + y[47] + y[61]
   + y[67] + y[70] + y[82] + y[87] - z[2975] >= 0
 R2976: y[2] + y[18] + y[20] + y[32] + y[35] + y[36] + y[39] + y[49]
   + y[56] + y[69] + y[78] + y[81] + y[83] + y[84] + y[85] + y[88] + y[96]
   - z[2976] >= 0
 R2977: y[16] + y[23] + y[25] + y[27] + y[28] + y[30] + y[33] + y[37]
   + y[42] + y[43] + y[59] + y[63] + y[71] + y[73] + y[76] + y[80] + y[94]
   - z[2977] >= 0
 R2978: y[2] + y[20] + y[32] + y[35] + y[36] + y[39] + y[49] + y[56]
   + y[57] + y[81] + y[83] + y[84] + y[85] + y[88] + y[96] + y[98]
   - z[2978] >= 0
 R2979: y[0] + y[4] + y[12] + y[15] + y[26] + y[30] + y[38] + y[45] + y[46]
   + y[47] + y[67] + y[70] + y[82] + y[87] + y[94] - z[2979] >= 0
 R2980: y[3] + y[9] + y[11] + y[40] + y[54] + y[55] + y[60] + y[66] + y[77]
   + y[99] - z[2980] >= 0
 R2981: y[16] + y[23] + y[24] + y[25] + y[37] + y[42] + y[71] + y[73]
   + y[76] - z[2981] >= 0
 R2982: y[2] + y[20] + y[35] + y[36] + y[39] + y[57] + y[88] + y[98]
   - z[2982] >= 0
 R2983: y[2] + y[20] + y[35] + y[36] + y[39] + y[48] + y[57] + y[72]
   + y[86] + y[88] + y[91] + y[92] + y[96] - z[2983] >= 0
 R2984: y[2] + y[31] + y[32] + y[35] + y[36] + y[49] + y[56] + y[78]
   + y[81] + y[83] + y[88] + y[89] + y[96] - z[2984] >= 0
 R2985: y[0] + y[15] + y[16] + y[27] + y[30] + y[80] + y[82] + y[94]
   - z[2985] >= 0
 R2986: y[6] + y[40] + y[48] + y[57] + y[60] + y[72] + y[86] + y[91]
   + y[92] - z[2986] >= 0
 R2987: y[5] + y[7] + y[9] + y[11] + y[13] + y[17] + y[51] + y[53] + y[59]
   + y[68] + y[76] + y[95] - z[2987] >= 0
 R2988: y[2] + y[10] + y[31] + y[32] + y[35] + y[55] + y[72] + y[79]
   + y[81] + y[88] + y[89] + y[96] + y[99] - z[2988] >= 0
 R2989: y[2] + y[20] + y[35] + y[40] + y[48] + y[57] + y[60] + y[72]
   + y[79] + y[86] + y[88] + y[91] + y[92] + y[96] + y[99] - z[2989] >= 0
 R2990: y[8] + y[12] + y[22] + y[38] + y[45] + y[46] + y[47] + y[61]
   + y[67] + y[70] + y[87] - z[2990] >= 0
 R2991: y[18] + y[19] + y[26] + y[29] + y[44] + y[50] + y[52] + y[56]
   + y[62] + y[69] + y[74] + y[75] + y[84] + y[85] + y[90] + y[93]
   - z[2991] >= 0
 R2992: y[8] + y[12] + y[22] + y[38] + y[45] + y[46] + y[47] + y[58]
   + y[61] + y[67] + y[70] + y[87] - z[2992] >= 0
 R2993: y[18] + y[19] + y[26] + y[32] + y[38] + y[44] + y[47] + y[49]
   + y[56] + y[67] + y[69] + y[78] + y[81] + y[83] + y[85] + y[93]
   - z[2993] >= 0
 R2994: y[8] + y[12] + y[19] + y[22] + y[26] + y[38] + y[44] + y[45]
   + y[46] + y[47] + y[58] + y[61] + y[67] + y[70] + y[87] - z[2994] >= 0
 R2995: y[6] + y[40] + y[48] + y[60] + y[72] + y[86] + y[91] + y[92]
   - z[2995] >= 0
 R2996: y[21] + y[84] - z[2996] >= 0
 R2997: y[3] + y[5] + y[9] + y[11] + y[13] + y[17] + y[51] + y[53] + y[54]
   + y[64] + y[66] + y[68] + y[77] + y[97] - z[2997] >= 0
 R2998: y[3] + y[9] + y[11] + y[13] + y[17] + y[40] + y[51] + y[53] + y[54]
   + y[55] + y[60] + y[64] + y[66] + y[68] + y[77] + y[97] + y[99]
   - z[2998] >= 0
 R2999: y[20] + y[40] + y[48] + y[57] + y[60] + y[72] + y[79] + y[86]
   + y[88] + y[91] + y[92] + y[96] + y[99] - z[2999] >= 0
 R3000: y[3] + y[9] + y[11] + y[40] + y[54] + y[55] + y[60] + y[66] + y[77]
   + y[79] + y[99] - z[3000] >= 0
 R3001: y[1] + y[14] + y[65] + y[98] - z[3001] >= 0
 R3002: y[8] + y[12] + y[22] + y[26] + y[34] + y[38] + y[45] + y[46]
   + y[58] + y[61] + y[67] + y[74] + y[75] + y[87] - z[3002] >= 0
 R3003: y[4] + y[12] + y[15] + y[26] + y[30] + y[38] + y[45] + y[46]
   + y[47] + y[67] + y[70] + y[82] + y[87] - z[3003] >= 0
 R3004: y[8] + y[12] + y[19] + y[22] + y[26] + y[38] + y[45] + y[46]
   + y[47] + y[58] + y[61] + y[67] + y[70] + y[87] - z[3004] >= 0
 R3005: y[29] + y[34] + y[50] + y[52] + y[62] + y[74] + y[75] + y[90]
   + y[93] - z[3005] >= 0
 R3006: y[5] + y[7] + y[9] + y[11] + y[13] + y[17] + y[51] + y[53] + y[54]
   + y[64] + y[66] + y[68] + y[77] + y[97] - z[3006] >= 0
 R3007: y[31] + y[40] + y[55] + y[60] + y[72] + y[79] + y[88] + y[96]
   + y[99] - z[3007] >= 0
 R3008: y[8] + y[19] + y[22] + y[26] + y[29] + y[34] + y[38] + y[45]
   + y[46] + y[52] + y[58] + y[62] + y[74] + y[75] + y[87] + y[90]
   - z[3008] >= 0
 R3009: y[7] + y[23] + y[24] + y[25] + y[37] + y[42] + y[53] + y[59]
   + y[63] + y[73] + y[76] + y[95] - z[3009] >= 0
 R3010: y[9] + y[10] + y[13] + y[28] + y[31] + y[33] + y[43] + y[53]
   + y[55] + y[59] + y[63] + y[68] + y[89] - z[3010] >= 0
 R3011: y[0] + y[4] + y[15] + y[16] + y[27] + y[28] + y[30] + y[33] + y[43]
   + y[80] + y[82] + y[94] - z[3011] >= 0
 R3012: y[7] + y[13] + y[23] + y[25] + y[37] + y[42] + y[51] + y[53]
   + y[59] + y[63] + y[68] + y[73] + y[76] + y[95] - z[3012] >= 0
 R3013: y[16] + y[23] + y[24] + y[25] + y[27] + y[37] + y[42] + y[71]
   + y[73] + y[76] - z[3013] >= 0
 R3014: y[9] + y[10] + y[13] + y[31] + y[33] + y[43] + y[55] + y[59]
   + y[63] + y[68] + y[79] + y[89] + y[99] - z[3014] >= 0
 R3015: y[5] + y[7] + y[9] + y[13] + y[17] + y[25] + y[37] + y[51] + y[53]
   + y[59] + y[63] + y[68] + y[76] + y[95] - z[3015] >= 0
 R3016: y[0] + y[12] + y[15] + y[46] + y[47] + y[61] + y[67] + y[70]
   + y[82] - z[3016] >= 0
 R3017: y[0] + y[12] + y[15] + y[26] + y[38] + y[45] + y[46] + y[47]
   + y[61] + y[67] + y[70] + y[82] + y[87] + y[94] - z[3017] >= 0
 R3018: y[41] - z[3018] >= 0
 R3019: y[3] + y[40] + y[54] + y[55] + y[60] + y[72] + y[79] + y[99]
   - z[3019] >= 0
 R3020: y[16] + y[23] + y[24] + y[25] + y[27] + y[37] + y[42] + y[63]
   + y[71] + y[73] + y[76] - z[3020] >= 0
 R3021: y[29] + y[34] + y[50] + y[52] + y[58] + y[62] + y[74] + y[75]
   + y[90] + y[93] - z[3021] >= 0
 R3022: y[16] + y[23] + y[24] + y[25] + y[27] + y[28] + y[33] + y[37]
   + y[42] + y[43] + y[59] + y[63] + y[71] + y[73] + y[76] + y[80]
   - z[3022] >= 0
 R3023: y[1] + y[6] + y[14] + y[65] + y[91] + y[92] - z[3023] >= 0
 R3024: y[40] + y[48] + y[60] + y[72] + y[86] + y[91] + y[92] + y[99]
   - z[3024] >= 0
 R3025: y[3] + y[40] + y[48] + y[54] + y[55] + y[60] + y[72] + y[79]
   + y[86] + y[99] - z[3025] >= 0
 R3026: y[40] + y[48] + y[54] + y[55] + y[60] + y[72] + y[79] + y[86]
   + y[96] + y[99] - z[3026] >= 0
 R3027: y[5] + y[7] + y[23] + y[25] + y[37] + y[42] + y[51] + y[53] + y[59]
   + y[63] + y[68] + y[73] + y[76] + y[95] - z[3027] >= 0
 R3028: y[0] + y[15] + y[41] + y[82] + y[94] - z[3028] >= 0
 R3029: y[2] + y[18] + y[20] + y[21] + y[35] + y[36] + y[39] + y[49]
   + y[56] + y[69] + y[78] + y[81] + y[83] + y[84] + y[85] + y[88] + y[98]
   - z[3029] >= 0
 R3030: y[6] + y[20] + y[48] + y[57] + y[72] + y[86] + y[91] + y[92]
   - z[3030] >= 0
 R3031: y[0] + y[16] + y[24] + y[27] + y[41] + y[71] + y[82] - z[3031]
   >= 0
 R3032: y[21] + y[36] + y[39] + y[98] - z[3032] >= 0
 R3033: y[0] + y[15] + y[41] + y[82] + y[94] - z[3033] >= 0
 R3034: y[2] + y[20] + y[32] + y[35] + y[36] + y[39] + y[49] + y[56]
   + y[57] + y[72] + y[78] + y[81] + y[83] + y[88] + y[96] - z[3034] >= 0
 R3035: y[1] + y[20] + y[35] + y[36] + y[39] + y[57] + y[92] + y[98]
   - z[3035] >= 0
 R3036: y[1] + y[14] + y[39] + y[65] + y[98] - z[3036] >= 0
 R3037: y[29] + y[34] + y[52] + y[58] + y[62] + y[74] + y[75] + y[90]
   - z[3037] >= 0
 R3038: y[3] + y[5] + y[9] + y[11] + y[13] + y[17] + y[40] + y[51] + y[53]
   + y[54] + y[55] + y[60] + y[64] + y[66] + y[68] + y[77] + y[97] + y[99]
   - z[3038] >= 0
 R3039: y[5] + y[7] + y[9] + y[11] + y[13] + y[17] + y[51] + y[53] + y[64]
   + y[68] + y[95] - z[3039] >= 0
 R3040: y[2] + y[18] + y[32] + y[35] + y[36] + y[44] + y[49] + y[56]
   + y[69] + y[78] + y[81] + y[83] + y[85] + y[88] + y[93] - z[3040] >= 0
 R3041: y[0] + y[12] + y[15] + y[38] + y[45] + y[46] + y[47] + y[61]
   + y[67] + y[70] + y[82] + y[87] - z[3041] >= 0
 R3042: y[7] + y[10] + y[13] + y[23] + y[25] + y[28] + y[33] + y[37]
   + y[42] + y[43] + y[53] + y[55] + y[59] + y[63] + y[68] + y[76] + y[80]
   + y[95] - z[3042] >= 0
 R3043: y[2] + y[31] + y[32] + y[35] + y[44] + y[49] + y[56] + y[69]
   + y[78] + y[81] + y[83] + y[85] + y[88] + y[89] + y[96] - z[3043] >= 0
 R3044: y[2] + y[4] + y[10] + y[31] + y[32] + y[44] + y[47] + y[49] + y[56]
   + y[78] + y[81] + y[83] + y[89] - z[3044] >= 0
 R3045: y[16] + y[23] + y[24] + y[25] + y[37] + y[41] + y[42] + y[71]
   + y[73] - z[3045] >= 0
 R3046: y[0] + y[4] + y[15] + y[16] + y[27] + y[28] + y[30] + y[80] + y[82]
   + y[94] - z[3046] >= 0
 R3047: y[0] + y[4] + y[10] + y[15] + y[16] + y[27] + y[28] + y[30] + y[33]
   + y[43] + y[80] + y[82] + y[94] - z[3047] >= 0
 R3048: y[2] + y[20] + y[21] + y[35] + y[36] + y[39] + y[84] + y[85]
   + y[98] - z[3048] >= 0
 R3049: y[4] + y[10] + y[28] + y[30] + y[31] + y[33] + y[43] + y[55]
   + y[59] + y[63] + y[79] + y[80] + y[89] - z[3049] >= 0
 R3050: y[0] + y[15] + y[16] + y[24] + y[27] + y[30] + y[41] + y[71]
   + y[80] + y[82] + y[94] - z[3050] >= 0
 R3051: y[0] + y[15] + y[16] + y[27] + y[30] + y[41] + y[80] + y[82]
   + y[94] - z[3051] >= 0
 R3052: y[29] + y[34] + y[50] + y[52] + y[58] + y[62] + y[74] + y[75]
   + y[90] + y[93] - z[3052] >= 0
 R3053: y[0] + y[15] + y[16] + y[27] + y[41] + y[82] + y[94] - z[3053]
   >= 0
 R3054: y[18] + y[21] + y[29] + y[50] + y[52] + y[62] + y[69] + y[74]
   + y[75] + y[84] + y[85] + y[90] + y[93] - z[3054] >= 0
 R3055: y[2] + y[20] + y[35] + y[36] + y[39] + y[57] + y[84] + y[88]
   + y[98] - z[3055] >= 0
 R3056: y[18] + y[19] + y[26] + y[29] + y[38] + y[44] + y[49] + y[50]
   + y[56] + y[62] + y[69] + y[74] + y[75] + y[78] + y[83] + y[84] + y[85]
   + y[90] + y[93] - z[3056] >= 0
 R3057: y[1] + y[6] + y[14] + y[48] + y[57] + y[65] + y[91] + y[92]
   - z[3057] >= 0
 R3058: y[18] + y[19] + y[21] + y[26] + y[29] + y[44] + y[49] + y[50]
   + y[56] + y[62] + y[69] + y[74] + y[75] + y[78] + y[83] + y[84] + y[85]
   + y[90] + y[93] - z[3058] >= 0
 R3059: y[4] + y[10] + y[15] + y[28] + y[30] + y[31] + y[32] + y[33]
   + y[43] + y[47] + y[49] + y[78] + y[80] + y[81] + y[82] + y[83] + y[89]
   + y[94] - z[3059] >= 0
 R3060: y[2] + y[18] + y[21] + y[32] + y[35] + y[36] + y[44] + y[49]
   + y[50] + y[56] + y[69] + y[78] + y[81] + y[83] + y[84] + y[85] + y[93]
   - z[3060] >= 0
 R3061: y[8] + y[12] + y[22] + y[26] + y[38] + y[45] + y[46] + y[47]
   + y[58] + y[61] + y[67] + y[70] + y[87] - z[3061] >= 0
 R3062: y[6] + y[48] + y[57] + y[86] + y[91] + y[92] - z[3062] >= 0
 R3063: y[4] + y[10] + y[28] + y[30] + y[31] + y[33] + y[43] + y[55]
   + y[59] + y[63] + y[79] + y[80] + y[89] - z[3063] >= 0
 R3064: y[2] + y[20] + y[32] + y[35] + y[48] + y[72] + y[79] + y[86]
   + y[88] + y[96] + y[99] - z[3064] >= 0
 R3065: y[5] + y[7] + y[9] + y[11] + y[13] + y[17] + y[51] + y[53] + y[64]
   + y[68] + y[95] + y[97] - z[3065] >= 0
 R3066: y[18] + y[19] + y[26] + y[29] + y[44] + y[50] + y[52] + y[58]
   + y[62] + y[69] + y[74] + y[75] + y[84] + y[85] + y[90] + y[93]
   - z[3066] >= 0
 R3067: y[1] + y[14] + y[20] + y[39] + y[57] + y[65] + y[98] - z[3067]
   >= 0
 R3068: y[0] + y[4] + y[12] + y[15] + y[30] + y[47] + y[67] + y[70] + y[82]
   + y[94] - z[3068] >= 0
 R3069: y[18] + y[21] + y[29] + y[44] + y[50] + y[56] + y[62] + y[69]
   + y[74] + y[75] + y[84] + y[85] + y[90] + y[93] - z[3069] >= 0
 R3070: y[40] + y[48] + y[55] + y[60] + y[72] + y[79] + y[86] + y[88]
   + y[96] + y[99] - z[3070] >= 0
 R3071: y[16] + y[23] + y[24] + y[25] + y[37] + y[42] + y[71] + y[73]
   + y[76] - z[3071] >= 0
 R3072: y[5] + y[7] + y[9] + y[11] + y[13] + y[17] + y[51] + y[53] + y[64]
   + y[68] + y[95] + y[97] - z[3072] >= 0
 R3073: y[3] + y[9] + y[11] + y[17] + y[40] + y[54] + y[60] + y[64] + y[66]
   + y[77] + y[97] + y[99] - z[3073] >= 0
 R3074: y[5] + y[7] + y[9] + y[11] + y[13] + y[17] + y[51] + y[53] + y[64]
   + y[68] + y[95] - z[3074] >= 0
 R3075: y[3] + y[9] + y[11] + y[17] + y[40] + y[54] + y[60] + y[64] + y[66]
   + y[77] + y[97] + y[99] - z[3075] >= 0
 R3076: y[3] + y[9] + y[11] + y[13] + y[17] + y[40] + y[54] + y[60] + y[64]
   + y[66] + y[68] + y[77] + y[97] + y[99] - z[3076] >= 0
 R3077: y[1] + y[14] + y[65] + y[98] - z[3077] >= 0
 R3078: y[18] + y[19] + y[26] + y[29] + y[44] + y[50] + y[56] + y[62]
   + y[69] + y[74] + y[75] + y[83] + y[84] + y[85] + y[90] + y[93]
   - z[3078] >= 0
 R3079: y[0] + y[4] + y[10] + y[15] + y[27] + y[28] + y[30] + y[31] + y[33]
   + y[43] + y[63] + y[80] + y[82] + y[89] + y[94] - z[3079] >= 0
 R3080: y[18] + y[21] + y[29] + y[50] + y[62] + y[69] + y[75] + y[84]
   + y[85] + y[90] + y[93] - z[3080] >= 0
 R3081: y[5] + y[9] + y[11] + y[13] + y[17] + y[51] + y[53] + y[54] + y[64]
   + y[66] + y[68] + y[77] + y[97] - z[3081] >= 0
 R3082: y[8] + y[12] + y[22] + y[38] + y[45] + y[46] + y[47] + y[58]
   + y[61] + y[67] + y[70] + y[87] - z[3082] >= 0
 R3083: y[8] + y[12] + y[22] + y[26] + y[38] + y[45] + y[46] + y[47]
   + y[58] + y[61] + y[67] + y[70] + y[87] - z[3083] >= 0
 R3084: y[7] + y[9] + y[13] + y[25] + y[28] + y[33] + y[37] + y[43] + y[51]
   + y[53] + y[55] + y[59] + y[63] + y[68] + y[76] + y[80] + y[95]
   - z[3084] >= 0
 R3085: y[31] + y[40] + y[55] + y[60] + y[72] + y[79] + y[96] + y[99]
   - z[3085] >= 0
 R3086: y[4] + y[10] + y[16] + y[23] + y[25] + y[27] + y[28] + y[30]
   + y[31] + y[33] + y[37] + y[42] + y[43] + y[59] + y[63] + y[80] + y[89]
   + y[94] - z[3086] >= 0
 R3087: y[18] + y[21] + y[29] + y[50] + y[52] + y[62] + y[69] + y[74]
   + y[75] + y[84] + y[85] + y[90] + y[93] - z[3087] >= 0
 R3088: y[0] + y[15] + y[16] + y[23] + y[24] + y[27] + y[30] + y[41]
   + y[42] + y[71] + y[73] + y[80] + y[82] + y[94] - z[3088] >= 0
 R3089: y[0] + y[15] + y[16] + y[23] + y[24] + y[25] + y[27] + y[28]
   + y[30] + y[33] + y[37] + y[42] + y[43] + y[63] + y[71] + y[73] + y[76]
   + y[80] + y[82] + y[94] - z[3089] >= 0
 R3090: y[18] + y[21] + y[29] + y[50] + y[69] + y[84] + y[85] + y[90]
   + y[93] - z[3090] >= 0
 R3091: y[0] + y[15] + y[16] + y[24] + y[27] + y[41] + y[71] + y[82]
   + y[94] - z[3091] >= 0
 R3092: y[0] + y[15] + y[16] + y[27] + y[30] + y[41] + y[80] + y[82]
   + y[94] - z[3092] >= 0
 R3093: y[29] + y[34] + y[52] + y[58] + y[62] + y[74] + y[75] + y[90]
   - z[3093] >= 0
 R3094: y[0] + y[4] + y[10] + y[15] + y[28] + y[30] + y[31] + y[43] + y[47]
   + y[67] + y[70] + y[80] + y[82] + y[89] + y[94] - z[3094] >= 0
 R3095: y[4] + y[10] + y[28] + y[30] + y[31] + y[32] + y[33] + y[43]
   + y[49] + y[78] + y[80] + y[81] + y[83] + y[89] - z[3095] >= 0
 R3096: y[2] + y[20] + y[32] + y[35] + y[36] + y[39] + y[49] + y[56]
   + y[78] + y[81] + y[83] + y[88] + y[96] - z[3096] >= 0
 R3097: y[0] + y[4] + y[15] + y[16] + y[27] + y[28] + y[30] + y[33] + y[43]
   + y[80] + y[82] + y[94] - z[3097] >= 0
 R3098: y[6] + y[40] + y[48] + y[57] + y[60] + y[72] + y[86] + y[91]
   + y[92] - z[3098] >= 0
 R3099: y[3] + y[9] + y[11] + y[13] + y[40] + y[54] + y[55] + y[60] + y[77]
   + y[79] + y[99] - z[3099] >= 0
 R3100: y[40] + y[54] + y[55] + y[60] + y[72] + y[79] + y[96] + y[99]
   - z[3100] >= 0
 R3101: y[2] + y[31] + y[32] + y[40] + y[55] + y[60] + y[72] + y[79]
   + y[88] + y[89] + y[96] + y[99] - z[3101] >= 0
 R3102: y[16] + y[23] + y[25] + y[27] + y[28] + y[33] + y[37] + y[42]
   + y[43] + y[59] + y[63] + y[73] + y[76] + y[80] + y[95] - z[3102] >= 0
 R3103: y[18] + y[21] + y[29] + y[50] + y[62] + y[69] + y[74] + y[75]
   + y[84] + y[85] + y[90] + y[93] - z[3103] >= 0
 R3104: y[8] + y[12] + y[19] + y[22] + y[26] + y[38] + y[44] + y[45]
   + y[46] + y[47] + y[58] + y[61] + y[67] + y[70] + y[74] + y[75] + y[87]
   - z[3104] >= 0
 R3105: y[2] + y[20] + y[32] + y[35] + y[36] + y[39] + y[49] + y[56]
   + y[78] + y[81] + y[83] + y[88] + y[96] - z[3105] >= 0
 R3106: y[6] + y[20] + y[48] + y[57] + y[72] + y[86] + y[88] + y[91]
   + y[92] + y[96] - z[3106] >= 0
 R3107: y[6] + y[20] + y[48] + y[57] + y[72] + y[86] + y[91] + y[92]
   - z[3107] >= 0
 R3108: y[21] + y[98] - z[3108] >= 0
 R3109: y[18] + y[21] + y[50] + y[69] + y[84] + y[85] + y[93] - z[3109]
   >= 0
 R3110: y[18] + y[21] + y[50] + y[69] + y[84] + y[85] + y[90] + y[93]
   - z[3110] >= 0
 R3111: y[20] + y[21] + y[35] + y[36] + y[39] + y[84] + y[98] - z[3111]
   >= 0
 R3112: y[29] + y[34] + y[50] + y[52] + y[62] + y[74] + y[75] + y[90]
   - z[3112] >= 0
 R3113: y[18] + y[21] + y[35] + y[36] + y[39] + y[69] + y[84] + y[85]
   + y[98] - z[3113] >= 0
 R3114: y[16] + y[23] + y[24] + y[41] + y[42] + y[71] + y[73] - z[3114]
   >= 0
 R3115: y[4] + y[10] + y[27] + y[28] + y[30] + y[31] + y[33] + y[43]
   + y[59] + y[63] + y[80] + y[89] + y[94] - z[3115] >= 0
 R3116: y[1] + y[6] + y[14] + y[20] + y[36] + y[39] + y[57] + y[65] + y[92]
   + y[98] - z[3116] >= 0
 R3117: y[41] - z[3117] >= 0
 R3118: y[0] + y[15] + y[16] + y[27] + y[41] + y[82] + y[94] - z[3118]
   >= 0
 R3119: y[3] + y[40] + y[48] + y[54] + y[60] + y[72] + y[77] + y[79]
   + y[86] + y[99] - z[3119] >= 0
 R3120: y[0] + y[15] + y[41] + y[82] - z[3120] >= 0
 R3121: y[3] + y[40] + y[48] + y[54] + y[60] + y[72] + y[86] + y[99]
   - z[3121] >= 0
 R3122: y[19] + y[26] + y[29] + y[34] + y[38] + y[44] + y[50] + y[52]
   + y[58] + y[62] + y[74] + y[75] + y[87] + y[90] - z[3122] >= 0
 R3123: y[1] + y[6] + y[14] + y[20] + y[36] + y[39] + y[57] + y[65] + y[91]
   + y[92] + y[98] - z[3123] >= 0
 R3124: y[1] + y[6] + y[14] + y[20] + y[35] + y[36] + y[39] + y[57] + y[65]
   + y[91] + y[92] + y[98] - z[3124] >= 0
 R3125: y[3] + y[9] + y[11] + y[13] + y[40] + y[54] + y[55] + y[60] + y[68]
   + y[77] + y[79] + y[99] - z[3125] >= 0
 R3126: y[0] + y[15] + y[16] + y[27] + y[30] + y[41] + y[71] + y[80]
   + y[82] + y[94] - z[3126] >= 0
 R3127: y[0] + y[4] + y[15] + y[27] + y[28] + y[30] + y[43] + y[70] + y[80]
   + y[82] + y[94] - z[3127] >= 0
 R3128: y[0] + y[4] + y[10] + y[15] + y[16] + y[27] + y[28] + y[30] + y[33]
   + y[43] + y[80] + y[82] + y[94] - z[3128] >= 0
 R3129: y[18] + y[19] + y[21] + y[26] + y[44] + y[49] + y[50] + y[56]
   + y[69] + y[74] + y[75] + y[78] + y[81] + y[83] + y[84] + y[85] + y[90]
   + y[93] - z[3129] >= 0
 R3130: y[0] + y[12] + y[15] + y[46] + y[47] + y[67] + y[70] + y[82]
   + y[94] - z[3130] >= 0
 R3131: y[18] + y[19] + y[21] + y[26] + y[29] + y[44] + y[50] + y[56]
   + y[62] + y[69] + y[74] + y[75] + y[84] + y[85] + y[90] + y[93]
   - z[3131] >= 0
 R3132: y[1] + y[6] + y[14] + y[65] - z[3132] >= 0
 R3133: y[0] + y[15] + y[27] + y[30] + y[70] + y[80] + y[82] + y[94]
   - z[3133] >= 0
 R3134: y[5] + y[7] + y[9] + y[11] + y[13] + y[17] + y[51] + y[53] + y[64]
   + y[68] + y[95] + y[97] - z[3134] >= 0
 R3135: y[16] + y[23] + y[24] + y[25] + y[37] + y[42] + y[71] + y[73]
   + y[76] - z[3135] >= 0
 R3136: y[2] + y[18] + y[32] + y[35] + y[36] + y[44] + y[49] + y[50]
   + y[56] + y[69] + y[78] + y[81] + y[83] + y[84] + y[85] + y[93]
   - z[3136] >= 0
 R3137: y[7] + y[9] + y[13] + y[33] + y[51] + y[53] + y[55] + y[59] + y[63]
   + y[68] + y[79] + y[95] - z[3137] >= 0
 R3138: y[8] + y[12] + y[22] + y[38] + y[45] + y[46] + y[47] + y[58]
   + y[61] + y[67] + y[70] + y[87] - z[3138] >= 0
 R3139: y[4] + y[10] + y[28] + y[30] + y[31] + y[32] + y[33] + y[43]
   + y[80] + y[89] + y[94] - z[3139] >= 0
 R3140: y[1] + y[2] + y[20] + y[35] + y[36] + y[39] + y[57] + y[88] + y[92]
   + y[98] - z[3140] >= 0
 R3141: y[0] + y[41] - z[3141] >= 0
 R3142: y[18] + y[21] + y[36] + y[39] + y[50] + y[56] + y[69] + y[84]
   + y[85] + y[93] + y[98] - z[3142] >= 0
 R3143: y[0] + y[4] + y[15] + y[16] + y[27] + y[28] + y[30] + y[43] + y[80]
   + y[82] + y[94] - z[3143] >= 0
 R3144: y[8] + y[12] + y[22] + y[26] + y[34] + y[38] + y[45] + y[46]
   + y[58] + y[61] + y[62] + y[74] + y[75] + y[87] - z[3144] >= 0
 R3145: y[8] + y[12] + y[19] + y[22] + y[26] + y[38] + y[44] + y[45]
   + y[46] + y[47] + y[61] + y[67] + y[70] + y[87] - z[3145] >= 0
 R3146: y[16] + y[23] + y[25] + y[27] + y[28] + y[33] + y[37] + y[42]
   + y[43] + y[59] + y[63] + y[73] + y[76] + y[80] + y[95] - z[3146] >= 0
 R3147: y[8] + y[12] + y[15] + y[22] + y[26] + y[38] + y[45] + y[46]
   + y[47] + y[61] + y[67] + y[70] + y[87] - z[3147] >= 0
 R3148: y[3] + y[40] + y[48] + y[54] + y[60] + y[72] + y[77] + y[79]
   + y[86] + y[99] - z[3148] >= 0
 R3149: y[4] + y[10] + y[23] + y[25] + y[27] + y[28] + y[30] + y[31]
   + y[33] + y[37] + y[42] + y[43] + y[59] + y[63] + y[76] + y[80] + y[89]
   - z[3149] >= 0
 R3150: y[12] + y[19] + y[26] + y[38] + y[44] + y[45] + y[46] + y[47]
   + y[49] + y[56] + y[67] + y[70] + y[78] + y[83] + y[87] - z[3150] >= 0
 R3151: y[18] + y[19] + y[21] + y[26] + y[29] + y[44] + y[49] + y[50]
   + y[56] + y[62] + y[69] + y[74] + y[75] + y[78] + y[83] + y[84] + y[85]
   + y[90] + y[93] - z[3151] >= 0
 R3152: y[8] + y[12] + y[22] + y[26] + y[34] + y[38] + y[45] + y[46]
   + y[58] + y[61] + y[67] + y[74] + y[75] + y[87] - z[3152] >= 0
 R3153: y[18] + y[21] + y[29] + y[44] + y[50] + y[62] + y[69] + y[74]
   + y[75] + y[84] + y[85] + y[90] + y[93] - z[3153] >= 0
 R3154: y[16] + y[23] + y[24] + y[25] + y[27] + y[37] + y[42] + y[59]
   + y[63] + y[71] + y[73] + y[76] - z[3154] >= 0
 R3155: y[1] + y[6] + y[14] + y[20] + y[39] + y[48] + y[57] + y[65] + y[86]
   + y[91] + y[92] + y[98] - z[3155] >= 0
 R3156: y[11] + y[17] + y[64] + y[66] + y[77] + y[97] - z[3156] >= 0
 R3157: y[1] + y[6] + y[14] + y[65] + y[92] - z[3157] >= 0
 R3158: y[0] + y[4] + y[12] + y[15] + y[30] + y[38] + y[45] + y[46] + y[47]
   + y[67] + y[70] + y[82] + y[87] + y[94] - z[3158] >= 0
 R3159: y[0] + y[15] + y[16] + y[23] + y[24] + y[25] + y[27] + y[30]
   + y[41] + y[42] + y[71] + y[73] + y[80] + y[82] + y[94] - z[3159] >= 0
 R3160: y[3] + y[5] + y[9] + y[11] + y[13] + y[17] + y[40] + y[51] + y[53]
   + y[54] + y[55] + y[60] + y[64] + y[68] + y[77] + y[97] + y[99]
   - z[3160] >= 0
 R3161: y[4] + y[10] + y[15] + y[28] + y[30] + y[31] + y[32] + y[33]
   + y[43] + y[78] + y[80] + y[82] + y[89] + y[94] - z[3161] >= 0
 R3162: y[3] + y[11] + y[40] + y[54] + y[64] + y[66] + y[77] + y[97]
   - z[3162] >= 0
 R3163: y[2] + y[10] + y[31] + y[32] + y[55] + y[72] + y[79] + y[81]
   + y[88] + y[89] + y[96] + y[99] - z[3163] >= 0
 R3164: y[1] + y[20] + y[35] + y[36] + y[39] + y[57] + y[98] - z[3164]
   >= 0
 R3165: y[7] + y[16] + y[23] + y[25] + y[37] + y[42] + y[51] + y[53]
   + y[59] + y[63] + y[73] + y[76] + y[95] - z[3165] >= 0
 R3166: y[1] + y[14] + y[65] + y[98] - z[3166] >= 0
 R3167: y[1] + y[2] + y[20] + y[35] + y[36] + y[39] + y[57] + y[88] + y[92]
   + y[96] + y[98] - z[3167] >= 0
 R3168: y[1] + y[20] + y[36] + y[39] + y[57] + y[98] - z[3168] >= 0
 R3169: y[11] + y[17] + y[64] + y[66] + y[77] + y[97] - z[3169] >= 0
 R3170: y[5] + y[9] + y[11] + y[13] + y[17] + y[54] + y[64] + y[66] + y[68]
   + y[77] + y[97] - z[3170] >= 0
 R3171: y[19] + y[26] + y[29] + y[34] + y[38] + y[44] + y[45] + y[50]
   + y[52] + y[58] + y[62] + y[74] + y[75] + y[87] + y[90] + y[93]
   - z[3171] >= 0
 R3172: y[1] + y[6] + y[20] + y[35] + y[36] + y[39] + y[57] + y[88] + y[91]
   + y[92] + y[96] + y[98] - z[3172] >= 0
 R3173: y[16] + y[23] + y[24] + y[25] + y[27] + y[37] + y[41] + y[42]
   + y[71] + y[73] + y[76] - z[3173] >= 0
 R3174: y[18] + y[19] + y[29] + y[44] + y[50] + y[52] + y[62] + y[69]
   + y[74] + y[75] + y[84] + y[85] + y[90] + y[93] - z[3174] >= 0
 R3175: y[0] + y[12] + y[15] + y[22] + y[38] + y[45] + y[46] + y[47]
   + y[61] + y[67] + y[70] + y[82] + y[87] - z[3175] >= 0
 R3176: y[11] + y[17] + y[64] + y[66] + y[77] + y[97] - z[3176] >= 0
 R3177: y[0] + y[4] + y[12] + y[15] + y[26] + y[30] + y[38] + y[47] + y[67]
   + y[70] + y[82] + y[87] + y[94] - z[3177] >= 0
 R3178: y[1] + y[6] + y[14] + y[65] + y[92] - z[3178] >= 0
 R3179: y[1] + y[20] + y[36] + y[39] + y[57] + y[92] + y[98] - z[3179]
   >= 0
 R3180: y[6] + y[20] + y[48] + y[57] + y[72] + y[86] + y[91] + y[92]
   - z[3180] >= 0
 R3181: y[5] + y[7] + y[9] + y[11] + y[13] + y[17] + y[51] + y[53] + y[55]
   + y[59] + y[63] + y[68] + y[95] + y[99] - z[3181] >= 0
 R3182: y[1] + y[6] + y[14] + y[65] + y[91] + y[92] - z[3182] >= 0
 R3183: y[40] + y[54] + y[55] + y[60] + y[72] + y[79] + y[99] - z[3183]
   >= 0
 R3184: y[2] + y[18] + y[19] + y[32] + y[35] + y[36] + y[44] + y[49]
   + y[56] + y[69] + y[78] + y[81] + y[83] + y[84] + y[85] + y[93]
   - z[3184] >= 0
 R3185: y[6] + y[20] + y[35] + y[36] + y[39] + y[48] + y[57] + y[72]
   + y[86] + y[88] + y[91] + y[92] + y[96] - z[3185] >= 0
 R3186: y[4] + y[10] + y[28] + y[30] + y[31] + y[33] + y[43] + y[55]
   + y[59] + y[63] + y[79] + y[80] + y[89] - z[3186] >= 0
 R3187: y[29] + y[34] + y[52] + y[58] + y[62] + y[74] + y[75] + y[90]
   - z[3187] >= 0
 R3188: y[0] + y[15] + y[41] + y[82] - z[3188] >= 0
 R3189: y[0] + y[4] + y[15] + y[27] + y[30] + y[70] + y[80] + y[82] + y[94]
   - z[3189] >= 0
 R3190: y[3] + y[9] + y[11] + y[13] + y[40] + y[54] + y[55] + y[60] + y[66]
   + y[77] + y[79] + y[99] - z[3190] >= 0
 R3191: y[0] + y[4] + y[10] + y[15] + y[16] + y[23] + y[27] + y[28] + y[30]
   + y[33] + y[42] + y[43] + y[63] + y[80] + y[82] + y[94] - z[3191] >= 0
 R3192: y[1] + y[6] + y[20] + y[35] + y[36] + y[39] + y[57] + y[88] + y[91]
   + y[92] + y[96] + y[98] - z[3192] >= 0
 R3193: y[2] + y[20] + y[31] + y[32] + y[35] + y[48] + y[72] + y[79]
   + y[81] + y[86] + y[88] + y[96] + y[99] - z[3193] >= 0
 R3194: y[2] + y[18] + y[19] + y[26] + y[32] + y[44] + y[49] + y[50]
   + y[56] + y[69] + y[78] + y[81] + y[83] + y[84] + y[85] + y[90] + y[93]
   - z[3194] >= 0
 R3195: y[4] + y[10] + y[15] + y[27] + y[28] + y[30] + y[31] + y[33]
   + y[43] + y[80] + y[82] + y[89] + y[94] - z[3195] >= 0
 R3196: y[9] + y[10] + y[13] + y[28] + y[31] + y[33] + y[43] + y[55]
   + y[59] + y[63] + y[79] + y[89] + y[99] - z[3196] >= 0
 R3197: y[24] + y[41] + y[71] - z[3197] >= 0
 R3198: y[2] + y[4] + y[10] + y[19] + y[26] + y[31] + y[32] + y[44] + y[47]
   + y[49] + y[56] + y[78] + y[81] + y[83] + y[89] - z[3198] >= 0
 R3199: y[18] + y[19] + y[26] + y[29] + y[38] + y[44] + y[50] + y[56]
   + y[62] + y[69] + y[74] + y[75] + y[84] + y[85] + y[90] + y[93]
   - z[3199] >= 0
 R3200: y[18] + y[21] + y[36] + y[44] + y[49] + y[50] + y[56] + y[69]
   + y[83] + y[84] + y[85] + y[90] + y[93] - z[3200] >= 0
 R3201: y[16] + y[23] + y[24] + y[27] + y[41] + y[42] + y[71] + y[73]
   - z[3201] >= 0
 R3202: y[29] + y[34] + y[52] + y[58] + y[62] - z[3202] >= 0
 R3203: y[0] + y[15] + y[16] + y[23] + y[27] + y[28] + y[30] + y[33]
   + y[42] + y[43] + y[71] + y[80] + y[82] + y[94] - z[3203] >= 0
 R3204: y[5] + y[7] + y[9] + y[13] + y[25] + y[37] + y[51] + y[53] + y[59]
   + y[63] + y[68] + y[76] + y[95] - z[3204] >= 0
 R3205: y[0] + y[4] + y[10] + y[15] + y[27] + y[28] + y[30] + y[31] + y[33]
   + y[43] + y[80] + y[82] + y[89] + y[94] - z[3205] >= 0
 R3206: y[31] + y[40] + y[55] + y[60] + y[72] + y[79] + y[88] + y[89]
   + y[96] + y[99] - z[3206] >= 0
 R3207: y[8] + y[12] + y[19] + y[22] + y[26] + y[38] + y[44] + y[45]
   + y[46] + y[47] + y[58] + y[61] + y[67] + y[70] + y[74] + y[75] + y[87]
   - z[3207] >= 0
 R3208: y[0] + y[4] + y[12] + y[15] + y[30] + y[47] + y[67] + y[70] + y[80]
   + y[82] + y[94] - z[3208] >= 0
 R3209: y[19] + y[26] + y[29] + y[34] + y[38] + y[44] + y[50] + y[52]
   + y[58] + y[62] + y[74] + y[75] + y[90] + y[93] - z[3209] >= 0
 R3210: y[4] + y[12] + y[19] + y[26] + y[38] + y[44] + y[45] + y[46]
   + y[47] + y[49] + y[67] + y[70] + y[78] + y[83] + y[87] - z[3210] >= 0
 R3211: y[40] + y[48] + y[60] + y[72] + y[86] + y[91] + y[92] + y[99]
   - z[3211] >= 0
 R3212: y[18] + y[21] + y[35] + y[36] + y[39] + y[56] + y[69] + y[84]
   + y[85] + y[93] + y[98] - z[3212] >= 0
 R3213: y[18] + y[21] + y[29] + y[50] + y[69] + y[84] + y[85] + y[90]
   + y[93] - z[3213] >= 0
 R3214: y[1] + y[14] + y[39] + y[65] + y[98] - z[3214] >= 0
 R3215: y[6] + y[20] + y[35] + y[36] + y[39] + y[48] + y[57] + y[72]
   + y[86] + y[88] + y[91] + y[92] + y[96] + y[98] - z[3215] >= 0
 R3216: y[3] + y[9] + y[11] + y[13] + y[17] + y[40] + y[54] + y[55] + y[60]
   + y[64] + y[66] + y[68] + y[77] + y[97] + y[99] - z[3216] >= 0
 R3217: y[18] + y[19] + y[29] + y[34] + y[44] + y[50] + y[52] + y[62]
   + y[69] + y[74] + y[75] + y[90] + y[93] - z[3217] >= 0
 R3218: y[18] + y[19] + y[26] + y[29] + y[34] + y[38] + y[44] + y[50]
   + y[52] + y[58] + y[62] + y[74] + y[75] + y[87] + y[90] + y[93]
   - z[3218] >= 0
 R3219: y[3] + y[40] + y[48] + y[54] + y[60] + y[72] + y[86] + y[99]
   - z[3219] >= 0
 R3220: y[1] + y[6] + y[14] + y[20] + y[36] + y[39] + y[48] + y[57] + y[65]
   + y[86] + y[91] + y[92] + y[98] - z[3220] >= 0
 R3221: y[0] + y[15] + y[16] + y[27] + y[30] + y[41] + y[71] + y[80]
   + y[82] + y[94] - z[3221] >= 0
 R3222: y[40] + y[48] + y[60] + y[72] + y[86] + y[91] + y[92] + y[99]
   - z[3222] >= 0
 R3223: y[3] + y[40] + y[54] + y[60] + y[66] + y[77] + y[99] - z[3223]
   >= 0
 R3224: y[16] + y[23] + y[24] + y[25] + y[27] + y[41] + y[42] + y[71]
   + y[73] - z[3224] >= 0
 R3225: y[5] + y[7] + y[9] + y[11] + y[13] + y[17] + y[51] + y[53] + y[59]
   + y[68] + y[95] - z[3225] >= 0
 R3226: y[2] + y[10] + y[31] + y[32] + y[35] + y[55] + y[72] + y[79]
   + y[81] + y[88] + y[89] + y[96] + y[99] - z[3226] >= 0
 R3227: y[4] + y[10] + y[26] + y[28] + y[30] + y[31] + y[32] + y[43]
   + y[47] + y[49] + y[56] + y[67] + y[78] + y[81] + y[83] + y[89]
   - z[3227] >= 0
 R3228: y[7] + y[13] + y[23] + y[25] + y[28] + y[33] + y[37] + y[42]
   + y[43] + y[51] + y[53] + y[59] + y[63] + y[68] + y[76] + y[95]
   - z[3228] >= 0
 R3229: y[8] + y[12] + y[19] + y[22] + y[26] + y[34] + y[38] + y[45]
   + y[46] + y[52] + y[58] + y[61] + y[62] + y[67] + y[74] + y[75] + y[87]
   + y[90] - z[3229] >= 0
 R3230: y[4] + y[10] + y[28] + y[30] + y[31] + y[33] + y[43] + y[55]
   + y[59] + y[63] + y[80] + y[89] - z[3230] >= 0
 R3231: y[18] + y[21] + y[36] + y[39] + y[50] + y[56] + y[69] + y[84]
   + y[85] + y[93] + y[98] - z[3231] >= 0
 R3232: y[3] + y[9] + y[11] + y[13] + y[40] + y[54] + y[55] + y[60] + y[77]
   + y[79] + y[99] - z[3232] >= 0
 R3233: y[8] + y[12] + y[19] + y[22] + y[26] + y[34] + y[38] + y[44]
   + y[45] + y[46] + y[47] + y[58] + y[61] + y[62] + y[67] + y[74] + y[75]
   + y[87] + y[90] - z[3233] >= 0
 R3234: y[29] + y[50] + y[52] + y[62] + y[74] + y[75] + y[90] + y[93]
   - z[3234] >= 0
 R3235: y[5] + y[7] + y[9] + y[11] + y[13] + y[17] + y[51] + y[53] + y[64]
   + y[68] + y[95] + y[97] - z[3235] >= 0
 R3236: y[16] + y[23] + y[24] + y[25] + y[27] + y[37] + y[42] + y[71]
   + y[73] + y[76] - z[3236] >= 0
 R3237: y[21] + y[36] + y[39] + y[84] + y[85] + y[98] - z[3237] >= 0
 R3238: y[0] + y[15] + y[16] + y[23] + y[24] + y[25] + y[27] + y[28]
   + y[30] + y[33] + y[37] + y[42] + y[71] + y[73] + y[80] + y[82] + y[94]
   - z[3238] >= 0
 R3239: y[4] + y[12] + y[15] + y[19] + y[26] + y[30] + y[38] + y[45]
   + y[46] + y[47] + y[67] + y[70] + y[82] + y[87] - z[3239] >= 0
 R3240: y[2] + y[10] + y[31] + y[32] + y[35] + y[55] + y[72] + y[79]
   + y[81] + y[88] + y[89] + y[96] + y[99] - z[3240] >= 0
 R3241: y[1] + y[6] + y[14] + y[65] + y[92] - z[3241] >= 0
 R3242: y[4] + y[10] + y[16] + y[23] + y[25] + y[27] + y[28] + y[30]
   + y[31] + y[33] + y[37] + y[42] + y[43] + y[59] + y[63] + y[76] + y[80]
   + y[89] + y[94] - z[3242] >= 0
 R3243: y[4] + y[10] + y[27] + y[28] + y[30] + y[31] + y[33] + y[43]
   + y[59] + y[63] + y[80] + y[82] + y[89] + y[94] - z[3243] >= 0
 R3244: y[29] + y[34] + y[52] + y[58] + y[62] + y[74] + y[75] + y[90]
   - z[3244] >= 0
 R3245: y[0] + y[4] + y[12] + y[15] + y[26] + y[30] + y[38] + y[45] + y[46]
   + y[47] + y[67] + y[70] + y[82] + y[87] + y[94] - z[3245] >= 0
 R3246: y[2] + y[4] + y[19] + y[26] + y[31] + y[32] + y[44] + y[47] + y[49]
   + y[56] + y[69] + y[78] + y[81] + y[83] + y[89] - z[3246] >= 0
 R3247: y[1] + y[6] + y[14] + y[20] + y[48] + y[57] + y[65] + y[86] + y[91]
   + y[92] - z[3247] >= 0
 R3248: y[7] + y[13] + y[23] + y[25] + y[28] + y[33] + y[37] + y[42]
   + y[43] + y[53] + y[59] + y[63] + y[68] + y[76] + y[80] + y[95]
   - z[3248] >= 0
 R3249: y[16] + y[23] + y[24] + y[41] + y[42] + y[71] + y[73] - z[3249]
   >= 0
 R3250: y[8] + y[12] + y[19] + y[22] + y[26] + y[34] + y[38] + y[44]
   + y[45] + y[46] + y[47] + y[58] + y[61] + y[67] + y[70] + y[74] + y[75]
   + y[87] - z[3250] >= 0
 R3251: y[1] + y[14] + y[20] + y[36] + y[39] + y[57] + y[65] + y[98]
   - z[3251] >= 0
 R3252: y[3] + y[40] + y[48] + y[54] + y[55] + y[60] + y[72] + y[79]
   + y[86] + y[99] - z[3252] >= 0
 R3253: y[10] + y[28] + y[31] + y[33] + y[43] + y[55] + y[59] + y[63]
   + y[79] + y[89] + y[99] - z[3253] >= 0
 R3254: y[5] + y[9] + y[11] + y[13] + y[17] + y[54] + y[64] + y[66] + y[68]
   + y[77] + y[97] - z[3254] >= 0
 R3255: y[2] + y[18] + y[20] + y[21] + y[35] + y[36] + y[39] + y[49]
   + y[56] + y[69] + y[81] + y[83] + y[84] + y[85] + y[88] + y[98]
   - z[3255] >= 0
 R3256: y[2] + y[31] + y[32] + y[40] + y[48] + y[55] + y[60] + y[72]
   + y[79] + y[86] + y[88] + y[96] + y[99] - z[3256] >= 0
 R3257: y[2] + y[20] + y[35] + y[40] + y[48] + y[57] + y[60] + y[72]
   + y[79] + y[86] + y[88] + y[96] + y[99] - z[3257] >= 0
 R3258: y[5] + y[9] + y[11] + y[13] + y[17] + y[54] + y[64] + y[66] + y[68]
   + y[77] + y[97] - z[3258] >= 0
 R3259: y[41] - z[3259] >= 0
 R3260: y[21] + y[36] + y[39] + y[84] + y[98] - z[3260] >= 0
 R3261: y[7] + y[9] + y[13] + y[33] + y[43] + y[51] + y[53] + y[55] + y[59]
   + y[63] + y[68] + y[95] - z[3261] >= 0
 R3262: y[11] + y[17] + y[64] + y[66] + y[77] + y[97] - z[3262] >= 0
 R3263: y[0] + y[4] + y[12] + y[15] + y[26] + y[30] + y[38] + y[45] + y[46]
   + y[47] + y[67] + y[70] + y[82] + y[87] + y[94] - z[3263] >= 0
 R3264: y[2] + y[4] + y[10] + y[28] + y[31] + y[32] + y[43] + y[55] + y[79]
   + y[81] + y[88] + y[89] + y[96] - z[3264] >= 0
 R3265: y[0] + y[15] + y[27] + y[30] + y[70] + y[82] + y[94] - z[3265]
   >= 0
 R3266: y[12] + y[18] + y[19] + y[26] + y[38] + y[44] + y[45] + y[47]
   + y[49] + y[56] + y[67] + y[69] + y[74] + y[75] + y[78] + y[83] + y[85]
   + y[87] + y[90] + y[93] - z[3266] >= 0
 R3267: y[29] + y[34] + y[52] + y[58] + y[62] + y[74] + y[75] - z[3267]
   >= 0
 R3268: y[16] + y[23] + y[24] + y[25] + y[27] + y[37] + y[41] + y[42]
   + y[71] + y[73] - z[3268] >= 0
 R3269: y[8] + y[12] + y[19] + y[22] + y[26] + y[38] + y[44] + y[45]
   + y[46] + y[47] + y[58] + y[61] + y[67] + y[70] + y[87] - z[3269] >= 0
 R3270: y[7] + y[16] + y[23] + y[24] + y[25] + y[27] + y[33] + y[37]
   + y[42] + y[59] + y[63] + y[71] + y[73] + y[76] + y[95] - z[3270] >= 0
 R3271: y[2] + y[20] + y[32] + y[35] + y[36] + y[39] + y[49] + y[56]
   + y[57] + y[78] + y[81] + y[83] + y[85] + y[88] + y[96] - z[3271] >= 0
 R3272: y[0] + y[16] + y[23] + y[24] + y[25] + y[27] + y[37] + y[41]
   + y[42] + y[71] + y[73] + y[76] - z[3272] >= 0
 R3273: y[0] + y[4] + y[15] + y[16] + y[27] + y[28] + y[30] + y[80] + y[82]
   + y[94] - z[3273] >= 0
 R3274: y[7] + y[16] + y[23] + y[25] + y[27] + y[33] + y[37] + y[42]
   + y[59] + y[63] + y[71] + y[73] + y[76] + y[80] + y[95] - z[3274] >= 0
 R3275: y[0] + y[15] + y[16] + y[27] + y[41] + y[82] + y[94] - z[3275]
   >= 0
 R3276: y[7] + y[16] + y[23] + y[25] + y[37] + y[42] + y[51] + y[53]
   + y[59] + y[63] + y[73] + y[76] + y[95] - z[3276] >= 0
 R3277: y[8] + y[12] + y[19] + y[22] + y[26] + y[38] + y[45] + y[46]
   + y[47] + y[58] + y[61] + y[67] + y[70] + y[87] - z[3277] >= 0
 R3278: y[0] + y[12] + y[15] + y[30] + y[47] + y[67] + y[70] + y[82]
   + y[94] - z[3278] >= 0
 R3279: y[3] + y[9] + y[11] + y[40] + y[54] + y[55] + y[60] + y[66] + y[77]
   + y[99] - z[3279] >= 0
 R3280: y[2] + y[20] + y[32] + y[35] + y[36] + y[39] + y[57] + y[72]
   + y[81] + y[88] + y[96] + y[98] - z[3280] >= 0
 R3281: y[16] + y[23] + y[24] + y[25] + y[37] + y[42] + y[71] + y[73]
   + y[76] - z[3281] >= 0
 R3282: y[1] + y[14] + y[65] + y[98] - z[3282] >= 0
 R3283: y[12] + y[15] + y[46] + y[61] + y[70] - z[3283] >= 0
 R3284: y[0] + y[16] + y[41] + y[71] - z[3284] >= 0
 R3285: y[0] + y[15] + y[16] + y[23] + y[24] + y[25] + y[27] + y[30]
   + y[41] + y[42] + y[71] + y[73] + y[80] + y[82] + y[94] - z[3285] >= 0
 R3286: y[3] + y[40] + y[48] + y[54] + y[60] + y[72] + y[79] + y[86]
   + y[91] + y[99] - z[3286] >= 0
 R3287: y[2] + y[20] + y[21] + y[35] + y[36] + y[39] + y[56] + y[69]
   + y[84] + y[85] + y[88] + y[98] - z[3287] >= 0
 R3288: y[0] + y[16] + y[24] + y[27] + y[41] + y[71] - z[3288] >= 0
 R3289: y[18] + y[19] + y[26] + y[29] + y[38] + y[44] + y[45] + y[47]
   + y[50] + y[56] + y[58] + y[62] + y[67] + y[69] + y[74] + y[75] + y[85]
   + y[87] + y[90] + y[93] - z[3289] >= 0
 R3290: y[6] + y[48] + y[86] + y[91] - z[3290] >= 0
 R3291: y[10] + y[13] + y[28] + y[31] + y[33] + y[43] + y[55] + y[59]
   + y[63] + y[79] + y[89] + y[99] - z[3291] >= 0
 R3292: y[3] + y[40] + y[48] + y[54] + y[60] + y[86] - z[3292] >= 0
 R3293: y[6] + y[20] + y[39] + y[48] + y[57] + y[72] + y[86] + y[88]
   + y[91] + y[92] + y[96] - z[3293] >= 0
 R3294: y[3] + y[11] + y[17] + y[54] + y[64] + y[66] + y[77] + y[97]
   - z[3294] >= 0
 R3295: y[1] + y[6] + y[20] + y[36] + y[39] + y[48] + y[57] + y[72] + y[86]
   + y[88] + y[91] + y[92] + y[96] + y[98] - z[3295] >= 0
 R3296: y[2] + y[20] + y[35] + y[36] + y[39] + y[48] + y[57] + y[72]
   + y[86] + y[88] + y[91] + y[92] + y[96] - z[3296] >= 0
 R3297: y[7] + y[9] + y[13] + y[25] + y[33] + y[37] + y[51] + y[53] + y[55]
   + y[59] + y[63] + y[68] + y[95] - z[3297] >= 0
 R3298: y[2] + y[20] + y[32] + y[35] + y[36] + y[39] + y[49] + y[57]
   + y[72] + y[78] + y[81] + y[83] + y[88] + y[96] - z[3298] >= 0
 R3299: y[6] + y[20] + y[35] + y[39] + y[48] + y[57] + y[72] + y[86]
   + y[88] + y[91] + y[92] + y[96] - z[3299] >= 0
 R3300: y[2] + y[6] + y[20] + y[35] + y[36] + y[39] + y[48] + y[57] + y[72]
   + y[86] + y[88] + y[91] + y[92] + y[96] + y[98] - z[3300] >= 0
 R3301: y[16] + y[23] + y[24] + y[41] + y[42] + y[71] + y[73] - z[3301]
   >= 0
 R3302: y[6] + y[20] + y[48] + y[57] + y[72] + y[86] + y[88] + y[91]
   + y[92] + y[96] - z[3302] >= 0
 R3303: y[1] + y[6] + y[20] + y[35] + y[36] + y[39] + y[57] + y[88] + y[91]
   + y[92] + y[96] + y[98] - z[3303] >= 0
 R3304: y[18] + y[21] + y[84] + y[85] + y[98] - z[3304] >= 0
 R3305: y[5] + y[7] + y[23] + y[25] + y[37] + y[42] + y[51] + y[53] + y[59]
   + y[63] + y[68] + y[73] + y[76] + y[95] - z[3305] >= 0
 R3306: y[4] + y[10] + y[26] + y[30] + y[31] + y[32] + y[43] + y[44]
   + y[47] + y[49] + y[56] + y[67] + y[78] + y[81] + y[83] + y[89]
   - z[3306] >= 0
 R3307: y[3] + y[11] + y[17] + y[64] + y[66] + y[77] + y[97] - z[3307]
   >= 0
 R3308: y[3] + y[9] + y[11] + y[13] + y[40] + y[54] + y[55] + y[60] + y[77]
   + y[79] + y[99] - z[3308] >= 0
 R3309: y[18] + y[21] + y[44] + y[49] + y[50] + y[56] + y[69] + y[78]
   + y[83] + y[84] + y[85] + y[90] + y[93] - z[3309] >= 0
 R3310: y[2] + y[18] + y[20] + y[32] + y[35] + y[36] + y[39] + y[49]
   + y[56] + y[69] + y[78] + y[81] + y[83] + y[84] + y[85] + y[88] + y[96]
   - z[3310] >= 0
 R3311: y[0] + y[4] + y[10] + y[16] + y[23] + y[25] + y[27] + y[28] + y[30]
   + y[31] + y[33] + y[37] + y[42] + y[43] + y[59] + y[63] + y[80] + y[82]
   + y[89] + y[94] - z[3311] >= 0
 R3312: y[4] + y[10] + y[25] + y[27] + y[28] + y[30] + y[31] + y[33]
   + y[37] + y[43] + y[55] + y[59] + y[63] + y[80] + y[89] + y[94]
   - z[3312] >= 0
 R3313: y[1] + y[14] + y[65] - z[3313] >= 0
 R3314: y[5] + y[7] + y[9] + y[13] + y[25] + y[37] + y[51] + y[53] + y[59]
   + y[63] + y[68] + y[76] + y[95] - z[3314] >= 0
 R3315: y[6] + y[20] + y[35] + y[36] + y[39] + y[48] + y[57] + y[72]
   + y[86] + y[88] + y[91] + y[92] + y[96] + y[98] - z[3315] >= 0
 R3316: y[3] + y[9] + y[40] + y[54] + y[55] + y[60] + y[72] + y[79] + y[99]
   - z[3316] >= 0
 R3317: y[34] + y[52] + y[58] + y[62] - z[3317] >= 0
 R3318: y[2] + y[20] + y[35] + y[36] + y[39] + y[48] + y[57] + y[72]
   + y[79] + y[86] + y[88] + y[91] + y[92] + y[96] - z[3318] >= 0
 R3319: y[2] + y[18] + y[20] + y[21] + y[32] + y[35] + y[36] + y[39]
   + y[49] + y[56] + y[69] + y[78] + y[81] + y[83] + y[84] + y[85] + y[88]
   + y[96] + y[98] - z[3319] >= 0
 R3320: y[3] + y[9] + y[11] + y[13] + y[17] + y[40] + y[54] + y[55] + y[60]
   + y[66] + y[77] + y[79] + y[99] - z[3320] >= 0
 R3321: y[5] + y[7] + y[9] + y[11] + y[13] + y[17] + y[51] + y[53] + y[64]
   + y[68] + y[77] + y[97] - z[3321] >= 0
 R3322: y[0] + y[16] + y[23] + y[24] + y[27] + y[41] + y[42] + y[71]
   + y[73] + y[82] + y[94] - z[3322] >= 0
 R3323: y[2] + y[18] + y[21] + y[35] + y[36] + y[44] + y[49] + y[50]
   + y[56] + y[69] + y[78] + y[81] + y[83] + y[84] + y[85] + y[90] + y[93]
   - z[3323] >= 0
 R3324: y[21] + y[36] + y[39] + y[84] + y[98] - z[3324] >= 0
 R3325: y[1] + y[20] + y[36] + y[39] + y[98] - z[3325] >= 0
 R3326: y[0] + y[15] + y[16] + y[23] + y[24] + y[27] + y[41] + y[42]
   + y[71] + y[82] + y[94] - z[3326] >= 0
 R3327: y[7] + y[16] + y[23] + y[25] + y[37] + y[42] + y[51] + y[53]
   + y[59] + y[63] + y[73] + y[76] + y[95] - z[3327] >= 0
 R3328: y[8] + y[12] + y[22] + y[26] + y[38] + y[45] + y[46] + y[47]
   + y[58] + y[61] + y[67] + y[70] + y[87] - z[3328] >= 0
 R3329: y[9] + y[40] + y[54] + y[55] + y[60] + y[72] + y[79] + y[99]
   - z[3329] >= 0
 R3330: y[8] + y[12] + y[22] + y[26] + y[38] + y[45] + y[46] + y[47]
   + y[58] + y[61] + y[67] + y[70] + y[87] - z[3330] >= 0
 R3331: y[3] + y[40] + y[48] + y[60] + y[86] + y[91] - z[3331] >= 0
 R3332: y[2] + y[18] + y[21] + y[35] + y[36] + y[44] + y[49] + y[50]
   + y[56] + y[69] + y[78] + y[81] + y[83] + y[84] + y[85] + y[90] + y[93]
   - z[3332] >= 0
 R3333: y[18] + y[21] + y[29] + y[50] + y[69] + y[84] + y[85] + y[90]
   + y[93] - z[3333] >= 0
 R3334: y[3] + y[5] + y[7] + y[9] + y[11] + y[13] + y[17] + y[40] + y[51]
   + y[53] + y[54] + y[55] + y[60] + y[64] + y[68] + y[77] + y[97] + y[99]
   - z[3334] >= 0
 R3335: y[18] + y[21] + y[50] + y[69] + y[84] + y[85] + y[93] - z[3335]
   >= 0
 R3336: y[8] + y[12] + y[22] + y[38] + y[45] + y[46] + y[47] + y[61]
   + y[67] + y[70] + y[87] - z[3336] >= 0
 R3337: y[9] + y[11] + y[13] + y[40] + y[54] + y[55] + y[60] + y[68]
   + y[79] + y[99] - z[3337] >= 0
 R3338: y[0] + y[15] + y[16] + y[27] + y[41] + y[82] - z[3338] >= 0
 R3339: y[0] + y[15] + y[16] + y[24] + y[27] + y[41] + y[71] + y[82]
   + y[94] - z[3339] >= 0
 R3340: y[8] + y[12] + y[19] + y[22] + y[26] + y[34] + y[38] + y[45]
   + y[46] + y[47] + y[58] + y[61] + y[67] + y[70] + y[74] + y[75] + y[87]
   - z[3340] >= 0
 R3341: y[1] + y[6] + y[14] + y[20] + y[39] + y[57] + y[65] + y[91] + y[92]
   + y[98] - z[3341] >= 0
 R3342: y[3] + y[9] + y[11] + y[40] + y[54] + y[60] + y[64] + y[66] + y[77]
   + y[97] + y[99] - z[3342] >= 0
 R3343: y[3] + y[11] + y[40] + y[54] + y[60] + y[66] + y[77] + y[99]
   - z[3343] >= 0
 R3344: y[1] + y[36] + y[39] + y[98] - z[3344] >= 0
 R3345: y[2] + y[31] + y[32] + y[35] + y[36] + y[49] + y[56] + y[72]
   + y[78] + y[79] + y[81] + y[83] + y[88] + y[89] + y[96] - z[3345] >= 0
 R3346: y[8] + y[12] + y[19] + y[22] + y[26] + y[34] + y[38] + y[45]
   + y[46] + y[47] + y[58] + y[61] + y[62] + y[67] + y[74] + y[75] + y[87]
   - z[3346] >= 0
 R3347: y[2] + y[10] + y[31] + y[32] + y[35] + y[49] + y[72] + y[78]
   + y[79] + y[81] + y[83] + y[88] + y[89] + y[96] - z[3347] >= 0
 R3348: y[2] + y[10] + y[31] + y[32] + y[35] + y[49] + y[56] + y[78]
   + y[81] + y[83] + y[88] + y[89] + y[96] - z[3348] >= 0
 R3349: y[1] + y[65] + y[98] - z[3349] >= 0
 R3350: y[3] + y[11] + y[40] + y[54] + y[60] + y[66] + y[77] + y[97]
   - z[3350] >= 0
 R3351: y[3] + y[9] + y[11] + y[13] + y[17] + y[40] + y[54] + y[55] + y[60]
   + y[64] + y[66] + y[68] + y[77] + y[97] + y[99] - z[3351] >= 0
 R3352: y[21] + y[84] - z[3352] >= 0
 R3353: y[4] + y[12] + y[15] + y[19] + y[26] + y[38] + y[45] + y[46]
   + y[47] + y[67] + y[70] + y[87] - z[3353] >= 0
 R3354: y[2] + y[20] + y[32] + y[35] + y[36] + y[39] + y[48] + y[57]
   + y[72] + y[79] + y[86] + y[88] + y[91] + y[96] - z[3354] >= 0
 R3355: y[0] + y[4] + y[10] + y[15] + y[27] + y[28] + y[30] + y[33] + y[43]
   + y[80] + y[82] + y[89] + y[94] - z[3355] >= 0
 R3356: y[12] + y[18] + y[19] + y[26] + y[29] + y[34] + y[38] + y[44]
   + y[45] + y[46] + y[50] + y[52] + y[58] + y[62] + y[67] + y[69] + y[74]
   + y[75] + y[87] + y[90] + y[93] - z[3356] >= 0
 R3357: y[0] + y[41] - z[3357] >= 0
 R3358: y[7] + y[13] + y[23] + y[25] + y[33] + y[37] + y[42] + y[51]
   + y[53] + y[59] + y[63] + y[68] + y[73] + y[76] + y[95] - z[3358] >= 0
 R3359: y[29] + y[34] + y[52] + y[58] + y[62] + y[74] + y[75] - z[3359]
   >= 0
 R3360: y[7] + y[13] + y[23] + y[25] + y[33] + y[37] + y[42] + y[51]
   + y[53] + y[59] + y[63] + y[68] + y[76] + y[95] - z[3360] >= 0
 R3361: y[6] + y[20] + y[48] + y[57] + y[72] + y[86] + y[91] + y[92]
   - z[3361] >= 0
 R3362: y[8] + y[12] + y[19] + y[22] + y[26] + y[38] + y[44] + y[45]
   + y[46] + y[47] + y[58] + y[61] + y[67] + y[70] + y[87] - z[3362] >= 0
 R3363: y[0] + y[4] + y[12] + y[15] + y[30] + y[38] + y[45] + y[46] + y[47]
   + y[67] + y[70] + y[82] + y[87] + y[94] - z[3363] >= 0
 R3364: y[2] + y[18] + y[19] + y[32] + y[35] + y[36] + y[44] + y[49]
   + y[56] + y[69] + y[78] + y[81] + y[83] + y[84] + y[85] + y[93]
   - z[3364] >= 0
 R3365: y[1] + y[6] + y[14] + y[65] - z[3365] >= 0
 R3366: y[0] + y[4] + y[12] + y[15] + y[27] + y[30] + y[47] + y[67] + y[70]
   + y[82] + y[94] - z[3366] >= 0
 R3367: y[18] + y[19] + y[21] + y[44] + y[49] + y[50] + y[56] + y[69]
   + y[78] + y[81] + y[83] + y[84] + y[85] + y[90] + y[93] - z[3367] >= 0
 R3368: y[18] + y[19] + y[26] + y[32] + y[38] + y[44] + y[47] + y[49]
   + y[50] + y[56] + y[67] + y[69] + y[74] + y[75] + y[78] + y[81] + y[83]
   + y[85] + y[90] + y[93] - z[3368] >= 0
 R3369: y[12] + y[19] + y[26] + y[38] + y[44] + y[45] + y[47] + y[49]
   + y[56] + y[67] + y[70] + y[78] + y[81] + y[83] + y[87] - z[3369] >= 0
 R3370: y[11] + y[17] + y[64] + y[66] + y[77] + y[97] - z[3370] >= 0
 R3371: y[6] + y[20] + y[40] + y[48] + y[57] + y[60] + y[72] + y[86]
   + y[88] + y[91] + y[92] + y[96] - z[3371] >= 0
 R3372: y[5] + y[7] + y[9] + y[11] + y[13] + y[17] + y[51] + y[53] + y[54]
   + y[55] + y[64] + y[68] + y[77] + y[95] + y[97] + y[99] - z[3372] >= 0
 R3373: y[18] + y[19] + y[21] + y[26] + y[29] + y[44] + y[50] + y[52]
   + y[62] + y[69] + y[74] + y[75] + y[84] + y[85] + y[90] + y[93]
   - z[3373] >= 0
 R3374: y[3] + y[9] + y[11] + y[13] + y[17] + y[40] + y[54] + y[55] + y[60]
   + y[64] + y[66] + y[68] + y[77] + y[97] + y[99] - z[3374] >= 0
 R3375: y[0] + y[4] + y[10] + y[15] + y[27] + y[28] + y[30] + y[31] + y[33]
   + y[43] + y[59] + y[63] + y[80] + y[82] + y[89] + y[94] - z[3375] >= 0
 R3376: y[3] + y[40] + y[54] + y[60] + y[66] + y[77] - z[3376] >= 0
 R3377: y[3] + y[11] + y[40] + y[54] + y[60] + y[66] + y[77] + y[97]
   + y[99] - z[3377] >= 0
 R3378: y[5] + y[7] + y[9] + y[11] + y[13] + y[17] + y[51] + y[53] + y[54]
   + y[55] + y[64] + y[68] + y[77] + y[95] + y[97] - z[3378] >= 0
 R3379: y[5] + y[9] + y[11] + y[13] + y[17] + y[51] + y[53] + y[54] + y[64]
   + y[66] + y[68] + y[77] + y[97] - z[3379] >= 0
 R3380: y[0] + y[41] - z[3380] >= 0
 R3381: y[2] + y[20] + y[35] + y[36] + y[39] + y[57] + y[84] + y[88]
   + y[98] - z[3381] >= 0
 R3382: y[5] + y[7] + y[9] + y[13] + y[33] + y[51] + y[53] + y[55] + y[59]
   + y[63] + y[68] + y[95] - z[3382] >= 0
 R3383: y[5] + y[9] + y[11] + y[17] + y[64] + y[66] + y[77] + y[97]
   - z[3383] >= 0
 R3384: y[21] + y[36] + y[39] + y[98] - z[3384] >= 0
 R3385: y[3] + y[11] + y[17] + y[54] + y[64] + y[66] + y[77] + y[97]
   - z[3385] >= 0
 R3386: y[2] + y[20] + y[35] + y[36] + y[39] + y[48] + y[57] + y[72]
   + y[86] + y[88] + y[91] + y[92] + y[96] - z[3386] >= 0
 R3387: y[1] + y[6] + y[14] + y[20] + y[36] + y[39] + y[57] + y[65] + y[91]
   + y[92] + y[98] - z[3387] >= 0
 R3388: y[40] + y[48] + y[55] + y[60] + y[72] + y[79] + y[86] + y[88]
   + y[96] + y[99] - z[3388] >= 0
 R3389: y[5] + y[7] + y[9] + y[11] + y[13] + y[17] + y[51] + y[53] + y[59]
   + y[64] + y[68] + y[95] - z[3389] >= 0
 R3390: y[2] + y[4] + y[10] + y[28] + y[30] + y[31] + y[32] + y[43] + y[49]
   + y[56] + y[78] + y[81] + y[83] + y[89] - z[3390] >= 0
 R3391: y[5] + y[7] + y[9] + y[11] + y[13] + y[17] + y[51] + y[53] + y[64]
   + y[68] + y[77] + y[97] - z[3391] >= 0
 R3392: y[0] + y[4] + y[10] + y[15] + y[27] + y[28] + y[30] + y[31] + y[33]
   + y[43] + y[80] + y[82] + y[89] + y[94] - z[3392] >= 0
 R3393: y[2] + y[20] + y[32] + y[35] + y[36] + y[39] + y[49] + y[56]
   + y[69] + y[78] + y[81] + y[83] + y[84] + y[85] + y[88] + y[96]
   - z[3393] >= 0
 R3394: y[5] + y[7] + y[9] + y[11] + y[13] + y[17] + y[51] + y[53] + y[54]
   + y[64] + y[66] + y[68] + y[77] + y[97] - z[3394] >= 0
 R3395: y[0] + y[4] + y[10] + y[15] + y[27] + y[28] + y[30] + y[31] + y[33]
   + y[43] + y[47] + y[80] + y[82] + y[89] + y[94] - z[3395] >= 0
 R3396: y[18] + y[19] + y[26] + y[29] + y[34] + y[38] + y[44] + y[50]
   + y[52] + y[58] + y[62] + y[69] + y[74] + y[75] + y[85] + y[90] + y[93]
   - z[3396] >= 0
 R3397: y[34] + y[52] + y[58] + y[62] - z[3397] >= 0
 R3398: y[1] + y[6] + y[14] + y[65] + y[91] + y[92] - z[3398] >= 0
 R3399: y[1] + y[14] + y[20] + y[36] + y[39] + y[57] + y[65] + y[92]
   + y[98] - z[3399] >= 0
 R3400: y[8] + y[12] + y[22] + y[26] + y[38] + y[45] + y[46] + y[47]
   + y[58] + y[61] + y[67] + y[70] + y[87] - z[3400] >= 0
 R3401: y[18] + y[19] + y[26] + y[38] + y[44] + y[47] + y[49] + y[50]
   + y[56] + y[62] + y[67] + y[69] + y[74] + y[75] + y[78] + y[83] + y[85]
   + y[87] + y[90] + y[93] - z[3401] >= 0
 R3402: y[2] + y[20] + y[32] + y[35] + y[36] + y[39] + y[49] + y[56]
   + y[57] + y[69] + y[78] + y[81] + y[83] + y[84] + y[85] + y[88] + y[96]
   + y[98] - z[3402] >= 0
 R3403: y[0] + y[16] + y[23] + y[24] + y[25] + y[27] + y[41] + y[42]
   + y[71] + y[73] - z[3403] >= 0
 R3404: y[0] + y[4] + y[15] + y[16] + y[27] + y[28] + y[30] + y[80] + y[82]
   + y[94] - z[3404] >= 0
 R3405: y[1] + y[14] + y[20] + y[36] + y[39] + y[57] + y[65] + y[92]
   + y[98] - z[3405] >= 0
 R3406: y[6] + y[48] + y[57] + y[86] + y[91] + y[92] - z[3406] >= 0
 R3407: y[8] + y[12] + y[22] + y[26] + y[38] + y[45] + y[46] + y[47]
   + y[58] + y[61] + y[67] + y[70] + y[87] - z[3407] >= 0
 R3408: y[0] + y[4] + y[10] + y[15] + y[16] + y[27] + y[28] + y[30] + y[31]
   + y[33] + y[43] + y[63] + y[80] + y[82] + y[89] + y[94] - z[3408] >= 0
 R3409: y[2] + y[4] + y[10] + y[19] + y[26] + y[31] + y[32] + y[44] + y[47]
   + y[49] + y[56] + y[69] + y[78] + y[81] + y[83] + y[89] - z[3409] >= 0
 R3410: y[41] - z[3410] >= 0
 R3411: y[1] + y[6] + y[14] + y[48] + y[57] + y[65] + y[86] + y[91] + y[92]
   - z[3411] >= 0
 R3412: y[5] + y[7] + y[9] + y[11] + y[13] + y[17] + y[51] + y[53] + y[54]
   + y[55] + y[59] + y[63] + y[68] + y[79] + y[95] + y[99] - z[3412] >= 0
 R3413: y[29] + y[34] + y[52] + y[62] - z[3413] >= 0
 R3414: y[6] + y[20] + y[48] + y[57] + y[72] + y[86] + y[91] + y[92]
   - z[3414] >= 0
 R3415: y[18] + y[19] + y[26] + y[29] + y[38] + y[44] + y[50] + y[56]
   + y[62] + y[69] + y[74] + y[75] + y[84] + y[85] + y[90] + y[93]
   - z[3415] >= 0
 R3416: y[18] + y[21] + y[36] + y[39] + y[69] + y[84] + y[85] + y[93]
   + y[98] - z[3416] >= 0
 R3417: y[2] + y[20] + y[32] + y[35] + y[36] + y[57] + y[72] + y[79]
   + y[81] + y[88] + y[96] - z[3417] >= 0
 R3418: y[5] + y[7] + y[9] + y[11] + y[13] + y[17] + y[51] + y[53] + y[55]
   + y[59] + y[63] + y[68] + y[95] - z[3418] >= 0
 R3419: y[18] + y[21] + y[44] + y[50] + y[56] + y[69] + y[84] + y[85]
   + y[90] + y[93] - z[3419] >= 0
 R3420: y[1] + y[6] + y[14] + y[20] + y[36] + y[39] + y[57] + y[65] + y[92]
   + y[98] - z[3420] >= 0
 R3421: y[7] + y[10] + y[13] + y[23] + y[25] + y[28] + y[33] + y[37]
   + y[42] + y[43] + y[53] + y[55] + y[59] + y[63] + y[68] + y[76] + y[80]
   - z[3421] >= 0
 R3422: y[1] + y[6] + y[14] + y[20] + y[36] + y[39] + y[48] + y[57] + y[86]
   + y[88] + y[91] + y[92] + y[98] - z[3422] >= 0
 R3423: y[8] + y[12] + y[22] + y[38] + y[45] + y[46] + y[47] + y[61]
   + y[67] + y[70] + y[87] - z[3423] >= 0
 R3424: y[0] + y[15] + y[16] + y[24] + y[27] + y[41] + y[71] + y[82]
   + y[94] - z[3424] >= 0
 R3425: y[4] + y[10] + y[15] + y[28] + y[30] + y[31] + y[43] + y[47]
   + y[67] + y[70] + y[78] + y[80] + y[82] + y[89] + y[94] - z[3425] >= 0
 R3426: y[0] + y[15] + y[16] + y[23] + y[24] + y[27] + y[41] + y[42]
   + y[71] + y[73] + y[80] + y[82] + y[94] - z[3426] >= 0
 R3427: y[0] + y[4] + y[10] + y[15] + y[16] + y[23] + y[27] + y[28] + y[30]
   + y[31] + y[33] + y[42] + y[43] + y[59] + y[63] + y[80] + y[82] + y[89]
   + y[94] - z[3427] >= 0
 R3428: y[18] + y[19] + y[26] + y[29] + y[44] + y[50] + y[52] + y[62]
   + y[69] + y[74] + y[75] + y[84] + y[85] + y[90] + y[93] - z[3428] >= 0
 R3429: y[4] + y[10] + y[28] + y[30] + y[31] + y[32] + y[33] + y[43]
   + y[55] + y[59] + y[63] + y[79] + y[80] + y[89] - z[3429] >= 0
 R3430: y[0] + y[16] + y[23] + y[24] + y[27] + y[41] + y[42] + y[71]
   + y[73] + y[82] + y[94] - z[3430] >= 0
 R3431: y[8] + y[22] + y[34] + y[38] + y[45] + y[46] + y[52] + y[58]
   + y[61] + y[62] + y[74] + y[75] + y[87] - z[3431] >= 0
 R3432: y[18] + y[19] + y[26] + y[44] + y[49] + y[50] + y[56] + y[69]
   + y[74] + y[75] + y[78] + y[81] + y[83] + y[84] + y[85] + y[90] + y[93]
   - z[3432] >= 0
 R3433: y[6] + y[20] + y[48] + y[57] + y[72] + y[86] + y[91] + y[92]
   - z[3433] >= 0
 R3434: y[5] + y[7] + y[13] + y[25] + y[37] + y[51] + y[53] + y[59] + y[68]
   + y[76] + y[95] - z[3434] >= 0
 R3435: y[3] + y[9] + y[11] + y[40] + y[54] + y[60] + y[66] + y[77] + y[99]
   - z[3435] >= 0
 R3436: y[4] + y[10] + y[28] + y[30] + y[31] + y[33] + y[43] + y[55]
   + y[59] + y[63] + y[79] + y[80] + y[89] - z[3436] >= 0
 R3437: y[0] + y[15] + y[70] + y[82] + y[94] - z[3437] >= 0
 R3438: y[3] + y[11] + y[40] + y[54] + y[60] + y[66] + y[77] + y[99]
   - z[3438] >= 0
 R3439: y[7] + y[13] + y[23] + y[25] + y[28] + y[33] + y[37] + y[42]
   + y[51] + y[53] + y[59] + y[63] + y[68] + y[76] + y[80] + y[95]
   - z[3439] >= 0
 R3440: y[5] + y[7] + y[9] + y[13] + y[17] + y[25] + y[37] + y[51] + y[53]
   + y[59] + y[68] + y[76] + y[95] - z[3440] >= 0
 R3441: y[12] + y[18] + y[19] + y[26] + y[29] + y[34] + y[38] + y[44]
   + y[45] + y[46] + y[47] + y[50] + y[52] + y[58] + y[62] + y[67] + y[69]
   + y[74] + y[75] + y[87] + y[90] + y[93] - z[3441] >= 0
 R3442: y[8] + y[22] + y[34] + y[38] + y[45] + y[52] + y[58] + y[62]
   + y[74] + y[75] + y[87] - z[3442] >= 0
 R3443: y[2] + y[20] + y[35] + y[48] + y[57] + y[72] + y[79] + y[86]
   + y[88] + y[96] + y[99] - z[3443] >= 0
 R3444: y[3] + y[40] + y[54] + y[60] + y[66] + y[77] + y[99] - z[3444]
   >= 0
 R3445: y[10] + y[16] + y[23] + y[25] + y[27] + y[28] + y[30] + y[33]
   + y[37] + y[42] + y[43] + y[59] + y[63] + y[76] + y[80] - z[3445] >= 0
 R3446: y[41] - z[3446] >= 0
 R3447: y[3] + y[40] + y[48] + y[54] + y[60] + y[72] + y[79] + y[86]
   + y[91] + y[99] - z[3447] >= 0
 R3448: y[0] + y[4] + y[15] + y[27] + y[30] + y[70] + y[80] + y[82] + y[94]
   - z[3448] >= 0
 R3449: y[2] + y[18] + y[19] + y[26] + y[32] + y[44] + y[49] + y[50]
   + y[56] + y[69] + y[74] + y[78] + y[81] + y[83] + y[84] + y[85] + y[90]
   + y[93] - z[3449] >= 0
 R3450: y[8] + y[12] + y[22] + y[26] + y[34] + y[38] + y[45] + y[46]
   + y[58] + y[61] + y[67] + y[70] + y[87] - z[3450] >= 0
 R3451: y[0] + y[15] + y[41] + y[82] - z[3451] >= 0
 R3452: y[2] + y[31] + y[32] + y[35] + y[72] + y[79] + y[81] + y[88]
   + y[89] + y[96] - z[3452] >= 0
 R3453: y[3] + y[5] + y[9] + y[11] + y[13] + y[17] + y[54] + y[64] + y[66]
   + y[68] + y[77] + y[97] - z[3453] >= 0
 R3454: y[4] + y[12] + y[15] + y[19] + y[26] + y[30] + y[38] + y[44]
   + y[47] + y[49] + y[67] + y[70] + y[78] + y[83] + y[87] - z[3454] >= 0
 R3455: y[10] + y[28] + y[31] + y[33] + y[43] + y[55] + y[59] + y[63]
   + y[79] + y[89] + y[99] - z[3455] >= 0
 R3456: y[29] + y[34] + y[50] + y[52] + y[58] + y[62] + y[74] + y[75]
   + y[90] - z[3456] >= 0
 R3457: y[1] + y[6] + y[20] + y[35] + y[36] + y[39] + y[57] + y[88] + y[91]
   + y[92] + y[96] + y[98] - z[3457] >= 0
 R3458: y[0] + y[16] + y[23] + y[24] + y[25] + y[27] + y[28] + y[30]
   + y[33] + y[37] + y[42] + y[43] + y[59] + y[63] + y[71] + y[73] + y[76]
   + y[80] + y[82] + y[94] - z[3458] >= 0
 R3459: y[4] + y[10] + y[28] + y[31] + y[32] + y[33] + y[43] + y[49]
   + y[55] + y[78] + y[79] + y[81] + y[89] - z[3459] >= 0
 R3460: y[9] + y[11] + y[13] + y[40] + y[54] + y[55] + y[59] + y[60]
   + y[68] + y[79] + y[99] - z[3460] >= 0
 R3461: y[18] + y[21] + y[29] + y[50] + y[69] + y[84] + y[85] + y[90]
   + y[93] - z[3461] >= 0
 R3462: y[2] + y[18] + y[19] + y[32] + y[35] + y[44] + y[49] + y[56]
   + y[69] + y[78] + y[81] + y[83] + y[84] + y[85] + y[93] - z[3462] >= 0
 R3463: y[0] + y[15] + y[41] + y[82] + y[94] - z[3463] >= 0
 R3464: y[8] + y[12] + y[22] + y[26] + y[38] + y[45] + y[46] + y[47]
   + y[58] + y[61] + y[67] + y[70] + y[87] - z[3464] >= 0
 R3465: y[0] + y[4] + y[10] + y[15] + y[28] + y[30] + y[31] + y[43] + y[47]
   + y[67] + y[70] + y[78] + y[80] + y[82] + y[89] + y[94] - z[3465] >= 0
 R3466: y[5] + y[7] + y[9] + y[11] + y[13] + y[17] + y[51] + y[53] + y[64]
   + y[68] + y[95] + y[97] - z[3466] >= 0
 R3467: y[10] + y[31] + y[33] + y[43] + y[55] + y[59] + y[63] + y[79]
   + y[89] + y[99] - z[3467] >= 0
 R3468: y[4] + y[10] + y[28] + y[30] + y[31] + y[33] + y[43] + y[55]
   + y[59] + y[63] + y[79] + y[80] + y[89] - z[3468] >= 0
 R3469: y[3] + y[40] + y[48] + y[54] + y[60] + y[72] + y[86] + y[91]
   + y[99] - z[3469] >= 0
 R3470: y[1] + y[6] + y[14] + y[20] + y[36] + y[39] + y[48] + y[57] + y[65]
   + y[86] + y[91] + y[92] + y[98] - z[3470] >= 0
 R3471: y[2] + y[31] + y[32] + y[35] + y[55] + y[60] + y[72] + y[79]
   + y[88] + y[96] + y[99] - z[3471] >= 0
 R3472: y[18] + y[21] + y[29] + y[50] + y[52] + y[62] + y[69] + y[74]
   + y[75] + y[84] + y[85] + y[90] + y[93] - z[3472] >= 0
 R3473: y[0] + y[12] + y[15] + y[30] + y[47] + y[67] + y[70] + y[82]
   + y[94] - z[3473] >= 0
 R3474: y[6] + y[20] + y[48] + y[57] + y[72] + y[86] + y[88] + y[91]
   + y[92] + y[96] - z[3474] >= 0
 R3475: y[6] + y[20] + y[48] + y[57] + y[72] + y[86] + y[91] + y[92]
   - z[3475] >= 0
 R3476: y[2] + y[31] + y[32] + y[35] + y[49] + y[72] + y[79] + y[81]
   + y[88] + y[89] + y[96] - z[3476] >= 0
 R3477: y[0] + y[4] + y[15] + y[16] + y[27] + y[28] + y[30] + y[33] + y[43]
   + y[80] + y[82] + y[94] - z[3477] >= 0
 R3478: y[5] + y[7] + y[9] + y[11] + y[13] + y[17] + y[51] + y[53] + y[59]
   + y[68] + y[76] + y[95] - z[3478] >= 0
 R3479: y[9] + y[13] + y[31] + y[54] + y[55] + y[59] + y[60] + y[63]
   + y[68] + y[79] + y[99] - z[3479] >= 0
 R3480: y[2] + y[6] + y[20] + y[35] + y[36] + y[39] + y[48] + y[57] + y[72]
   + y[86] + y[88] + y[91] + y[92] + y[96] + y[98] - z[3480] >= 0
 R3481: y[1] + y[14] + y[65] + y[98] - z[3481] >= 0
 R3482: y[4] + y[10] + y[15] + y[28] + y[30] + y[31] + y[32] + y[43]
   + y[47] + y[49] + y[67] + y[70] + y[78] + y[80] + y[81] + y[82] + y[83]
   + y[89] + y[94] - z[3482] >= 0
 R3483: y[3] + y[40] + y[48] + y[54] + y[55] + y[60] + y[72] + y[77]
   + y[79] + y[86] + y[99] - z[3483] >= 0
 R3484: y[1] + y[6] + y[14] + y[20] + y[39] + y[57] + y[65] + y[91] + y[92]
   + y[98] - z[3484] >= 0
 R3485: y[2] + y[20] + y[32] + y[35] + y[36] + y[39] + y[49] + y[56]
   + y[69] + y[78] + y[81] + y[83] + y[84] + y[85] + y[88] + y[96] + y[98]
   - z[3485] >= 0
 R3486: y[12] + y[18] + y[19] + y[26] + y[38] + y[44] + y[45] + y[46]
   + y[47] + y[49] + y[56] + y[58] + y[67] + y[69] + y[70] + y[74] + y[75]
   + y[78] + y[83] + y[87] + y[90] + y[93] - z[3486] >= 0
 R3487: y[7] + y[9] + y[11] + y[13] + y[51] + y[53] + y[55] + y[59] + y[63]
   + y[68] + y[79] + y[95] + y[99] - z[3487] >= 0
 R3488: y[2] + y[31] + y[32] + y[35] + y[55] + y[72] + y[79] + y[81]
   + y[88] + y[89] + y[96] + y[99] - z[3488] >= 0
 R3489: y[8] + y[12] + y[19] + y[22] + y[26] + y[34] + y[38] + y[44]
   + y[45] + y[46] + y[52] + y[58] + y[62] + y[67] + y[74] + y[75] + y[87]
   + y[90] - z[3489] >= 0
 R3490: y[2] + y[4] + y[10] + y[28] + y[30] + y[31] + y[32] + y[43] + y[49]
   + y[56] + y[78] + y[81] + y[83] + y[89] - z[3490] >= 0
 R3491: y[24] + y[41] + y[71] - z[3491] >= 0
 R3492: y[16] + y[23] + y[24] + y[25] + y[37] + y[42] + y[59] + y[63]
   + y[71] + y[73] + y[76] - z[3492] >= 0
 R3493: y[0] + y[15] + y[16] + y[27] + y[41] + y[82] + y[94] - z[3493]
   >= 0
 R3494: y[5] + y[7] + y[9] + y[13] + y[25] + y[37] + y[51] + y[53] + y[59]
   + y[68] + y[76] + y[95] - z[3494] >= 0
 R3495: y[2] + y[20] + y[35] + y[36] + y[39] + y[57] + y[88] + y[91]
   + y[92] + y[96] + y[98] - z[3495] >= 0
 R3496: y[3] + y[9] + y[11] + y[13] + y[40] + y[54] + y[55] + y[60] + y[72]
   + y[79] + y[99] - z[3496] >= 0
 R3497: y[40] + y[48] + y[60] + y[72] + y[79] + y[86] + y[91] + y[96]
   + y[99] - z[3497] >= 0
 R3498: y[5] + y[9] + y[11] + y[17] + y[64] + y[66] + y[77] + y[97]
   - z[3498] >= 0
 R3499: y[6] + y[20] + y[39] + y[48] + y[57] + y[72] + y[86] + y[91]
   + y[92] - z[3499] >= 0
 R3500: y[2] + y[18] + y[19] + y[32] + y[35] + y[36] + y[44] + y[49]
   + y[50] + y[56] + y[69] + y[78] + y[81] + y[83] + y[84] + y[85] + y[90]
   + y[93] - z[3500] >= 0
 R3501: y[4] + y[10] + y[28] + y[30] + y[31] + y[32] + y[33] + y[43]
   + y[78] + y[80] + y[89] + y[94] - z[3501] >= 0
 R3502: y[2] + y[20] + y[32] + y[35] + y[36] + y[39] + y[57] + y[72]
   + y[81] + y[88] + y[96] + y[98] - z[3502] >= 0
 R3503: y[16] + y[23] + y[24] + y[27] + y[41] + y[42] + y[71] + y[73]
   - z[3503] >= 0
 R3504: y[3] + y[9] + y[11] + y[40] + y[54] + y[55] + y[60] + y[66] + y[77]
   + y[79] + y[99] - z[3504] >= 0
 R3505: y[3] + y[9] + y[11] + y[40] + y[54] + y[55] + y[60] + y[72] + y[77]
   + y[79] + y[99] - z[3505] >= 0
 R3506: y[0] + y[4] + y[10] + y[16] + y[23] + y[25] + y[27] + y[28] + y[30]
   + y[31] + y[33] + y[37] + y[42] + y[43] + y[59] + y[63] + y[80] + y[82]
   + y[89] + y[94] - z[3506] >= 0
 R3507: y[18] + y[19] + y[21] + y[26] + y[29] + y[44] + y[50] + y[56]
   + y[62] + y[69] + y[74] + y[75] + y[84] + y[85] + y[90] + y[93]
   - z[3507] >= 0
 R3508: y[8] + y[12] + y[19] + y[22] + y[26] + y[34] + y[38] + y[44]
   + y[45] + y[46] + y[52] + y[58] + y[61] + y[62] + y[67] + y[74] + y[75]
   + y[87] + y[90] - z[3508] >= 0
 R3509: y[3] + y[40] + y[48] + y[54] + y[55] + y[60] + y[72] + y[79]
   + y[86] + y[99] - z[3509] >= 0
 R3510: y[8] + y[12] + y[19] + y[22] + y[26] + y[38] + y[44] + y[45]
   + y[46] + y[47] + y[58] + y[62] + y[67] + y[70] + y[74] + y[75] + y[87]
   + y[90] - z[3510] >= 0
 R3511: y[8] + y[12] + y[22] + y[38] + y[45] + y[46] + y[47] + y[61]
   + y[67] + y[70] + y[87] - z[3511] >= 0
 R3512: y[34] + y[52] + y[58] + y[62] - z[3512] >= 0
 R3513: y[1] + y[6] + y[14] + y[65] + y[92] - z[3513] >= 0
 R3514: y[18] + y[21] + y[36] + y[39] + y[69] + y[84] + y[85] + y[98]
   - z[3514] >= 0
 R3515: y[2] + y[20] + y[35] + y[36] + y[39] + y[57] + y[84] + y[98]
   - z[3515] >= 0
 R3516: y[16] + y[23] + y[24] + y[25] + y[37] + y[42] + y[71] + y[73]
   + y[76] - z[3516] >= 0
 R3517: y[5] + y[7] + y[9] + y[11] + y[13] + y[17] + y[51] + y[53] + y[64]
   + y[68] + y[95] - z[3517] >= 0
 R3518: y[29] + y[34] + y[52] + y[58] + y[62] + y[74] + y[75] + y[90]
   - z[3518] >= 0
 R3519: y[18] + y[19] + y[29] + y[34] + y[44] + y[50] + y[52] + y[58]
   + y[62] + y[69] + y[74] + y[75] + y[85] + y[90] + y[93] - z[3519] >= 0
 R3520: y[18] + y[29] + y[50] + y[52] + y[62] + y[69] + y[74] + y[75]
   + y[90] + y[93] - z[3520] >= 0
 R3521: y[16] + y[23] + y[24] + y[41] + y[42] + y[71] + y[73] - z[3521]
   >= 0
 R3522: y[6] + y[20] + y[48] + y[57] + y[72] + y[86] + y[91] + y[92]
   - z[3522] >= 0
 R3523: y[4] + y[10] + y[28] + y[30] + y[31] + y[32] + y[43] + y[47]
   + y[49] + y[56] + y[78] + y[81] + y[83] + y[89] - z[3523] >= 0
 R3524: y[1] + y[14] + y[65] - z[3524] >= 0
 R3525: y[5] + y[7] + y[9] + y[11] + y[13] + y[17] + y[51] + y[53] + y[54]
   + y[55] + y[59] + y[68] + y[95] + y[99] - z[3525] >= 0
 R3526: y[5] + y[7] + y[9] + y[11] + y[13] + y[17] + y[51] + y[53] + y[54]
   + y[55] + y[64] + y[68] + y[95] + y[97] - z[3526] >= 0
 R3527: y[8] + y[12] + y[19] + y[22] + y[26] + y[34] + y[38] + y[45]
   + y[46] + y[58] + y[61] + y[67] + y[74] + y[75] + y[87] - z[3527] >= 0
 R3528: y[2] + y[20] + y[32] + y[35] + y[36] + y[39] + y[49] + y[56]
   + y[57] + y[81] + y[83] + y[84] + y[85] + y[88] + y[96] + y[98]
   - z[3528] >= 0
 R3529: y[5] + y[7] + y[9] + y[11] + y[13] + y[17] + y[51] + y[53] + y[59]
   + y[68] + y[76] + y[95] - z[3529] >= 0
 R3530: y[3] + y[9] + y[11] + y[13] + y[17] + y[54] + y[64] + y[66] + y[77]
   + y[97] - z[3530] >= 0
 R3531: y[0] + y[15] + y[16] + y[27] + y[30] + y[41] + y[80] + y[82]
   + y[94] - z[3531] >= 0
 R3532: y[16] + y[23] + y[24] + y[25] + y[27] + y[28] + y[30] + y[33]
   + y[37] + y[42] + y[59] + y[63] + y[71] + y[73] + y[76] + y[80] + y[94]
   - z[3532] >= 0
 R3533: y[8] + y[22] + y[29] + y[34] + y[52] + y[58] + y[62] + y[74]
   + y[75] - z[3533] >= 0
 R3534: y[40] + y[48] + y[54] + y[55] + y[60] + y[72] + y[79] + y[86]
   + y[88] + y[96] + y[99] - z[3534] >= 0
 R3535: y[0] + y[4] + y[10] + y[15] + y[16] + y[27] + y[28] + y[30] + y[31]
   + y[33] + y[43] + y[59] + y[63] + y[80] + y[82] + y[89] + y[94]
   - z[3535] >= 0
 R3536: y[18] + y[21] + y[29] + y[50] + y[52] + y[62] + y[69] + y[74]
   + y[75] + y[84] + y[85] + y[90] + y[93] - z[3536] >= 0
 R3537: y[2] + y[20] + y[32] + y[35] + y[36] + y[39] + y[49] + y[57]
   + y[72] + y[78] + y[79] + y[81] + y[83] + y[88] + y[96] - z[3537] >= 0
 R3538: y[0] + y[15] + y[16] + y[24] + y[27] + y[41] + y[71] + y[82]
   + y[94] - z[3538] >= 0
 R3539: y[16] + y[23] + y[24] + y[41] + y[42] + y[71] + y[73] - z[3539]
   >= 0
 R3540: y[16] + y[23] + y[24] + y[25] + y[27] + y[37] + y[41] + y[42]
   + y[71] + y[73] - z[3540] >= 0
 R3541: y[18] + y[19] + y[26] + y[29] + y[34] + y[38] + y[44] + y[50]
   + y[52] + y[58] + y[62] + y[69] + y[74] + y[75] + y[90] + y[93]
   - z[3541] >= 0
 R3542: y[21] + y[84] + y[98] - z[3542] >= 0
 R3543: y[9] + y[11] + y[13] + y[17] + y[40] + y[53] + y[54] + y[55]
   + y[60] + y[68] + y[79] + y[99] - z[3543] >= 0
 R3544: y[0] + y[15] + y[16] + y[23] + y[24] + y[25] + y[27] + y[28]
   + y[30] + y[33] + y[37] + y[42] + y[43] + y[63] + y[71] + y[73] + y[76]
   + y[80] + y[82] + y[94] - z[3544] >= 0
 R3545: y[0] + y[4] + y[10] + y[15] + y[27] + y[28] + y[30] + y[31] + y[33]
   + y[43] + y[63] + y[80] + y[82] + y[89] + y[94] - z[3545] >= 0
 R3546: y[5] + y[7] + y[9] + y[11] + y[13] + y[17] + y[51] + y[53] + y[55]
   + y[59] + y[63] + y[68] + y[95] + y[99] - z[3546] >= 0
 R3547: y[4] + y[10] + y[26] + y[28] + y[30] + y[31] + y[32] + y[43]
   + y[47] + y[49] + y[67] + y[78] + y[81] + y[83] + y[89] - z[3547] >= 0
 R3548: y[18] + y[21] + y[29] + y[50] + y[62] + y[69] + y[84] + y[85]
   + y[90] + y[93] - z[3548] >= 0
 R3549: y[4] + y[10] + y[28] + y[30] + y[31] + y[32] + y[33] + y[43]
   + y[63] + y[80] + y[89] + y[94] - z[3549] >= 0
 R3550: y[5] + y[7] + y[9] + y[11] + y[13] + y[17] + y[51] + y[53] + y[55]
   + y[59] + y[64] + y[68] + y[95] - z[3550] >= 0
 R3551: y[8] + y[19] + y[22] + y[26] + y[29] + y[34] + y[38] + y[44]
   + y[45] + y[46] + y[52] + y[58] + y[62] + y[74] + y[75] + y[87] + y[90]
   - z[3551] >= 0
 R3552: y[18] + y[21] + y[29] + y[50] + y[69] + y[84] + y[85] + y[90]
   + y[93] - z[3552] >= 0
 R3553: y[8] + y[12] + y[19] + y[22] + y[26] + y[34] + y[38] + y[44]
   + y[45] + y[46] + y[47] + y[58] + y[62] + y[67] + y[74] + y[75] + y[87]
   + y[90] - z[3553] >= 0
 R3554: y[40] + y[48] + y[57] + y[60] + y[72] + y[79] + y[86] + y[88]
   + y[91] + y[96] + y[99] - z[3554] >= 0
 R3555: y[10] + y[28] + y[31] + y[33] + y[43] + y[55] + y[59] + y[63]
   + y[79] + y[89] + y[99] - z[3555] >= 0
 R3556: y[16] + y[23] + y[24] + y[41] + y[42] + y[71] + y[73] - z[3556]
   >= 0
 R3557: y[1] + y[6] + y[14] + y[57] + y[65] + y[91] + y[92] - z[3557] >= 0
 R3558: y[8] + y[12] + y[22] + y[34] + y[38] + y[45] + y[46] + y[58]
   + y[61] + y[62] + y[74] + y[75] + y[87] - z[3558] >= 0
 R3559: y[6] + y[14] + y[48] + y[57] + y[86] + y[91] + y[92] - z[3559]
   >= 0
 R3560: y[0] + y[15] + y[70] + y[82] + y[94] - z[3560] >= 0
 R3561: y[4] + y[10] + y[28] + y[31] + y[33] + y[43] + y[55] + y[59]
   + y[63] + y[79] + y[80] + y[89] - z[3561] >= 0
 R3562: y[1] + y[6] + y[20] + y[36] + y[39] + y[48] + y[57] + y[72] + y[86]
   + y[88] + y[91] + y[92] + y[98] - z[3562] >= 0
 R3563: y[1] + y[20] + y[35] + y[36] + y[39] + y[57] + y[98] - z[3563]
   >= 0
 R3564: y[0] + y[15] + y[16] + y[23] + y[24] + y[27] + y[28] + y[30]
   + y[33] + y[42] + y[43] + y[71] + y[80] + y[82] + y[94] - z[3564] >= 0
 R3565: y[16] + y[23] + y[24] + y[25] + y[27] + y[33] + y[37] + y[42]
   + y[59] + y[63] + y[71] + y[73] + y[76] + y[80] + y[94] - z[3565] >= 0
 R3566: y[1] + y[14] + y[65] - z[3566] >= 0
 R3567: y[3] + y[40] + y[48] + y[54] + y[60] + y[72] + y[86] + y[99]
   - z[3567] >= 0
 R3568: y[0] + y[4] + y[15] + y[27] + y[30] + y[70] + y[80] + y[82] + y[94]
   - z[3568] >= 0
 R3569: y[5] + y[9] + y[11] + y[13] + y[17] + y[54] + y[64] + y[66] + y[68]
   + y[77] + y[97] - z[3569] >= 0
 R3570: y[18] + y[21] + y[29] + y[50] + y[69] + y[84] + y[85] + y[90]
   + y[93] - z[3570] >= 0
 R3571: y[3] + y[40] + y[48] + y[54] + y[60] + y[86] + y[99] - z[3571]
   >= 0
 R3572: y[12] + y[19] + y[26] + y[38] + y[44] + y[45] + y[46] + y[47]
   + y[67] + y[70] + y[74] + y[75] + y[78] + y[87] - z[3572] >= 0
 R3573: y[18] + y[21] + y[29] + y[50] + y[69] + y[84] + y[85] + y[90]
   + y[93] - z[3573] >= 0
 R3574: y[9] + y[13] + y[33] + y[51] + y[53] + y[55] + y[59] + y[63]
   + y[68] + y[79] + y[99] - z[3574] >= 0
 R3575: y[10] + y[31] + y[33] + y[43] + y[55] + y[79] + y[89] + y[99]
   - z[3575] >= 0
 R3576: y[2] + y[20] + y[35] + y[36] + y[39] + y[48] + y[57] + y[72]
   + y[86] + y[88] + y[91] + y[92] + y[96] + y[98] - z[3576] >= 0
 R3577: y[16] + y[23] + y[24] + y[25] + y[27] + y[28] + y[33] + y[37]
   + y[42] + y[59] + y[63] + y[71] + y[73] + y[76] + y[80] - z[3577] >= 0
 R3578: y[6] + y[48] + y[86] + y[91] + y[92] - z[3578] >= 0
 R3579: y[5] + y[7] + y[9] + y[11] + y[13] + y[17] + y[51] + y[53] + y[54]
   + y[64] + y[68] + y[77] + y[95] + y[97] - z[3579] >= 0
 R3580: y[0] + y[15] + y[16] + y[27] + y[28] + y[30] + y[33] + y[43]
   + y[71] + y[80] + y[82] + y[94] - z[3580] >= 0
 R3581: y[0] + y[16] + y[23] + y[24] + y[27] + y[41] + y[42] + y[71]
   + y[73] - z[3581] >= 0
 R3582: y[7] + y[9] + y[13] + y[25] + y[33] + y[37] + y[51] + y[53] + y[55]
   + y[59] + y[63] + y[68] + y[76] + y[95] - z[3582] >= 0
 R3583: y[7] + y[13] + y[23] + y[25] + y[33] + y[37] + y[42] + y[51]
   + y[53] + y[59] + y[63] + y[68] + y[76] + y[95] - z[3583] >= 0
 R3584: y[12] + y[18] + y[19] + y[26] + y[38] + y[44] + y[45] + y[46]
   + y[47] + y[50] + y[56] + y[58] + y[62] + y[67] + y[69] + y[74] + y[75]
   + y[85] + y[87] + y[90] + y[93] - z[3584] >= 0
 R3585: y[31] + y[40] + y[54] + y[55] + y[60] + y[72] + y[79] + y[99]
   - z[3585] >= 0
 R3586: y[6] + y[20] + y[35] + y[36] + y[39] + y[48] + y[57] + y[72]
   + y[86] + y[88] + y[91] + y[92] + y[96] - z[3586] >= 0
 R3587: y[12] + y[19] + y[26] + y[38] + y[44] + y[45] + y[47] + y[49]
   + y[56] + y[67] + y[69] + y[70] + y[78] + y[81] + y[83] + y[87]
   - z[3587] >= 0
 R3588: y[5] + y[7] + y[9] + y[13] + y[25] + y[37] + y[51] + y[53] + y[59]
   + y[63] + y[68] + y[76] + y[95] - z[3588] >= 0
 R3589: y[18] + y[19] + y[26] + y[38] + y[44] + y[47] + y[49] + y[50]
   + y[56] + y[67] + y[69] + y[74] + y[75] + y[78] + y[81] + y[83] + y[85]
   + y[87] + y[90] + y[93] - z[3589] >= 0
 R3590: y[0] + y[15] + y[16] + y[24] + y[27] + y[41] + y[71] + y[82]
   + y[94] - z[3590] >= 0
 R3591: y[1] + y[6] + y[14] + y[57] + y[65] + y[92] + y[98] - z[3591] >= 0
 R3592: y[8] + y[22] + y[34] + y[38] + y[45] + y[46] + y[52] + y[58]
   + y[62] + y[74] + y[75] + y[87] - z[3592] >= 0
 R3593: y[0] + y[4] + y[10] + y[15] + y[16] + y[23] + y[25] + y[27] + y[28]
   + y[30] + y[31] + y[33] + y[37] + y[42] + y[43] + y[59] + y[63] + y[80]
   + y[82] + y[89] + y[94] - z[3593] >= 0
 R3594: y[16] + y[23] + y[24] + y[25] + y[37] + y[42] + y[63] + y[71]
   + y[73] + y[76] - z[3594] >= 0
 R3595: y[0] + y[16] + y[23] + y[24] + y[25] + y[27] + y[30] + y[33]
   + y[37] + y[42] + y[63] + y[71] + y[73] + y[76] + y[80] + y[82] + y[94]
   - z[3595] >= 0
 R3596: y[4] + y[12] + y[19] + y[26] + y[38] + y[44] + y[45] + y[46]
   + y[47] + y[49] + y[56] + y[67] + y[70] + y[78] + y[83] + y[87]
   - z[3596] >= 0
 R3597: y[40] + y[48] + y[55] + y[60] + y[72] + y[79] + y[86] + y[88]
   + y[96] + y[99] - z[3597] >= 0
 R3598: y[2] + y[20] + y[21] + y[35] + y[36] + y[39] + y[56] + y[57]
   + y[69] + y[84] + y[85] + y[88] + y[98] - z[3598] >= 0
 R3599: y[10] + y[13] + y[28] + y[31] + y[33] + y[43] + y[55] + y[59]
   + y[63] + y[68] + y[80] + y[89] - z[3599] >= 0
 R3600: y[2] + y[20] + y[35] + y[36] + y[39] + y[57] + y[84] + y[88]
   + y[98] - z[3600] >= 0
 R3601: y[10] + y[23] + y[25] + y[27] + y[28] + y[30] + y[33] + y[37]
   + y[42] + y[43] + y[59] + y[63] + y[76] + y[80] - z[3601] >= 0
 R3602: y[3] + y[40] + y[48] + y[54] + y[60] + y[72] + y[79] + y[86]
   + y[99] - z[3602] >= 0
 R3603: y[2] + y[18] + y[21] + y[32] + y[35] + y[36] + y[39] + y[44]
   + y[49] + y[50] + y[56] + y[69] + y[78] + y[81] + y[83] + y[84] + y[85]
   + y[93] - z[3603] >= 0
 R3604: y[4] + y[10] + y[28] + y[30] + y[31] + y[32] + y[33] + y[43]
   + y[55] + y[63] + y[79] + y[80] + y[89] - z[3604] >= 0
 R3605: y[2] + y[20] + y[35] + y[36] + y[39] + y[49] + y[56] + y[69]
   + y[81] + y[83] + y[84] + y[85] + y[88] + y[96] + y[98] - z[3605] >= 0
 R3606: y[2] + y[20] + y[32] + y[35] + y[36] + y[39] + y[48] + y[57]
   + y[72] + y[79] + y[86] + y[88] + y[96] - z[3606] >= 0
 R3607: y[4] + y[10] + y[28] + y[30] + y[31] + y[32] + y[33] + y[43]
   + y[49] + y[78] + y[80] + y[81] + y[83] + y[89] + y[94] - z[3607] >= 0
 R3608: y[2] + y[20] + y[35] + y[36] + y[39] + y[57] + y[72] + y[88]
   + y[91] + y[92] + y[96] + y[98] - z[3608] >= 0
 R3609: y[1] + y[6] + y[14] + y[20] + y[35] + y[36] + y[39] + y[57] + y[88]
   + y[91] + y[92] + y[98] - z[3609] >= 0
 R3610: y[11] + y[17] + y[54] + y[64] + y[66] + y[77] + y[97] - z[3610]
   >= 0
 R3611: y[5] + y[7] + y[9] + y[11] + y[13] + y[17] + y[51] + y[53] + y[59]
   + y[64] + y[68] + y[95] - z[3611] >= 0
 R3612: y[7] + y[9] + y[13] + y[25] + y[33] + y[37] + y[43] + y[51] + y[53]
   + y[55] + y[59] + y[63] + y[68] + y[76] + y[95] - z[3612] >= 0
 R3613: y[3] + y[40] + y[48] + y[54] + y[60] + y[86] - z[3613] >= 0
 R3614: y[5] + y[7] + y[9] + y[11] + y[13] + y[17] + y[51] + y[53] + y[55]
   + y[59] + y[64] + y[68] + y[95] - z[3614] >= 0
 R3615: y[6] + y[40] + y[48] + y[60] + y[72] + y[86] + y[91] + y[92]
   - z[3615] >= 0
 R3616: y[3] + y[9] + y[11] + y[13] + y[40] + y[54] + y[55] + y[60] + y[79]
   + y[99] - z[3616] >= 0
 R3617: y[3] + y[40] + y[48] + y[54] + y[55] + y[60] + y[72] + y[79]
   + y[86] + y[99] - z[3617] >= 0
 R3618: y[8] + y[12] + y[19] + y[22] + y[26] + y[38] + y[44] + y[45]
   + y[46] + y[47] + y[61] + y[67] + y[70] + y[87] - z[3618] >= 0
 R3619: y[3] + y[40] + y[54] + y[60] + y[66] + y[77] + y[97] - z[3619]
   >= 0
 R3620: y[8] + y[12] + y[22] + y[26] + y[38] + y[45] + y[46] + y[47]
   + y[58] + y[61] + y[67] + y[70] + y[87] - z[3620] >= 0
 R3621: y[4] + y[12] + y[19] + y[26] + y[38] + y[44] + y[45] + y[46]
   + y[47] + y[67] + y[70] + y[78] + y[83] + y[87] - z[3621] >= 0
 R3622: y[8] + y[12] + y[22] + y[34] + y[38] + y[45] + y[46] + y[58]
   + y[61] + y[74] + y[75] + y[87] - z[3622] >= 0
 R3623: y[2] + y[32] + y[35] + y[36] + y[49] + y[56] + y[69] + y[78]
   + y[81] + y[83] + y[85] + y[88] + y[96] - z[3623] >= 0
 R3624: y[2] + y[18] + y[19] + y[32] + y[35] + y[44] + y[49] + y[50]
   + y[56] + y[69] + y[78] + y[81] + y[83] + y[84] + y[85] + y[90] + y[93]
   - z[3624] >= 0
 R3625: y[3] + y[9] + y[11] + y[13] + y[40] + y[54] + y[55] + y[60] + y[66]
   + y[77] + y[79] + y[99] - z[3625] >= 0
 R3626: y[0] + y[4] + y[10] + y[15] + y[27] + y[28] + y[30] + y[31] + y[33]
   + y[43] + y[63] + y[80] + y[82] + y[89] + y[94] - z[3626] >= 0
 R3627: y[2] + y[4] + y[10] + y[31] + y[32] + y[35] + y[43] + y[49] + y[78]
   + y[79] + y[81] + y[83] + y[88] + y[89] + y[96] - z[3627] >= 0
 R3628: y[1] + y[6] + y[14] + y[65] + y[92] + y[98] - z[3628] >= 0
 R3629: y[8] + y[12] + y[22] + y[38] + y[45] + y[46] + y[47] + y[61]
   + y[67] + y[70] + y[87] - z[3629] >= 0
 R3630: y[8] + y[12] + y[22] + y[26] + y[38] + y[45] + y[46] + y[47]
   + y[58] + y[61] + y[67] + y[70] + y[87] - z[3630] >= 0
 R3631: y[1] + y[14] + y[65] - z[3631] >= 0
 R3632: y[18] + y[19] + y[21] + y[44] + y[49] + y[50] + y[56] + y[69]
   + y[74] + y[75] + y[78] + y[81] + y[83] + y[84] + y[85] + y[90] + y[93]
   - z[3632] >= 0
 R3633: y[2] + y[18] + y[19] + y[26] + y[32] + y[44] + y[49] + y[50]
   + y[56] + y[69] + y[78] + y[81] + y[83] + y[84] + y[85] + y[90] + y[93]
   - z[3633] >= 0
 R3634: y[8] + y[12] + y[22] + y[38] + y[45] + y[46] + y[58] + y[61]
   + y[67] + y[70] + y[87] - z[3634] >= 0
 R3635: y[0] + y[4] + y[10] + y[15] + y[27] + y[28] + y[30] + y[33] + y[43]
   + y[47] + y[70] + y[80] + y[82] + y[89] + y[94] - z[3635] >= 0
 R3636: y[11] + y[17] + y[64] + y[66] + y[77] + y[97] - z[3636] >= 0
 R3637: y[40] + y[48] + y[60] + y[72] + y[79] + y[86] + y[88] + y[91]
   + y[96] + y[99] - z[3637] >= 0
 R3638: y[29] + y[34] + y[50] + y[52] + y[62] + y[74] + y[75] + y[90]
   - z[3638] >= 0
 R3639: y[3] + y[9] + y[11] + y[13] + y[40] + y[54] + y[55] + y[60] + y[79]
   + y[99] - z[3639] >= 0
 R3640: y[2] + y[20] + y[31] + y[32] + y[35] + y[36] + y[39] + y[49]
   + y[72] + y[78] + y[79] + y[81] + y[83] + y[88] + y[96] - z[3640] >= 0
 R3641: y[6] + y[40] + y[48] + y[72] + y[86] + y[91] + y[92] - z[3641]
   >= 0
 R3642: y[29] + y[34] + y[52] + y[58] + y[62] + y[74] + y[75] - z[3642]
   >= 0
 R3643: y[3] + y[40] + y[48] + y[60] + y[72] + y[79] + y[86] + y[91]
   + y[99] - z[3643] >= 0
 R3644: y[29] + y[34] + y[52] + y[58] + y[62] - z[3644] >= 0
 R3645: y[21] + y[36] + y[39] + y[84] + y[98] - z[3645] >= 0
 R3646: y[3] + y[9] + y[11] + y[17] + y[54] + y[64] + y[66] + y[77] + y[97]
   - z[3646] >= 0
 R3647: y[6] + y[40] + y[48] + y[57] + y[60] + y[72] + y[86] + y[91]
   + y[92] - z[3647] >= 0
 R3648: y[0] + y[4] + y[10] + y[15] + y[16] + y[27] + y[28] + y[30] + y[33]
   + y[43] + y[63] + y[80] + y[82] + y[94] - z[3648] >= 0
 R3649: y[3] + y[11] + y[40] + y[54] + y[60] + y[66] + y[77] + y[99]
   - z[3649] >= 0
 R3650: y[9] + y[11] + y[13] + y[40] + y[54] + y[55] + y[60] + y[68]
   + y[79] + y[99] - z[3650] >= 0
 R3651: y[16] + y[23] + y[24] + y[25] + y[27] + y[28] + y[30] + y[33]
   + y[37] + y[42] + y[43] + y[59] + y[63] + y[71] + y[73] + y[76] + y[80]
   + y[82] + y[94] - z[3651] >= 0
 R3652: y[2] + y[20] + y[35] + y[36] + y[39] + y[57] + y[72] + y[86]
   + y[88] + y[92] + y[96] + y[98] - z[3652] >= 0
 R3653: y[5] + y[7] + y[9] + y[11] + y[13] + y[17] + y[51] + y[53] + y[54]
   + y[55] + y[59] + y[68] + y[95] + y[99] - z[3653] >= 0
 R3654: y[18] + y[21] + y[35] + y[36] + y[39] + y[50] + y[56] + y[69]
   + y[84] + y[85] + y[93] - z[3654] >= 0
 R3655: y[4] + y[10] + y[28] + y[30] + y[31] + y[32] + y[33] + y[43]
   + y[63] + y[80] + y[89] - z[3655] >= 0
 R3656: y[3] + y[11] + y[17] + y[54] + y[64] + y[66] + y[77] + y[97]
   - z[3656] >= 0
 R3657: y[0] + y[15] + y[70] + y[82] + y[94] - z[3657] >= 0
 R3658: y[5] + y[9] + y[11] + y[17] + y[64] + y[66] + y[77] + y[97]
   - z[3658] >= 0
 R3659: y[34] + y[52] + y[58] + y[62] - z[3659] >= 0
 R3660: y[1] + y[6] + y[14] + y[20] + y[57] + y[65] + y[92] + y[98]
   - z[3660] >= 0
 R3661: y[8] + y[12] + y[22] + y[38] + y[45] + y[46] + y[47] + y[58]
   + y[61] + y[67] + y[70] + y[87] - z[3661] >= 0
 R3662: y[8] + y[12] + y[19] + y[22] + y[26] + y[34] + y[38] + y[44]
   + y[45] + y[46] + y[47] + y[58] + y[61] + y[62] + y[67] + y[74] + y[75]
   + y[87] + y[90] - z[3662] >= 0
 R3663: y[29] + y[34] + y[52] + y[58] + y[62] + y[74] + y[75] - z[3663]
   >= 0
 R3664: y[0] + y[4] + y[12] + y[15] + y[28] + y[30] + y[47] + y[67] + y[70]
   + y[80] + y[82] + y[94] - z[3664] >= 0
 R3665: y[1] + y[39] + y[65] + y[98] - z[3665] >= 0
 R3666: y[29] + y[34] + y[50] + y[52] + y[58] + y[62] + y[74] + y[75]
   + y[90] - z[3666] >= 0
 R3667: y[5] + y[7] + y[9] + y[11] + y[13] + y[17] + y[25] + y[37] + y[51]
   + y[53] + y[59] + y[63] + y[68] + y[76] + y[95] - z[3667] >= 0
 R3668: y[18] + y[19] + y[26] + y[29] + y[44] + y[50] + y[56] + y[62]
   + y[69] + y[74] + y[75] + y[84] + y[85] + y[90] + y[93] - z[3668] >= 0
 R3669: y[9] + y[11] + y[13] + y[40] + y[54] + y[55] + y[59] + y[60]
   + y[68] + y[79] + y[99] - z[3669] >= 0
 R3670: y[1] + y[2] + y[20] + y[35] + y[36] + y[39] + y[57] + y[88] + y[92]
   + y[96] + y[98] - z[3670] >= 0
 R3671: y[3] + y[9] + y[11] + y[17] + y[54] + y[64] + y[66] + y[77] + y[97]
   - z[3671] >= 0
 R3672: y[2] + y[18] + y[32] + y[35] + y[36] + y[39] + y[44] + y[49]
   + y[56] + y[69] + y[78] + y[81] + y[83] + y[84] + y[85] + y[88] + y[96]
   - z[3672] >= 0
 R3673: y[1] + y[39] + y[98] - z[3673] >= 0
 R3674: y[3] + y[40] + y[48] + y[54] + y[60] + y[66] + y[77] + y[86]
   + y[99] - z[3674] >= 0
 R3675: y[18] + y[19] + y[26] + y[38] + y[44] + y[47] + y[49] + y[50]
   + y[56] + y[67] + y[69] + y[74] + y[75] + y[78] + y[83] + y[85] + y[87]
   + y[90] + y[93] - z[3675] >= 0
 R3676: y[18] + y[19] + y[26] + y[38] + y[44] + y[47] + y[49] + y[50]
   + y[56] + y[69] + y[74] + y[75] + y[78] + y[81] + y[83] + y[84] + y[85]
   + y[90] + y[93] - z[3676] >= 0
 R3677: y[4] + y[10] + y[27] + y[28] + y[30] + y[31] + y[33] + y[43]
   + y[55] + y[59] + y[63] + y[80] + y[89] - z[3677] >= 0
 R3678: y[0] + y[4] + y[12] + y[15] + y[26] + y[30] + y[38] + y[45] + y[46]
   + y[47] + y[67] + y[70] + y[82] + y[87] + y[94] - z[3678] >= 0
 R3679: y[6] + y[40] + y[48] + y[60] + y[72] + y[86] + y[91] + y[92]
   - z[3679] >= 0
 R3680: y[4] + y[10] + y[28] + y[30] + y[31] + y[32] + y[33] + y[43]
   + y[49] + y[78] + y[80] + y[81] + y[83] + y[89] - z[3680] >= 0
 R3681: y[2] + y[18] + y[19] + y[26] + y[32] + y[44] + y[47] + y[49]
   + y[56] + y[69] + y[78] + y[81] + y[83] + y[85] + y[90] + y[93]
   - z[3681] >= 0
 R3682: y[6] + y[20] + y[35] + y[39] + y[48] + y[57] + y[72] + y[86]
   + y[88] + y[91] + y[92] + y[96] - z[3682] >= 0
 R3683: y[18] + y[21] + y[29] + y[50] + y[69] + y[84] + y[85] + y[90]
   + y[93] - z[3683] >= 0
 R3684: y[16] + y[23] + y[24] + y[25] + y[27] + y[37] + y[42] + y[71]
   + y[73] + y[76] - z[3684] >= 0
 R3685: y[5] + y[9] + y[11] + y[13] + y[17] + y[51] + y[54] + y[64] + y[66]
   + y[68] + y[77] + y[97] - z[3685] >= 0
 R3686: y[16] + y[23] + y[24] + y[41] + y[42] + y[71] + y[73] - z[3686]
   >= 0
 R3687: y[2] + y[20] + y[35] + y[36] + y[39] + y[57] + y[72] + y[88]
   + y[92] + y[96] + y[98] - z[3687] >= 0
 R3688: y[2] + y[20] + y[35] + y[36] + y[39] + y[48] + y[57] + y[72]
   + y[86] + y[88] + y[91] + y[92] + y[96] + y[98] - z[3688] >= 0
 R3689: y[0] + y[12] + y[15] + y[61] + y[67] + y[70] + y[82] - z[3689]
   >= 0
 R3690: y[8] + y[12] + y[19] + y[22] + y[26] + y[38] + y[45] + y[46]
   + y[47] + y[58] + y[61] + y[67] + y[70] + y[87] - z[3690] >= 0
 R3691: y[0] + y[4] + y[10] + y[15] + y[27] + y[28] + y[30] + y[31] + y[33]
   + y[43] + y[63] + y[80] + y[82] + y[89] + y[94] - z[3691] >= 0
 R3692: y[2] + y[31] + y[32] + y[40] + y[55] + y[60] + y[72] + y[79]
   + y[88] + y[89] + y[96] + y[99] - z[3692] >= 0
 R3693: y[1] + y[6] + y[14] + y[57] + y[65] + y[91] + y[92] - z[3693] >= 0
 R3694: y[18] + y[19] + y[21] + y[29] + y[44] + y[50] + y[56] + y[62]
   + y[69] + y[74] + y[75] + y[84] + y[85] + y[90] + y[93] - z[3694] >= 0
 R3695: y[18] + y[19] + y[21] + y[29] + y[44] + y[50] + y[56] + y[62]
   + y[69] + y[74] + y[75] + y[84] + y[85] + y[90] + y[93] - z[3695] >= 0
 R3696: y[2] + y[18] + y[20] + y[21] + y[35] + y[36] + y[39] + y[49]
   + y[56] + y[69] + y[81] + y[84] + y[85] + y[98] - z[3696] >= 0
 R3697: y[2] + y[18] + y[19] + y[26] + y[32] + y[35] + y[44] + y[49]
   + y[56] + y[69] + y[78] + y[81] + y[83] + y[84] + y[85] + y[93]
   - z[3697] >= 0
 R3698: y[9] + y[13] + y[40] + y[54] + y[55] + y[60] + y[79] + y[99]
   - z[3698] >= 0
 R3699: y[18] + y[19] + y[21] + y[44] + y[49] + y[50] + y[56] + y[69]
   + y[75] + y[78] + y[83] + y[84] + y[85] + y[90] + y[93] - z[3699] >= 0
 R3700: y[1] + y[14] + y[65] - z[3700] >= 0
 R3701: y[3] + y[11] + y[40] + y[54] + y[60] + y[66] + y[77] + y[97]
   - z[3701] >= 0
 R3702: y[41] - z[3702] >= 0
 R3703: y[6] + y[20] + y[35] + y[36] + y[39] + y[48] + y[57] + y[72]
   + y[86] + y[88] + y[91] + y[92] + y[96] - z[3703] >= 0
 R3704: y[8] + y[12] + y[19] + y[22] + y[26] + y[34] + y[38] + y[45]
   + y[46] + y[47] + y[58] + y[61] + y[67] + y[70] + y[74] + y[75] + y[87]
   - z[3704] >= 0
 R3705: y[18] + y[19] + y[21] + y[29] + y[44] + y[50] + y[56] + y[62]
   + y[69] + y[74] + y[75] + y[84] + y[85] + y[90] + y[93] - z[3705] >= 0
 R3706: y[0] + y[15] + y[16] + y[23] + y[24] + y[27] + y[28] + y[30]
   + y[33] + y[41] + y[42] + y[71] + y[80] + y[82] + y[94] - z[3706] >= 0
 R3707: y[2] + y[20] + y[32] + y[35] + y[36] + y[39] + y[48] + y[57]
   + y[72] + y[86] + y[88] + y[92] + y[96] - z[3707] >= 0
 R3708: y[18] + y[21] + y[50] + y[56] + y[69] + y[84] + y[85] + y[90]
   + y[93] - z[3708] >= 0
 R3709: y[2] + y[6] + y[20] + y[35] + y[36] + y[39] + y[48] + y[57] + y[72]
   + y[86] + y[88] + y[91] + y[92] + y[96] - z[3709] >= 0
 R3710: y[2] + y[18] + y[21] + y[35] + y[36] + y[39] + y[49] + y[50]
   + y[56] + y[69] + y[78] + y[81] + y[83] + y[84] + y[85] + y[93]
   - z[3710] >= 0
 R3711: y[5] + y[7] + y[9] + y[11] + y[13] + y[17] + y[25] + y[37] + y[51]
   + y[53] + y[59] + y[63] + y[68] + y[76] + y[95] - z[3711] >= 0
 R3712: y[5] + y[7] + y[9] + y[11] + y[13] + y[17] + y[51] + y[53] + y[64]
   + y[68] + y[77] + y[95] + y[97] - z[3712] >= 0
 R3713: y[7] + y[16] + y[23] + y[24] + y[25] + y[37] + y[42] + y[59]
   + y[63] + y[71] + y[73] + y[76] + y[95] - z[3713] >= 0
 R3714: y[3] + y[40] + y[48] + y[54] + y[60] + y[72] + y[79] + y[86]
   + y[91] + y[99] - z[3714] >= 0
 R3715: y[18] + y[21] + y[36] + y[44] + y[49] + y[50] + y[56] + y[69]
   + y[78] + y[81] + y[83] + y[84] + y[85] + y[90] + y[93] - z[3715] >= 0
 R3716: y[8] + y[12] + y[19] + y[22] + y[26] + y[34] + y[38] + y[45]
   + y[46] + y[52] + y[58] + y[61] + y[62] + y[74] + y[75] + y[87] + y[90]
   - z[3716] >= 0
 R3717: y[3] + y[40] + y[48] + y[54] + y[60] + y[72] + y[86] + y[99]
   - z[3717] >= 0
 R3718: y[16] + y[24] + y[41] + y[71] - z[3718] >= 0
 R3719: y[6] + y[20] + y[36] + y[39] + y[48] + y[57] + y[72] + y[86]
   + y[88] + y[91] + y[92] + y[96] + y[98] - z[3719] >= 0
 R3720: y[7] + y[9] + y[13] + y[25] + y[33] + y[37] + y[51] + y[53] + y[55]
   + y[59] + y[63] + y[68] + y[76] + y[95] - z[3720] >= 0
 R3721: y[16] + y[23] + y[25] + y[27] + y[28] + y[33] + y[37] + y[42]
   + y[59] + y[63] + y[71] + y[73] + y[76] + y[80] + y[95] - z[3721] >= 0
 R3722: y[1] + y[6] + y[14] + y[20] + y[36] + y[39] + y[57] + y[65] + y[91]
   + y[92] + y[98] - z[3722] >= 0
 R3723: y[5] + y[7] + y[9] + y[11] + y[13] + y[17] + y[51] + y[53] + y[59]
   + y[64] + y[68] + y[95] - z[3723] >= 0
 R3724: y[3] + y[9] + y[11] + y[13] + y[17] + y[40] + y[54] + y[55] + y[60]
   + y[68] + y[79] + y[99] - z[3724] >= 0
 R3725: y[0] + y[12] + y[15] + y[38] + y[45] + y[46] + y[47] + y[61]
   + y[67] + y[70] + y[82] + y[87] - z[3725] >= 0
 R3726: y[7] + y[9] + y[10] + y[13] + y[28] + y[31] + y[33] + y[43] + y[51]
   + y[53] + y[55] + y[59] + y[63] + y[68] + y[79] - z[3726] >= 0
 R3727: y[18] + y[19] + y[26] + y[38] + y[44] + y[47] + y[49] + y[50]
   + y[56] + y[67] + y[69] + y[74] + y[75] + y[78] + y[81] + y[83] + y[85]
   + y[90] + y[93] - z[3727] >= 0
 R3728: y[3] + y[40] + y[54] + y[55] + y[60] + y[72] + y[79] + y[99]
   - z[3728] >= 0
 R3729: y[1] + y[6] + y[14] + y[20] + y[36] + y[39] + y[48] + y[57] + y[72]
   + y[86] + y[91] + y[92] + y[98] - z[3729] >= 0
 R3730: y[2] + y[20] + y[32] + y[35] + y[36] + y[39] + y[49] + y[56]
   + y[78] + y[81] + y[83] + y[88] + y[96] - z[3730] >= 0
 R3731: y[4] + y[10] + y[27] + y[28] + y[30] + y[31] + y[33] + y[43]
   + y[59] + y[63] + y[80] + y[82] + y[89] + y[94] - z[3731] >= 0
 R3732: y[2] + y[6] + y[20] + y[35] + y[36] + y[39] + y[48] + y[57] + y[72]
   + y[86] + y[88] + y[91] + y[92] + y[96] - z[3732] >= 0
 R3733: y[3] + y[9] + y[11] + y[13] + y[40] + y[54] + y[55] + y[60] + y[77]
   + y[79] + y[99] - z[3733] >= 0
 R3734: y[8] + y[22] + y[34] + y[52] + y[58] + y[62] + y[74] + y[75]
   - z[3734] >= 0
 R3735: y[8] + y[12] + y[22] + y[38] + y[45] + y[46] + y[47] + y[58]
   + y[61] + y[67] + y[70] + y[87] - z[3735] >= 0
 R3736: y[2] + y[20] + y[35] + y[36] + y[39] + y[48] + y[57] + y[72]
   + y[79] + y[86] + y[88] + y[91] + y[96] - z[3736] >= 0
 R3737: y[4] + y[10] + y[15] + y[28] + y[30] + y[31] + y[32] + y[33]
   + y[43] + y[78] + y[80] + y[81] + y[82] + y[83] + y[89] + y[94]
   - z[3737] >= 0
 R3738: y[2] + y[10] + y[31] + y[32] + y[35] + y[49] + y[78] + y[79]
   + y[81] + y[83] + y[88] + y[89] + y[96] - z[3738] >= 0
 R3739: y[5] + y[7] + y[9] + y[11] + y[13] + y[17] + y[51] + y[53] + y[64]
   + y[68] + y[95] + y[97] - z[3739] >= 0
 R3740: y[10] + y[13] + y[28] + y[31] + y[33] + y[43] + y[55] + y[59]
   + y[63] + y[79] + y[89] - z[3740] >= 0
 R3741: y[2] + y[18] + y[21] + y[35] + y[36] + y[39] + y[56] + y[69]
   + y[84] + y[85] + y[93] + y[98] - z[3741] >= 0
 R3742: y[5] + y[7] + y[9] + y[13] + y[25] + y[37] + y[51] + y[53] + y[59]
   + y[63] + y[68] + y[76] + y[95] - z[3742] >= 0
 R3743: y[18] + y[21] + y[36] + y[39] + y[50] + y[56] + y[69] + y[84]
   + y[85] + y[93] - z[3743] >= 0
 R3744: y[10] + y[13] + y[28] + y[31] + y[33] + y[43] + y[55] + y[59]
   + y[63] + y[79] + y[89] + y[99] - z[3744] >= 0
 R3745: y[3] + y[40] + y[54] + y[60] + y[66] + y[77] + y[99] - z[3745]
   >= 0
 R3746: y[5] + y[7] + y[9] + y[11] + y[13] + y[17] + y[51] + y[53] + y[55]
   + y[59] + y[63] + y[68] + y[95] - z[3746] >= 0
 R3747: y[3] + y[40] + y[48] + y[54] + y[55] + y[60] + y[72] + y[77]
   + y[79] + y[86] + y[99] - z[3747] >= 0
 R3748: y[31] + y[40] + y[54] + y[55] + y[60] + y[72] + y[79] + y[99]
   - z[3748] >= 0
 R3749: y[12] + y[19] + y[26] + y[38] + y[44] + y[45] + y[46] + y[47]
   + y[67] + y[70] + y[87] - z[3749] >= 0
 R3750: y[8] + y[12] + y[19] + y[22] + y[26] + y[38] + y[44] + y[45]
   + y[46] + y[47] + y[58] + y[61] + y[62] + y[67] + y[70] + y[74] + y[75]
   + y[87] + y[90] - z[3750] >= 0
 R3751: y[0] + y[4] + y[15] + y[16] + y[23] + y[27] + y[28] + y[30] + y[33]
   + y[42] + y[43] + y[63] + y[80] + y[82] + y[94] - z[3751] >= 0
 R3752: y[1] + y[20] + y[36] + y[39] + y[57] + y[98] - z[3752] >= 0
 R3753: y[2] + y[18] + y[19] + y[26] + y[32] + y[44] + y[47] + y[49]
   + y[56] + y[69] + y[78] + y[81] + y[83] + y[85] + y[93] - z[3753] >= 0
 R3754: y[3] + y[9] + y[11] + y[13] + y[17] + y[40] + y[53] + y[54] + y[55]
   + y[60] + y[68] + y[77] + y[79] + y[99] - z[3754] >= 0
 R3755: y[7] + y[9] + y[13] + y[25] + y[33] + y[37] + y[51] + y[53] + y[55]
   + y[59] + y[63] + y[68] + y[76] + y[95] - z[3755] >= 0
 R3756: y[0] + y[15] + y[41] + y[82] - z[3756] >= 0
 R3757: y[7] + y[16] + y[23] + y[24] + y[25] + y[33] + y[37] + y[42]
   + y[59] + y[63] + y[71] + y[73] + y[76] + y[95] - z[3757] >= 0
 R3758: y[6] + y[48] + y[72] + y[86] + y[91] + y[92] - z[3758] >= 0
 R3759: y[1] + y[6] + y[14] + y[65] + y[92] + y[98] - z[3759] >= 0
 R3760: y[4] + y[12] + y[15] + y[19] + y[26] + y[30] + y[38] + y[44]
   + y[45] + y[47] + y[67] + y[70] + y[78] + y[83] + y[87] - z[3760] >= 0
 R3761: y[1] + y[20] + y[35] + y[36] + y[39] + y[57] + y[98] - z[3761]
   >= 0
 R3762: y[18] + y[19] + y[29] + y[44] + y[50] + y[52] + y[62] + y[69]
   + y[74] + y[75] + y[85] + y[90] + y[93] - z[3762] >= 0
 R3763: y[4] + y[10] + y[15] + y[26] + y[30] + y[32] + y[38] + y[47]
   + y[49] + y[67] + y[70] + y[78] + y[81] + y[83] + y[89] - z[3763] >= 0
 R3764: y[29] + y[34] + y[52] + y[58] + y[62] + y[74] + y[75] + y[90]
   - z[3764] >= 0
 R3765: y[2] + y[31] + y[32] + y[35] + y[72] + y[79] + y[81] + y[88]
   + y[89] + y[96] - z[3765] >= 0
 R3766: y[3] + y[9] + y[11] + y[13] + y[17] + y[40] + y[54] + y[55] + y[60]
   + y[68] + y[77] + y[79] + y[99] - z[3766] >= 0
 R3767: y[29] + y[34] + y[50] + y[52] + y[58] + y[62] + y[74] + y[75]
   + y[90] + y[93] - z[3767] >= 0
 R3768: y[2] + y[10] + y[31] + y[32] + y[35] + y[55] + y[72] + y[79]
   + y[81] + y[88] + y[89] + y[96] - z[3768] >= 0
 R3769: y[2] + y[20] + y[35] + y[48] + y[57] + y[72] + y[79] + y[86]
   + y[88] + y[91] + y[96] + y[99] - z[3769] >= 0
 R3770: y[9] + y[11] + y[13] + y[40] + y[54] + y[55] + y[60] + y[79]
   + y[99] - z[3770] >= 0
 R3771: y[9] + y[13] + y[31] + y[33] + y[53] + y[55] + y[59] + y[63]
   + y[68] + y[79] + y[99] - z[3771] >= 0
 R3772: y[18] + y[19] + y[26] + y[44] + y[49] + y[50] + y[56] + y[69]
   + y[74] + y[75] + y[78] + y[81] + y[83] + y[84] + y[85] + y[90] + y[93]
   - z[3772] >= 0
 R3773: y[16] + y[23] + y[24] + y[25] + y[37] + y[42] + y[71] + y[73]
   + y[76] - z[3773] >= 0
 R3774: y[3] + y[11] + y[40] + y[54] + y[60] + y[66] + y[77] + y[99]
   - z[3774] >= 0
 R3775: y[3] + y[9] + y[11] + y[13] + y[17] + y[40] + y[54] + y[60] + y[64]
   + y[66] + y[77] + y[97] + y[99] - z[3775] >= 0
 R3776: y[0] + y[15] + y[16] + y[27] + y[41] + y[82] + y[94] - z[3776]
   >= 0
 R3777: y[8] + y[12] + y[22] + y[26] + y[38] + y[45] + y[46] + y[47]
   + y[61] + y[67] + y[70] + y[87] - z[3777] >= 0
 R3778: y[0] + y[15] + y[70] + y[82] + y[94] - z[3778] >= 0
 R3779: y[0] + y[4] + y[10] + y[15] + y[27] + y[28] + y[30] + y[43] + y[47]
   + y[67] + y[70] + y[80] + y[82] + y[89] + y[94] - z[3779] >= 0
 R3780: y[3] + y[11] + y[17] + y[54] + y[64] + y[66] + y[77] + y[97]
   - z[3780] >= 0
 R3781: y[18] + y[21] + y[50] + y[56] + y[69] + y[84] + y[85] + y[90]
   + y[93] - z[3781] >= 0
 R3782: y[1] + y[6] + y[14] + y[20] + y[36] + y[39] + y[48] + y[57] + y[86]
   + y[88] + y[91] + y[92] + y[98] - z[3782] >= 0
 R3783: y[12] + y[19] + y[26] + y[38] + y[44] + y[45] + y[46] + y[47]
   + y[56] + y[58] + y[67] + y[70] + y[74] + y[75] + y[78] + y[83] + y[87]
   - z[3783] >= 0
 R3784: y[0] + y[4] + y[15] + y[27] + y[28] + y[30] + y[47] + y[67] + y[70]
   + y[80] + y[82] + y[94] - z[3784] >= 0
 R3785: y[1] + y[39] + y[98] - z[3785] >= 0
 R3786: y[18] + y[19] + y[29] + y[44] + y[50] + y[52] + y[62] + y[69]
   + y[74] + y[75] + y[90] + y[93] - z[3786] >= 0
 R3787: y[9] + y[13] + y[31] + y[40] + y[54] + y[55] + y[60] + y[79]
   + y[99] - z[3787] >= 0
 R3788: y[4] + y[10] + y[19] + y[26] + y[31] + y[32] + y[44] + y[47]
   + y[49] + y[56] + y[78] + y[81] + y[83] + y[89] - z[3788] >= 0
 R3789: y[1] + y[14] + y[65] + y[98] - z[3789] >= 0
 R3790: y[0] + y[4] + y[15] + y[16] + y[27] + y[28] + y[30] + y[43] + y[80]
   + y[82] + y[94] - z[3790] >= 0
 R3791: y[2] + y[18] + y[20] + y[32] + y[35] + y[36] + y[39] + y[49]
   + y[56] + y[69] + y[78] + y[81] + y[83] + y[84] + y[85] + y[88] + y[96]
   - z[3791] >= 0
 R3792: y[0] + y[4] + y[10] + y[15] + y[16] + y[27] + y[28] + y[30] + y[33]
   + y[43] + y[80] + y[82] + y[94] - z[3792] >= 0
 R3793: y[2] + y[20] + y[32] + y[35] + y[36] + y[39] + y[49] + y[57]
   + y[72] + y[81] + y[83] + y[88] + y[96] - z[3793] >= 0
 R3794: y[0] + y[15] + y[70] + y[82] + y[94] - z[3794] >= 0
 R3795: y[18] + y[21] + y[36] + y[39] + y[69] + y[84] + y[85] + y[98]
   - z[3795] >= 0
 R3796: y[5] + y[7] + y[9] + y[11] + y[13] + y[17] + y[51] + y[53] + y[64]
   + y[68] + y[77] + y[95] + y[97] - z[3796] >= 0
 R3797: y[5] + y[7] + y[9] + y[11] + y[13] + y[17] + y[51] + y[53] + y[64]
   + y[68] + y[97] - z[3797] >= 0
 R3798: y[2] + y[20] + y[32] + y[35] + y[36] + y[39] + y[48] + y[57]
   + y[72] + y[79] + y[81] + y[86] + y[88] + y[96] - z[3798] >= 0
 R3799: y[24] + y[41] + y[71] - z[3799] >= 0
 R3800: y[1] + y[6] + y[14] + y[65] + y[92] - z[3800] >= 0
 R3801: y[1] + y[6] + y[14] + y[20] + y[36] + y[39] + y[48] + y[57] + y[86]
   + y[88] + y[91] + y[92] + y[98] - z[3801] >= 0
 R3802: y[0] + y[15] + y[16] + y[27] + y[41] + y[82] + y[94] - z[3802]
   >= 0
 R3803: y[40] + y[48] + y[60] + y[72] + y[79] + y[86] + y[88] + y[96]
   + y[99] - z[3803] >= 0
 R3804: y[2] + y[4] + y[10] + y[28] + y[30] + y[31] + y[32] + y[33] + y[43]
   + y[49] + y[78] + y[81] + y[83] + y[89] - z[3804] >= 0
 R3805: y[6] + y[20] + y[35] + y[36] + y[39] + y[48] + y[57] + y[72]
   + y[86] + y[88] + y[91] + y[92] + y[96] - z[3805] >= 0
 R3806: y[2] + y[18] + y[19] + y[26] + y[32] + y[35] + y[44] + y[49]
   + y[56] + y[69] + y[78] + y[81] + y[83] + y[84] + y[85] + y[93]
   - z[3806] >= 0
 R3807: y[3] + y[40] + y[54] + y[60] + y[66] + y[77] - z[3807] >= 0
 R3808: y[8] + y[12] + y[22] + y[34] + y[38] + y[45] + y[46] + y[58]
   + y[61] + y[67] + y[70] + y[87] - z[3808] >= 0
 R3809: y[8] + y[12] + y[22] + y[26] + y[38] + y[45] + y[46] + y[47]
   + y[58] + y[61] + y[67] + y[70] + y[87] - z[3809] >= 0
 R3810: y[5] + y[7] + y[9] + y[13] + y[23] + y[25] + y[33] + y[37] + y[42]
   + y[51] + y[53] + y[59] + y[63] + y[68] + y[76] + y[95] - z[3810] >= 0
 R3811: y[8] + y[12] + y[19] + y[22] + y[26] + y[38] + y[44] + y[45]
   + y[46] + y[47] + y[58] + y[61] + y[67] + y[70] + y[87] - z[3811] >= 0
 R3812: y[9] + y[13] + y[31] + y[40] + y[55] + y[59] + y[60] + y[79]
   + y[99] - z[3812] >= 0
 R3813: y[1] + y[14] + y[65] - z[3813] >= 0
 R3814: y[0] + y[15] + y[82] - z[3814] >= 0
 R3815: y[29] + y[50] + y[52] + y[62] + y[74] + y[75] + y[90] + y[93]
   - z[3815] >= 0
 R3816: y[5] + y[7] + y[9] + y[11] + y[13] + y[17] + y[51] + y[53] + y[64]
   + y[68] + y[95] + y[97] - z[3816] >= 0
 R3817: y[16] + y[23] + y[24] + y[25] + y[37] + y[41] + y[42] + y[71]
   + y[73] + y[76] - z[3817] >= 0
 R3818: y[2] + y[18] + y[21] + y[35] + y[36] + y[39] + y[50] + y[56]
   + y[69] + y[84] + y[85] + y[93] - z[3818] >= 0
 R3819: y[16] + y[23] + y[24] + y[25] + y[27] + y[37] + y[42] + y[71]
   + y[73] + y[76] - z[3819] >= 0
 R3820: y[1] + y[39] + y[98] - z[3820] >= 0
 R3821: y[5] + y[7] + y[9] + y[11] + y[13] + y[17] + y[51] + y[53] + y[55]
   + y[59] + y[64] + y[68] + y[95] - z[3821] >= 0
 R3822: y[7] + y[16] + y[23] + y[25] + y[33] + y[37] + y[42] + y[51]
   + y[53] + y[59] + y[63] + y[68] + y[73] + y[76] + y[80] + y[95]
   - z[3822] >= 0
 R3823: y[6] + y[20] + y[36] + y[39] + y[48] + y[57] + y[72] + y[86]
   + y[88] + y[91] + y[92] + y[96] - z[3823] >= 0
 R3824: y[0] + y[4] + y[10] + y[15] + y[28] + y[30] + y[43] + y[47] + y[67]
   + y[70] + y[80] + y[82] + y[89] + y[94] - z[3824] >= 0
 R3825: y[18] + y[21] + y[35] + y[36] + y[39] + y[69] + y[84] + y[85]
   + y[98] - z[3825] >= 0
 R3826: y[2] + y[18] + y[21] + y[35] + y[36] + y[39] + y[44] + y[49]
   + y[50] + y[56] + y[69] + y[78] + y[81] + y[83] + y[84] + y[85] + y[93]
   - z[3826] >= 0
 R3827: y[8] + y[12] + y[19] + y[22] + y[26] + y[34] + y[38] + y[44]
   + y[45] + y[46] + y[47] + y[58] + y[61] + y[62] + y[67] + y[74] + y[75]
   + y[87] + y[90] - z[3827] >= 0
 R3828: y[5] + y[7] + y[9] + y[11] + y[13] + y[17] + y[51] + y[53] + y[54]
   + y[55] + y[64] + y[68] + y[95] + y[97] - z[3828] >= 0
 R3829: y[7] + y[23] + y[25] + y[33] + y[37] + y[42] + y[51] + y[53]
   + y[59] + y[63] + y[68] + y[73] + y[76] + y[95] - z[3829] >= 0
 R3830: y[8] + y[12] + y[19] + y[22] + y[26] + y[34] + y[38] + y[45]
   + y[46] + y[58] + y[61] + y[62] + y[67] + y[74] + y[75] + y[87]
   - z[3830] >= 0
 R3831: y[6] + y[20] + y[35] + y[36] + y[39] + y[48] + y[57] + y[72]
   + y[86] + y[88] + y[91] + y[92] + y[96] + y[98] - z[3831] >= 0
 R3832: y[1] + y[20] + y[35] + y[36] + y[39] + y[57] + y[92] + y[98]
   - z[3832] >= 0
 R3833: y[5] + y[7] + y[9] + y[11] + y[13] + y[17] + y[51] + y[53] + y[64]
   + y[68] + y[95] - z[3833] >= 0
 R3834: y[0] + y[15] + y[27] + y[41] + y[82] + y[94] - z[3834] >= 0
 R3835: y[29] + y[50] + y[52] + y[62] + y[74] + y[75] + y[90] + y[93]
   - z[3835] >= 0
 R3836: y[8] + y[12] + y[19] + y[22] + y[26] + y[29] + y[34] + y[38]
   + y[44] + y[45] + y[46] + y[52] + y[58] + y[62] + y[74] + y[75] + y[87]
   + y[90] - z[3836] >= 0
 R3837: y[1] + y[6] + y[14] + y[65] + y[92] + y[98] - z[3837] >= 0
 R3838: y[2] + y[10] + y[31] + y[32] + y[35] + y[49] + y[56] + y[78]
   + y[81] + y[83] + y[88] + y[89] + y[96] - z[3838] >= 0
 R3839: y[8] + y[12] + y[19] + y[22] + y[26] + y[34] + y[38] + y[45]
   + y[46] + y[58] + y[61] + y[62] + y[67] + y[74] + y[75] + y[87]
   - z[3839] >= 0
 R3840: y[2] + y[20] + y[35] + y[36] + y[39] + y[57] + y[84] + y[88]
   + y[98] - z[3840] >= 0
 R3841: y[2] + y[20] + y[32] + y[35] + y[36] + y[39] + y[49] + y[56]
   + y[57] + y[72] + y[78] + y[81] + y[83] + y[88] + y[96] - z[3841] >= 0
 R3842: y[16] + y[23] + y[24] + y[25] + y[27] + y[33] + y[37] + y[42]
   + y[59] + y[63] + y[71] + y[73] + y[76] + y[80] - z[3842] >= 0
 R3843: y[18] + y[19] + y[26] + y[29] + y[38] + y[44] + y[45] + y[47]
   + y[50] + y[56] + y[58] + y[62] + y[67] + y[69] + y[74] + y[75] + y[85]
   + y[87] + y[90] + y[93] - z[3843] >= 0
 R3844: y[3] + y[5] + y[9] + y[11] + y[13] + y[17] + y[54] + y[64] + y[66]
   + y[68] + y[77] + y[97] - z[3844] >= 0
 R3845: y[1] + y[6] + y[14] + y[20] + y[39] + y[48] + y[57] + y[65] + y[86]
   + y[91] + y[92] - z[3845] >= 0
 R3846: y[18] + y[21] + y[29] + y[50] + y[69] + y[84] + y[85] + y[90]
   + y[93] - z[3846] >= 0
 R3847: y[2] + y[6] + y[20] + y[35] + y[36] + y[39] + y[48] + y[57] + y[72]
   + y[86] + y[88] + y[91] + y[92] + y[96] - z[3847] >= 0
 R3848: y[5] + y[7] + y[9] + y[11] + y[13] + y[17] + y[51] + y[53] + y[55]
   + y[59] + y[64] + y[68] + y[95] - z[3848] >= 0
 R3849: y[4] + y[10] + y[15] + y[28] + y[30] + y[31] + y[32] + y[33]
   + y[43] + y[47] + y[49] + y[78] + y[80] + y[81] + y[82] + y[83] + y[89]
   + y[94] - z[3849] >= 0
 R3850: y[2] + y[18] + y[19] + y[21] + y[32] + y[35] + y[36] + y[44]
   + y[49] + y[50] + y[56] + y[69] + y[78] + y[81] + y[83] + y[84] + y[85]
   + y[90] + y[93] - z[3850] >= 0
 R3851: y[2] + y[31] + y[32] + y[35] + y[36] + y[49] + y[56] + y[72]
   + y[78] + y[79] + y[81] + y[83] + y[88] + y[89] + y[96] - z[3851] >= 0
 R3852: y[2] + y[4] + y[10] + y[31] + y[32] + y[35] + y[49] + y[56] + y[78]
   + y[81] + y[83] + y[88] + y[89] + y[96] - z[3852] >= 0
 R3853: y[0] + y[12] + y[15] + y[26] + y[38] + y[45] + y[46] + y[47]
   + y[61] + y[67] + y[70] + y[82] + y[87] - z[3853] >= 0
 R3854: y[18] + y[29] + y[50] + y[52] + y[62] + y[74] + y[75] + y[90]
   + y[93] - z[3854] >= 0
 R3855: y[3] + y[9] + y[11] + y[13] + y[17] + y[40] + y[54] + y[55] + y[60]
   + y[64] + y[66] + y[68] + y[77] + y[97] + y[99] - z[3855] >= 0
 R3856: y[1] + y[6] + y[14] + y[20] + y[39] + y[57] + y[65] + y[92] + y[98]
   - z[3856] >= 0
 R3857: y[3] + y[40] + y[48] + y[54] + y[60] + y[77] + y[86] - z[3857]
   >= 0
 R3858: y[0] + y[15] + y[16] + y[27] + y[30] + y[41] + y[71] + y[80]
   + y[82] + y[94] - z[3858] >= 0
 R3859: y[0] + y[4] + y[10] + y[15] + y[16] + y[23] + y[25] + y[27] + y[28]
   + y[30] + y[33] + y[37] + y[42] + y[43] + y[59] + y[63] + y[80] + y[82]
   + y[94] - z[3859] >= 0
 R3860: y[11] + y[17] + y[64] + y[66] + y[77] + y[97] - z[3860] >= 0
 R3861: y[3] + y[11] + y[40] + y[54] + y[60] + y[64] + y[66] + y[77]
   + y[97] - z[3861] >= 0
 R3862: y[3] + y[40] + y[48] + y[54] + y[60] + y[72] + y[77] + y[79]
   + y[86] + y[99] - z[3862] >= 0
 R3863: y[2] + y[18] + y[32] + y[35] + y[36] + y[39] + y[49] + y[56]
   + y[69] + y[78] + y[81] + y[83] + y[84] + y[85] + y[88] + y[93] + y[96]
   - z[3863] >= 0
 R3864: y[12] + y[19] + y[26] + y[38] + y[44] + y[45] + y[46] + y[47]
   + y[61] + y[67] + y[70] + y[87] - z[3864] >= 0
 R3865: y[18] + y[19] + y[21] + y[29] + y[44] + y[50] + y[56] + y[62]
   + y[69] + y[74] + y[75] + y[84] + y[85] + y[90] + y[93] - z[3865] >= 0
 R3866: y[2] + y[18] + y[32] + y[35] + y[36] + y[44] + y[49] + y[56]
   + y[69] + y[78] + y[81] + y[83] + y[85] + y[88] + y[96] - z[3866] >= 0
 R3867: y[18] + y[19] + y[29] + y[44] + y[50] + y[52] + y[62] + y[69]
   + y[74] + y[75] + y[84] + y[85] + y[90] + y[93] - z[3867] >= 0
 R3868: y[18] + y[21] + y[29] + y[44] + y[50] + y[69] + y[84] + y[85]
   + y[90] + y[93] - z[3868] >= 0
 R3869: y[3] + y[40] + y[48] + y[54] + y[60] + y[72] + y[77] + y[86]
   + y[99] - z[3869] >= 0
 R3870: y[2] + y[20] + y[32] + y[35] + y[36] + y[39] + y[49] + y[56]
   + y[57] + y[72] + y[78] + y[81] + y[83] + y[88] + y[96] - z[3870] >= 0
 R3871: y[2] + y[32] + y[35] + y[36] + y[39] + y[49] + y[56] + y[69]
   + y[78] + y[81] + y[83] + y[84] + y[85] + y[88] + y[96] - z[3871] >= 0
 R3872: y[0] + y[12] + y[15] + y[38] + y[45] + y[46] + y[47] + y[61]
   + y[67] + y[70] + y[82] + y[87] - z[3872] >= 0
 R3873: y[2] + y[20] + y[35] + y[40] + y[48] + y[57] + y[60] + y[72]
   + y[79] + y[86] + y[88] + y[96] + y[99] - z[3873] >= 0
 R3874: y[3] + y[9] + y[11] + y[13] + y[40] + y[54] + y[55] + y[60] + y[68]
   + y[77] + y[79] + y[99] - z[3874] >= 0
 R3875: y[16] + y[23] + y[24] + y[25] + y[27] + y[37] + y[42] + y[71]
   + y[73] + y[76] - z[3875] >= 0
 R3876: y[18] + y[19] + y[26] + y[38] + y[44] + y[47] + y[49] + y[50]
   + y[56] + y[62] + y[67] + y[69] + y[74] + y[75] + y[78] + y[83] + y[84]
   + y[85] + y[87] + y[90] + y[93] - z[3876] >= 0
 R3877: y[0] + y[15] + y[16] + y[27] + y[30] + y[41] + y[80] + y[82]
   + y[94] - z[3877] >= 0
 R3878: y[0] + y[41] - z[3878] >= 0
 R3879: y[2] + y[6] + y[20] + y[35] + y[36] + y[39] + y[48] + y[57] + y[72]
   + y[86] + y[88] + y[91] + y[92] + y[96] + y[98] - z[3879] >= 0
 R3880: y[7] + y[9] + y[10] + y[13] + y[28] + y[31] + y[33] + y[43] + y[51]
   + y[53] + y[55] + y[59] + y[63] + y[68] + y[79] - z[3880] >= 0
 R3881: y[9] + y[11] + y[17] + y[54] + y[64] + y[66] + y[77] + y[97]
   - z[3881] >= 0
 R3882: y[11] + y[17] + y[64] + y[66] + y[77] + y[97] - z[3882] >= 0
 R3883: y[3] + y[11] + y[17] + y[54] + y[64] + y[66] + y[77] + y[97]
   - z[3883] >= 0
 R3884: y[4] + y[10] + y[28] + y[31] + y[32] + y[33] + y[43] + y[55]
   + y[59] + y[63] + y[79] + y[89] + y[99] - z[3884] >= 0
 R3885: y[8] + y[29] + y[34] + y[52] + y[58] + y[62] + y[74] + y[75]
   - z[3885] >= 0
 R3886: y[7] + y[9] + y[13] + y[25] + y[33] + y[37] + y[51] + y[53] + y[55]
   + y[59] + y[63] + y[68] + y[76] + y[95] - z[3886] >= 0
 R3887: y[2] + y[20] + y[32] + y[35] + y[36] + y[39] + y[48] + y[57]
   + y[72] + y[79] + y[81] + y[86] + y[88] + y[96] - z[3887] >= 0
 R3888: y[8] + y[12] + y[19] + y[22] + y[26] + y[34] + y[38] + y[45]
   + y[46] + y[47] + y[58] + y[61] + y[67] + y[70] + y[74] + y[75] + y[87]
   - z[3888] >= 0
 R3889: y[3] + y[40] + y[54] + y[60] + y[66] + y[77] - z[3889] >= 0
 R3890: y[18] + y[21] + y[44] + y[50] + y[56] + y[69] + y[84] + y[85]
   + y[90] + y[93] - z[3890] >= 0
 R3891: y[9] + y[13] + y[31] + y[55] + y[59] + y[63] + y[68] + y[79]
   + y[99] - z[3891] >= 0
 R3892: y[2] + y[20] + y[32] + y[35] + y[36] + y[39] + y[49] + y[56]
   + y[57] + y[78] + y[81] + y[83] + y[85] + y[88] + y[96] - z[3892] >= 0
 R3893: y[1] + y[6] + y[14] + y[20] + y[39] + y[57] + y[65] + y[91] + y[92]
   + y[98] - z[3893] >= 0
 R3894: y[2] + y[31] + y[32] + y[35] + y[49] + y[56] + y[78] + y[81]
   + y[83] + y[88] + y[89] + y[96] - z[3894] >= 0
 R3895: y[6] + y[20] + y[48] + y[57] + y[72] + y[86] + y[88] + y[91]
   + y[92] + y[96] - z[3895] >= 0
 R3896: y[5] + y[7] + y[9] + y[11] + y[13] + y[17] + y[51] + y[53] + y[64]
   + y[68] + y[95] - z[3896] >= 0
 R3897: y[8] + y[12] + y[19] + y[22] + y[26] + y[34] + y[38] + y[45]
   + y[46] + y[58] + y[61] + y[62] + y[67] + y[74] + y[75] + y[87] + y[90]
   - z[3897] >= 0
 R3898: y[6] + y[14] + y[20] + y[48] + y[57] + y[86] + y[91] + y[92]
   - z[3898] >= 0
 R3899: y[16] + y[24] + y[41] + y[71] - z[3899] >= 0
 R3900: y[3] + y[40] + y[48] + y[60] + y[72] + y[86] + y[91] - z[3900]
   >= 0
 R3901: y[5] + y[7] + y[9] + y[11] + y[13] + y[17] + y[51] + y[53] + y[55]
   + y[59] + y[63] + y[68] + y[95] - z[3901] >= 0
 R3902: y[2] + y[35] + y[40] + y[48] + y[55] + y[60] + y[72] + y[79]
   + y[86] + y[88] + y[96] + y[99] - z[3902] >= 0
 R3903: y[0] + y[4] + y[15] + y[16] + y[27] + y[28] + y[30] + y[43] + y[80]
   + y[82] + y[94] - z[3903] >= 0
 R3904: y[1] + y[2] + y[20] + y[35] + y[36] + y[39] + y[57] + y[88] + y[92]
   + y[98] - z[3904] >= 0
 R3905: y[5] + y[7] + y[9] + y[11] + y[13] + y[17] + y[51] + y[53] + y[54]
   + y[55] + y[59] + y[68] + y[95] + y[99] - z[3905] >= 0
 R3906: y[7] + y[13] + y[23] + y[25] + y[33] + y[37] + y[42] + y[51]
   + y[53] + y[59] + y[63] + y[68] + y[73] + y[76] + y[95] - z[3906] >= 0
 R3907: y[3] + y[11] + y[40] + y[54] + y[55] + y[60] + y[66] + y[77]
   + y[79] + y[99] - z[3907] >= 0
 R3908: y[16] + y[24] + y[41] + y[71] + y[73] - z[3908] >= 0
 R3909: y[2] + y[20] + y[35] + y[36] + y[39] + y[57] + y[72] + y[88]
   + y[92] + y[96] + y[98] - z[3909] >= 0
 R3910: y[4] + y[19] + y[26] + y[32] + y[38] + y[44] + y[47] + y[49]
   + y[56] + y[67] + y[69] + y[78] + y[81] + y[83] - z[3910] >= 0
 R3911: y[2] + y[31] + y[32] + y[35] + y[48] + y[72] + y[79] + y[81]
   + y[86] + y[88] + y[96] + y[99] - z[3911] >= 0
 R3912: y[16] + y[23] + y[24] + y[25] + y[27] + y[37] + y[42] + y[71]
   + y[73] + y[76] - z[3912] >= 0
 R3913: y[1] + y[2] + y[6] + y[20] + y[35] + y[36] + y[39] + y[57] + y[88]
   + y[91] + y[92] + y[96] + y[98] - z[3913] >= 0
 R3914: y[3] + y[9] + y[11] + y[13] + y[17] + y[40] + y[54] + y[55] + y[60]
   + y[64] + y[66] + y[68] + y[77] + y[97] + y[99] - z[3914] >= 0
 R3915: y[1] + y[20] + y[35] + y[36] + y[39] + y[57] + y[88] + y[92]
   + y[98] - z[3915] >= 0
 R3916: y[1] + y[6] + y[14] + y[48] + y[57] + y[65] + y[91] + y[92]
   - z[3916] >= 0
 R3917: y[0] + y[4] + y[10] + y[15] + y[27] + y[28] + y[30] + y[33] + y[43]
   + y[80] + y[82] + y[89] + y[94] - z[3917] >= 0
 R3918: y[2] + y[20] + y[35] + y[36] + y[39] + y[48] + y[57] + y[72]
   + y[86] + y[88] + y[91] + y[92] + y[96] - z[3918] >= 0
 R3919: y[2] + y[4] + y[10] + y[28] + y[31] + y[32] + y[43] + y[49] + y[78]
   + y[81] + y[83] + y[89] - z[3919] >= 0
 R3920: y[31] + y[40] + y[54] + y[55] + y[60] + y[72] + y[79] + y[96]
   + y[99] - z[3920] >= 0
 R3921: y[7] + y[9] + y[13] + y[23] + y[25] + y[33] + y[37] + y[42] + y[51]
   + y[53] + y[55] + y[59] + y[63] + y[68] + y[76] + y[95] - z[3921] >= 0
 R3922: y[7] + y[13] + y[23] + y[25] + y[28] + y[33] + y[37] + y[42]
   + y[43] + y[51] + y[53] + y[59] + y[63] + y[68] + y[76] + y[80] + y[95]
   - z[3922] >= 0
 R3923: y[0] + y[4] + y[10] + y[15] + y[27] + y[28] + y[30] + y[33] + y[43]
   + y[70] + y[80] + y[82] + y[94] - z[3923] >= 0
 R3924: y[8] + y[12] + y[19] + y[22] + y[26] + y[38] + y[45] + y[46]
   + y[47] + y[58] + y[61] + y[67] + y[70] + y[87] - z[3924] >= 0
 R3925: y[18] + y[19] + y[29] + y[44] + y[50] + y[52] + y[62] + y[69]
   + y[74] + y[75] + y[85] + y[90] + y[93] - z[3925] >= 0
 R3926: y[4] + y[10] + y[28] + y[30] + y[31] + y[32] + y[33] + y[43]
   + y[78] + y[80] + y[81] + y[89] - z[3926] >= 0
 R3927: y[18] + y[21] + y[50] + y[56] + y[69] + y[84] + y[85] + y[90]
   + y[93] - z[3927] >= 0
 R3928: y[2] + y[20] + y[35] + y[36] + y[39] + y[57] + y[88] + y[96]
   + y[98] - z[3928] >= 0
 R3929: y[3] + y[11] + y[54] + y[64] + y[66] + y[77] + y[97] - z[3929]
   >= 0
 R3930: y[8] + y[12] + y[15] + y[22] + y[45] + y[46] + y[47] + y[61]
   + y[67] + y[70] + y[87] - z[3930] >= 0
 R3931: y[12] + y[18] + y[19] + y[26] + y[38] + y[44] + y[45] + y[46]
   + y[47] + y[56] + y[58] + y[67] + y[69] + y[70] + y[74] + y[75] + y[78]
   + y[83] + y[87] + y[90] + y[93] - z[3931] >= 0
 R3932: y[29] + y[34] + y[52] + y[62] - z[3932] >= 0
 R3933: y[2] + y[31] + y[32] + y[35] + y[55] + y[72] + y[79] + y[88]
   + y[89] + y[96] + y[99] - z[3933] >= 0
 R3934: y[8] + y[12] + y[22] + y[34] + y[38] + y[45] + y[46] + y[58]
   + y[61] + y[87] - z[3934] >= 0
 R3935: y[0] + y[16] + y[23] + y[24] + y[27] + y[41] + y[42] + y[71]
   + y[73] + y[82] - z[3935] >= 0
 R3936: y[12] + y[18] + y[19] + y[26] + y[38] + y[44] + y[45] + y[47]
   + y[49] + y[50] + y[56] + y[67] + y[69] + y[74] + y[75] + y[78] + y[81]
   + y[83] + y[85] + y[87] + y[90] + y[93] - z[3936] >= 0
 R3937: y[6] + y[20] + y[48] + y[57] + y[72] + y[86] + y[91] + y[92]
   - z[3937] >= 0
 R3938: y[8] + y[12] + y[22] + y[26] + y[34] + y[38] + y[45] + y[46]
   + y[58] + y[61] + y[62] + y[74] + y[75] + y[87] - z[3938] >= 0
 R3939: y[16] + y[23] + y[24] + y[25] + y[27] + y[33] + y[37] + y[42]
   + y[59] + y[63] + y[71] + y[73] + y[76] + y[80] - z[3939] >= 0
 R3940: y[41] - z[3940] >= 0
 R3941: y[2] + y[20] + y[32] + y[35] + y[36] + y[39] + y[49] + y[56]
   + y[78] + y[81] + y[83] + y[88] + y[96] - z[3941] >= 0
 R3942: y[2] + y[4] + y[10] + y[28] + y[31] + y[32] + y[43] + y[49] + y[78]
   + y[79] + y[81] + y[83] + y[88] + y[89] + y[96] - z[3942] >= 0
 R3943: y[16] + y[23] + y[24] + y[25] + y[27] + y[37] + y[41] + y[42]
   + y[71] + y[73] + y[76] - z[3943] >= 0
 R3944: y[0] + y[15] + y[16] + y[23] + y[24] + y[25] + y[27] + y[30]
   + y[37] + y[41] + y[42] + y[71] + y[73] + y[80] + y[82] + y[94]
   - z[3944] >= 0
 R3945: y[7] + y[9] + y[11] + y[13] + y[51] + y[53] + y[55] + y[59] + y[63]
   + y[68] + y[79] + y[99] - z[3945] >= 0
 R3946: y[3] + y[11] + y[40] + y[54] + y[60] + y[66] + y[77] + y[99]
   - z[3946] >= 0
 R3947: y[18] + y[19] + y[21] + y[26] + y[29] + y[44] + y[50] + y[52]
   + y[62] + y[69] + y[74] + y[75] + y[84] + y[85] + y[90] + y[93]
   - z[3947] >= 0
 R3948: y[16] + y[23] + y[24] + y[25] + y[37] + y[42] + y[71] + y[73]
   + y[76] - z[3948] >= 0
 R3949: y[1] + y[14] + y[39] + y[65] + y[98] - z[3949] >= 0
 R3950: y[0] + y[15] + y[70] + y[82] - z[3950] >= 0
 R3951: y[29] + y[34] + y[52] + y[58] + y[62] + y[74] + y[75] + y[90]
   - z[3951] >= 0
 R3952: y[10] + y[31] + y[33] + y[43] + y[55] + y[59] + y[63] + y[79]
   + y[89] + y[99] - z[3952] >= 0
 R3953: y[29] + y[34] + y[52] + y[58] + y[62] + y[74] + y[75] + y[90]
   - z[3953] >= 0
 R3954: y[8] + y[12] + y[19] + y[22] + y[26] + y[38] + y[45] + y[46]
   + y[47] + y[58] + y[61] + y[67] + y[70] + y[87] - z[3954] >= 0
 R3955: y[40] + y[48] + y[57] + y[60] + y[72] + y[79] + y[86] + y[88]
   + y[91] + y[96] + y[99] - z[3955] >= 0
 R3956: y[0] + y[16] + y[23] + y[24] + y[27] + y[41] + y[42] + y[71]
   + y[73] - z[3956] >= 0
 R3957: y[10] + y[31] + y[33] + y[43] + y[55] + y[59] + y[63] + y[79]
   + y[89] + y[99] - z[3957] >= 0
 R3958: y[2] + y[18] + y[19] + y[26] + y[32] + y[35] + y[44] + y[49]
   + y[56] + y[69] + y[78] + y[81] + y[83] + y[85] + y[93] - z[3958] >= 0
 R3959: y[1] + y[6] + y[14] + y[20] + y[39] + y[57] + y[65] + y[91] + y[92]
   + y[98] - z[3959] >= 0
 R3960: y[8] + y[12] + y[19] + y[22] + y[26] + y[38] + y[45] + y[46]
   + y[47] + y[58] + y[61] + y[67] + y[70] + y[74] + y[75] + y[87]
   - z[3960] >= 0
 R3961: y[3] + y[40] + y[48] + y[60] + y[72] + y[86] + y[91] - z[3961]
   >= 0
 R3962: y[16] + y[23] + y[24] + y[25] + y[27] + y[37] + y[42] + y[59]
   + y[63] + y[71] + y[73] + y[76] - z[3962] >= 0
 R3963: y[0] + y[15] + y[41] + y[82] - z[3963] >= 0
 R3964: y[8] + y[12] + y[19] + y[22] + y[26] + y[34] + y[38] + y[44]
   + y[45] + y[46] + y[47] + y[50] + y[58] + y[62] + y[67] + y[74] + y[75]
   + y[87] + y[90] + y[93] - z[3964] >= 0
 R3965: y[8] + y[19] + y[22] + y[26] + y[29] + y[34] + y[38] + y[44]
   + y[45] + y[46] + y[50] + y[52] + y[58] + y[62] + y[74] + y[75] + y[87]
   + y[90] + y[93] - z[3965] >= 0
 R3966: y[3] + y[9] + y[11] + y[13] + y[17] + y[40] + y[51] + y[53] + y[54]
   + y[55] + y[60] + y[68] + y[77] + y[79] + y[99] - z[3966] >= 0
 R3967: y[7] + y[9] + y[13] + y[33] + y[51] + y[53] + y[55] + y[59] + y[63]
   + y[68] + y[79] + y[95] + y[99] - z[3967] >= 0
 R3968: y[0] + y[4] + y[15] + y[16] + y[27] + y[28] + y[30] + y[43] + y[70]
   + y[80] + y[82] + y[94] - z[3968] >= 0
 R3969: y[6] + y[14] + y[48] + y[57] + y[86] + y[91] + y[92] - z[3969]
   >= 0
 R3970: y[0] + y[4] + y[15] + y[16] + y[27] + y[28] + y[30] + y[33] + y[43]
   + y[80] + y[82] + y[94] - z[3970] >= 0
 R3971: y[18] + y[19] + y[21] + y[26] + y[44] + y[49] + y[50] + y[56]
   + y[69] + y[74] + y[75] + y[78] + y[81] + y[83] + y[84] + y[85] + y[90]
   + y[93] - z[3971] >= 0
 R3972: y[0] + y[15] + y[27] + y[30] + y[47] + y[67] + y[70] + y[82]
   + y[94] - z[3972] >= 0
 R3973: y[24] + y[41] + y[71] - z[3973] >= 0
 R3974: y[6] + y[40] + y[48] + y[57] + y[60] + y[72] + y[86] + y[91]
   + y[92] - z[3974] >= 0
 R3975: y[18] + y[19] + y[29] + y[34] + y[44] + y[50] + y[52] + y[58]
   + y[62] + y[69] + y[74] + y[75] + y[90] + y[93] - z[3975] >= 0
 R3976: y[18] + y[21] + y[29] + y[50] + y[69] + y[84] + y[85] + y[90]
   + y[93] - z[3976] >= 0
 R3977: y[0] + y[41] - z[3977] >= 0
 R3978: y[2] + y[18] + y[19] + y[26] + y[32] + y[44] + y[49] + y[50]
   + y[56] + y[69] + y[78] + y[81] + y[83] + y[84] + y[85] + y[90] + y[93]
   - z[3978] >= 0
 R3979: y[7] + y[13] + y[23] + y[25] + y[33] + y[37] + y[42] + y[51]
   + y[53] + y[59] + y[63] + y[68] + y[73] + y[76] + y[95] - z[3979] >= 0
 R3980: y[6] + y[40] + y[48] + y[57] + y[72] + y[86] + y[91] + y[92]
   - z[3980] >= 0
 R3981: y[6] + y[20] + y[36] + y[39] + y[48] + y[57] + y[72] + y[86]
   + y[88] + y[91] + y[92] + y[96] - z[3981] >= 0
 R3982: y[6] + y[20] + y[48] + y[57] + y[72] + y[86] + y[91] + y[92]
   - z[3982] >= 0
 R3983: y[15] + y[61] + y[70] - z[3983] >= 0
 R3984: y[0] + y[16] + y[24] + y[27] + y[41] + y[71] + y[73] - z[3984]
   >= 0
 R3985: y[18] + y[21] + y[29] + y[50] + y[69] + y[84] + y[85] + y[90]
   + y[93] - z[3985] >= 0
 R3986: y[3] + y[40] + y[54] + y[55] + y[60] + y[72] + y[79] + y[99]
   - z[3986] >= 0
 R3987: y[1] + y[6] + y[20] + y[35] + y[36] + y[39] + y[57] + y[88] + y[91]
   + y[92] + y[98] - z[3987] >= 0
 R3988: y[1] + y[14] + y[20] + y[39] + y[57] + y[65] + y[98] - z[3988]
   >= 0
 R3989: y[18] + y[21] + y[35] + y[36] + y[44] + y[49] + y[50] + y[56]
   + y[69] + y[78] + y[81] + y[83] + y[84] + y[85] + y[90] + y[93]
   - z[3989] >= 0
 R3990: y[2] + y[6] + y[20] + y[35] + y[36] + y[39] + y[48] + y[57] + y[72]
   + y[86] + y[88] + y[91] + y[92] + y[96] + y[98] - z[3990] >= 0
 R3991: y[2] + y[20] + y[32] + y[35] + y[36] + y[39] + y[57] + y[72]
   + y[88] + y[92] + y[96] + y[98] - z[3991] >= 0
 R3992: y[3] + y[5] + y[9] + y[11] + y[13] + y[17] + y[51] + y[53] + y[54]
   + y[64] + y[66] + y[68] + y[77] + y[97] - z[3992] >= 0
 R3993: y[1] + y[6] + y[14] + y[20] + y[39] + y[48] + y[57] + y[65] + y[86]
   + y[91] + y[92] + y[98] - z[3993] >= 0
 R3994: y[3] + y[9] + y[11] + y[13] + y[17] + y[40] + y[54] + y[55] + y[60]
   + y[64] + y[66] + y[77] + y[97] + y[99] - z[3994] >= 0
 R3995: y[3] + y[40] + y[48] + y[54] + y[55] + y[60] + y[72] + y[79]
   + y[86] + y[99] - z[3995] >= 0
 R3996: y[8] + y[12] + y[22] + y[34] + y[38] + y[45] + y[46] + y[58]
   + y[61] + y[62] + y[74] + y[75] + y[87] - z[3996] >= 0
 R3997: y[2] + y[19] + y[32] + y[35] + y[44] + y[49] + y[56] + y[69]
   + y[78] + y[81] + y[83] + y[85] + y[89] - z[3997] >= 0
 R3998: y[29] + y[34] + y[52] + y[58] + y[62] + y[74] + y[75] - z[3998]
   >= 0
 R3999: y[12] + y[15] + y[45] + y[46] + y[61] + y[67] + y[70] - z[3999]
   >= 0
 R4000: y[16] + y[23] + y[25] + y[27] + y[28] + y[30] + y[33] + y[37]
   + y[42] + y[43] + y[59] + y[63] + y[73] + y[76] + y[80] - z[4000] >= 0
 R4001: y[4] + y[10] + y[28] + y[31] + y[32] + y[33] + y[43] + y[55]
   + y[79] + y[89] + y[96] - z[4001] >= 0
 R4002: y[0] + y[15] + y[16] + y[23] + y[24] + y[27] + y[30] + y[41]
   + y[42] + y[71] + y[80] + y[82] + y[94] - z[4002] >= 0
 R4003: y[0] + y[15] + y[27] + y[30] + y[70] + y[82] + y[94] - z[4003]
   >= 0
 R4004: y[16] + y[23] + y[24] + y[41] + y[42] + y[71] + y[73] - z[4004]
   >= 0
 R4005: y[2] + y[20] + y[32] + y[35] + y[36] + y[39] + y[48] + y[57]
   + y[72] + y[79] + y[86] + y[88] + y[91] + y[96] - z[4005] >= 0
 R4006: y[18] + y[19] + y[21] + y[29] + y[44] + y[50] + y[52] + y[62]
   + y[69] + y[74] + y[75] + y[84] + y[85] + y[90] + y[93] - z[4006] >= 0
 R4007: y[0] + y[15] + y[70] - z[4007] >= 0
 R4008: y[0] + y[16] + y[24] + y[27] + y[41] + y[71] - z[4008] >= 0
 R4009: y[18] + y[19] + y[21] + y[29] + y[44] + y[50] + y[56] + y[62]
   + y[69] + y[74] + y[75] + y[84] + y[85] + y[90] + y[93] - z[4009] >= 0
 R4010: y[18] + y[21] + y[29] + y[50] + y[52] + y[62] + y[74] + y[75]
   + y[84] + y[90] + y[93] - z[4010] >= 0
 R4011: y[5] + y[7] + y[9] + y[11] + y[13] + y[17] + y[51] + y[53] + y[54]
   + y[55] + y[64] + y[68] + y[95] + y[97] + y[99] - z[4011] >= 0
 R4012: y[3] + y[9] + y[11] + y[13] + y[40] + y[54] + y[55] + y[60] + y[77]
   + y[79] + y[99] - z[4012] >= 0
 R4013: y[0] + y[15] + y[16] + y[23] + y[24] + y[27] + y[30] + y[41]
   + y[42] + y[71] + y[73] + y[80] + y[82] + y[94] - z[4013] >= 0
 R4014: y[2] + y[20] + y[21] + y[35] + y[36] + y[39] + y[57] + y[84]
   + y[85] + y[98] - z[4014] >= 0
 R4015: y[0] + y[15] + y[41] + y[82] - z[4015] >= 0
 R4016: y[5] + y[7] + y[9] + y[11] + y[13] + y[17] + y[51] + y[53] + y[64]
   + y[68] + y[95] - z[4016] >= 0
 R4017: y[4] + y[12] + y[19] + y[26] + y[38] + y[44] + y[45] + y[46]
   + y[47] + y[49] + y[56] + y[67] + y[70] + y[78] + y[83] + y[87]
   - z[4017] >= 0
 R4018: y[1] + y[6] + y[14] + y[65] + y[92] + y[98] - z[4018] >= 0
 R4019: y[3] + y[40] + y[48] + y[54] + y[60] + y[77] + y[86] + y[99]
   - z[4019] >= 0
 R4020: y[11] + y[17] + y[64] + y[66] + y[77] + y[97] - z[4020] >= 0
 R4021: y[6] + y[48] + y[57] + y[86] + y[91] + y[92] - z[4021] >= 0
 R4022: y[0] + y[15] + y[41] + y[82] - z[4022] >= 0
 R4023: y[18] + y[21] + y[29] + y[50] + y[62] + y[69] + y[84] + y[85]
   + y[90] + y[93] - z[4023] >= 0
 R4024: y[3] + y[5] + y[9] + y[11] + y[13] + y[17] + y[54] + y[64] + y[66]
   + y[68] + y[77] + y[97] - z[4024] >= 0
 R4025: y[8] + y[12] + y[19] + y[22] + y[26] + y[34] + y[38] + y[44]
   + y[45] + y[46] + y[47] + y[58] + y[61] + y[62] + y[67] + y[70] + y[74]
   + y[75] + y[87] - z[4025] >= 0
 R4026: y[3] + y[5] + y[9] + y[11] + y[13] + y[17] + y[54] + y[64] + y[66]
   + y[68] + y[77] + y[97] - z[4026] >= 0
 R4027: y[18] + y[19] + y[21] + y[29] + y[44] + y[50] + y[56] + y[69]
   + y[74] + y[75] + y[84] + y[85] + y[90] + y[93] - z[4027] >= 0
 R4028: y[8] + y[12] + y[22] + y[26] + y[38] + y[45] + y[46] + y[47]
   + y[58] + y[61] + y[67] + y[70] + y[87] - z[4028] >= 0
 R4029: y[2] + y[31] + y[32] + y[35] + y[36] + y[49] + y[56] + y[78]
   + y[81] + y[83] + y[88] + y[89] + y[96] - z[4029] >= 0
 R4030: y[6] + y[20] + y[48] + y[57] + y[72] + y[86] + y[91] + y[92]
   - z[4030] >= 0
 R4031: y[2] + y[35] + y[40] + y[48] + y[55] + y[60] + y[72] + y[79]
   + y[86] + y[88] + y[96] + y[99] - z[4031] >= 0
 R4032: y[8] + y[12] + y[22] + y[26] + y[38] + y[45] + y[46] + y[47]
   + y[58] + y[61] + y[67] + y[70] + y[87] - z[4032] >= 0
 R4033: y[18] + y[21] + y[50] + y[69] + y[84] + y[85] + y[93] - z[4033]
   >= 0
 R4034: y[18] + y[21] + y[29] + y[50] + y[62] + y[69] + y[84] + y[85]
   + y[90] + y[93] - z[4034] >= 0
 R4035: y[0] + y[12] + y[15] + y[46] + y[61] + y[67] + y[70] + y[82]
   - z[4035] >= 0
 R4036: y[0] + y[15] + y[70] + y[82] + y[94] - z[4036] >= 0
 R4037: y[5] + y[7] + y[9] + y[13] + y[17] + y[25] + y[37] + y[51] + y[53]
   + y[59] + y[68] + y[76] + y[95] - z[4037] >= 0
 R4038: y[11] + y[17] + y[64] + y[66] + y[77] + y[97] - z[4038] >= 0
 R4039: y[18] + y[21] + y[29] + y[50] + y[52] + y[62] + y[74] + y[75]
   + y[90] + y[93] - z[4039] >= 0
 R4040: y[1] + y[20] + y[35] + y[36] + y[39] + y[57] + y[92] + y[98]
   - z[4040] >= 0
 R4041: y[3] + y[40] + y[48] + y[54] + y[60] + y[66] + y[77] + y[86]
   + y[99] - z[4041] >= 0
 R4042: y[12] + y[19] + y[26] + y[38] + y[44] + y[45] + y[46] + y[47]
   + y[67] + y[70] + y[78] + y[83] + y[87] - z[4042] >= 0
 R4043: y[0] + y[4] + y[10] + y[15] + y[16] + y[27] + y[28] + y[30] + y[33]
   + y[43] + y[80] + y[82] + y[94] - z[4043] >= 0
 R4044: y[3] + y[11] + y[40] + y[54] + y[60] + y[66] + y[77] + y[97]
   - z[4044] >= 0
 R4045: y[1] + y[6] + y[14] + y[20] + y[48] + y[57] + y[65] + y[86] + y[91]
   + y[92] - z[4045] >= 0
 R4046: y[18] + y[19] + y[26] + y[29] + y[44] + y[50] + y[52] + y[62]
   + y[69] + y[74] + y[75] + y[84] + y[85] + y[90] + y[93] - z[4046] >= 0
 R4047: y[2] + y[31] + y[32] + y[35] + y[44] + y[49] + y[56] + y[69]
   + y[78] + y[81] + y[83] + y[85] + y[89] - z[4047] >= 0
 R4048: y[10] + y[28] + y[31] + y[33] + y[43] + y[55] + y[59] + y[63]
   + y[79] + y[89] + y[99] - z[4048] >= 0
 R4049: y[18] + y[21] + y[29] + y[44] + y[50] + y[62] + y[69] + y[74]
   + y[75] + y[84] + y[85] + y[90] + y[93] - z[4049] >= 0
 R4050: y[18] + y[21] + y[29] + y[50] + y[62] + y[69] + y[74] + y[75]
   + y[84] + y[85] + y[90] + y[93] - z[4050] >= 0
 R4051: y[0] + y[4] + y[10] + y[15] + y[27] + y[28] + y[30] + y[31] + y[33]
   + y[43] + y[47] + y[70] + y[80] + y[82] + y[89] + y[94] - z[4051] >= 0
 R4052: y[4] + y[10] + y[28] + y[30] + y[31] + y[32] + y[33] + y[43]
   + y[49] + y[78] + y[80] + y[81] + y[89] - z[4052] >= 0
 R4053: y[18] + y[21] + y[36] + y[39] + y[50] + y[69] + y[84] + y[85]
   + y[93] + y[98] - z[4053] >= 0
 R4054: y[3] + y[40] + y[48] + y[54] + y[60] + y[72] + y[86] + y[99]
   - z[4054] >= 0
 R4055: y[18] + y[19] + y[26] + y[29] + y[38] + y[44] + y[50] + y[56]
   + y[58] + y[62] + y[69] + y[74] + y[75] + y[84] + y[85] + y[90] + y[93]
   - z[4055] >= 0
 R4056: y[8] + y[12] + y[19] + y[22] + y[26] + y[38] + y[44] + y[45]
   + y[46] + y[47] + y[58] + y[61] + y[67] + y[70] + y[87] - z[4056] >= 0
 R4057: y[0] + y[15] + y[16] + y[23] + y[24] + y[27] + y[30] + y[41]
   + y[42] + y[71] + y[80] + y[82] + y[94] - z[4057] >= 0
 R4058: y[4] + y[10] + y[28] + y[31] + y[32] + y[33] + y[43] + y[55]
   + y[63] + y[79] + y[89] - z[4058] >= 0
 R4059: y[31] + y[40] + y[55] + y[60] + y[72] + y[79] + y[88] + y[96]
   + y[99] - z[4059] >= 0
 R4060: y[0] + y[4] + y[12] + y[15] + y[26] + y[30] + y[38] + y[45] + y[46]
   + y[47] + y[67] + y[70] + y[82] + y[87] + y[94] - z[4060] >= 0
 R4061: y[4] + y[19] + y[26] + y[32] + y[44] + y[47] + y[49] + y[56]
   + y[67] + y[69] + y[78] + y[81] + y[83] + y[89] - z[4061] >= 0
 R4062: y[0] + y[4] + y[12] + y[15] + y[30] + y[38] + y[47] + y[67] + y[70]
   + y[82] + y[87] + y[94] - z[4062] >= 0
 R4063: y[1] + y[6] + y[14] + y[20] + y[36] + y[39] + y[57] + y[65] + y[91]
   + y[92] + y[98] - z[4063] >= 0
 R4064: y[1] + y[6] + y[20] + y[35] + y[36] + y[39] + y[57] + y[88] + y[92]
   + y[98] - z[4064] >= 0
 R4065: y[5] + y[7] + y[9] + y[11] + y[13] + y[17] + y[51] + y[53] + y[54]
   + y[55] + y[64] + y[68] + y[77] + y[95] + y[97] + y[99] - z[4065] >= 0
 R4066: y[5] + y[7] + y[9] + y[13] + y[17] + y[25] + y[37] + y[51] + y[53]
   + y[59] + y[63] + y[68] + y[76] + y[95] - z[4066] >= 0
 R4067: y[5] + y[7] + y[13] + y[23] + y[25] + y[37] + y[42] + y[51] + y[53]
   + y[59] + y[63] + y[68] + y[76] + y[95] - z[4067] >= 0
 R4068: y[11] + y[17] + y[64] + y[66] + y[77] + y[97] - z[4068] >= 0
 R4069: y[7] + y[23] + y[25] + y[37] + y[42] + y[51] + y[53] + y[59]
   + y[63] + y[68] + y[73] + y[76] + y[95] - z[4069] >= 0
 R4070: y[1] + y[6] + y[14] + y[20] + y[39] + y[57] + y[65] + y[91] + y[92]
   + y[98] - z[4070] >= 0
 R4071: y[2] + y[18] + y[19] + y[21] + y[32] + y[35] + y[36] + y[44]
   + y[49] + y[50] + y[56] + y[69] + y[78] + y[81] + y[83] + y[84] + y[85]
   + y[93] - z[4071] >= 0
 R4072: y[11] + y[17] + y[64] + y[66] + y[77] + y[97] - z[4072] >= 0
 R4073: y[2] + y[18] + y[19] + y[26] + y[32] + y[35] + y[44] + y[49]
   + y[56] + y[69] + y[78] + y[81] + y[83] + y[85] + y[93] - z[4073] >= 0
 R4074: y[8] + y[12] + y[15] + y[22] + y[26] + y[38] + y[45] + y[46]
   + y[47] + y[61] + y[67] + y[70] + y[87] - z[4074] >= 0
 R4075: y[41] - z[4075] >= 0
 R4076: y[9] + y[11] + y[13] + y[40] + y[54] + y[55] + y[60] + y[68]
   + y[79] + y[99] - z[4076] >= 0
 R4077: y[3] + y[40] + y[54] + y[55] + y[60] + y[72] + y[79] + y[99]
   - z[4077] >= 0
 R4078: y[19] + y[29] + y[34] + y[50] + y[52] + y[58] + y[62] + y[74]
   + y[75] + y[90] + y[93] - z[4078] >= 0
 R4079: y[2] + y[20] + y[35] + y[36] + y[39] + y[48] + y[57] + y[72]
   + y[79] + y[86] + y[88] + y[91] + y[96] - z[4079] >= 0
 R4080: y[1] + y[14] + y[20] + y[36] + y[39] + y[57] + y[65] + y[98]
   - z[4080] >= 0
 R4081: y[12] + y[22] + y[45] + y[46] + y[61] + y[67] + y[70] + y[87]
   - z[4081] >= 0
 R4082: y[4] + y[10] + y[28] + y[30] + y[31] + y[33] + y[43] + y[55]
   + y[59] + y[63] + y[79] + y[80] + y[89] - z[4082] >= 0
 R4083: y[2] + y[4] + y[10] + y[31] + y[32] + y[43] + y[47] + y[49] + y[56]
   + y[78] + y[81] + y[83] + y[89] - z[4083] >= 0
 R4084: y[2] + y[10] + y[31] + y[32] + y[55] + y[72] + y[79] + y[88]
   + y[89] + y[96] + y[99] - z[4084] >= 0
 R4085: y[18] + y[19] + y[21] + y[29] + y[44] + y[50] + y[52] + y[62]
   + y[69] + y[74] + y[75] + y[84] + y[85] + y[90] + y[93] - z[4085] >= 0
 R4086: y[2] + y[10] + y[31] + y[32] + y[35] + y[55] + y[72] + y[79]
   + y[88] + y[89] + y[96] + y[99] - z[4086] >= 0
 R4087: y[2] + y[18] + y[32] + y[35] + y[36] + y[39] + y[44] + y[49]
   + y[56] + y[69] + y[78] + y[81] + y[83] + y[84] + y[85] + y[88] + y[93]
   - z[4087] >= 0
 R4088: y[2] + y[4] + y[10] + y[19] + y[26] + y[31] + y[32] + y[44] + y[47]
   + y[49] + y[56] + y[69] + y[78] + y[81] + y[83] + y[89] - z[4088] >= 0
 R4089: y[29] + y[34] + y[52] + y[58] + y[62] + y[74] + y[75] + y[90]
   - z[4089] >= 0
 R4090: y[8] + y[12] + y[22] + y[38] + y[45] + y[46] + y[47] + y[61]
   + y[67] + y[70] + y[87] - z[4090] >= 0
 R4091: y[5] + y[9] + y[11] + y[13] + y[17] + y[51] + y[53] + y[54] + y[64]
   + y[66] + y[68] + y[77] + y[97] - z[4091] >= 0
 R4092: y[2] + y[18] + y[32] + y[35] + y[36] + y[39] + y[44] + y[49]
   + y[56] + y[69] + y[78] + y[81] + y[83] + y[84] + y[85] + y[88] + y[93]
   - z[4092] >= 0
 R4093: y[2] + y[20] + y[32] + y[35] + y[36] + y[39] + y[48] + y[57]
   + y[72] + y[79] + y[81] + y[86] + y[88] + y[96] - z[4093] >= 0
 R4094: y[8] + y[12] + y[19] + y[22] + y[26] + y[38] + y[44] + y[45]
   + y[46] + y[47] + y[58] + y[61] + y[67] + y[70] + y[74] + y[75] + y[87]
   - z[4094] >= 0
 R4095: y[10] + y[28] + y[31] + y[33] + y[43] + y[55] + y[59] + y[63]
   + y[79] + y[89] + y[99] - z[4095] >= 0
 R4096: y[1] + y[14] + y[65] + y[98] - z[4096] >= 0
 R4097: y[4] + y[12] + y[19] + y[26] + y[38] + y[44] + y[45] + y[47]
   + y[49] + y[56] + y[67] + y[70] + y[78] + y[81] + y[83] + y[87]
   - z[4097] >= 0
 R4098: y[0] + y[15] + y[27] + y[30] + y[70] + y[82] + y[94] - z[4098]
   >= 0
 R4099: y[6] + y[20] + y[35] + y[36] + y[39] + y[48] + y[57] + y[72]
   + y[86] + y[88] + y[91] + y[92] + y[96] - z[4099] >= 0
 R4100: y[2] + y[18] + y[20] + y[32] + y[35] + y[36] + y[39] + y[49]
   + y[56] + y[69] + y[78] + y[81] + y[83] + y[84] + y[85] + y[88] + y[96]
   + y[98] - z[4100] >= 0
 R4101: y[0] + y[16] + y[23] + y[24] + y[25] + y[27] + y[37] + y[41]
   + y[42] + y[71] + y[73] + y[80] + y[94] - z[4101] >= 0
 R4102: y[3] + y[9] + y[11] + y[13] + y[17] + y[40] + y[54] + y[60] + y[64]
   + y[66] + y[77] + y[97] + y[99] - z[4102] >= 0
 R4103: y[1] + y[6] + y[20] + y[35] + y[36] + y[39] + y[48] + y[57] + y[86]
   + y[88] + y[91] + y[92] + y[98] - z[4103] >= 0
 R4104: y[9] + y[11] + y[13] + y[40] + y[53] + y[54] + y[55] + y[59]
   + y[60] + y[68] + y[79] + y[99] - z[4104] >= 0
 R4105: y[1] + y[14] + y[20] + y[36] + y[39] + y[57] + y[65] + y[98]
   - z[4105] >= 0
 R4106: y[8] + y[12] + y[22] + y[26] + y[34] + y[38] + y[45] + y[46]
   + y[58] + y[61] + y[67] + y[74] + y[75] + y[87] - z[4106] >= 0
 R4107: y[2] + y[10] + y[31] + y[32] + y[35] + y[49] + y[56] + y[78]
   + y[81] + y[83] + y[88] + y[89] + y[96] - z[4107] >= 0
 R4108: y[12] + y[15] + y[26] + y[38] + y[45] + y[46] + y[47] + y[61]
   + y[67] + y[70] + y[82] + y[87] - z[4108] >= 0
 R4109: y[0] + y[15] + y[16] + y[23] + y[24] + y[27] + y[41] + y[42]
   + y[71] + y[73] + y[80] + y[82] + y[94] - z[4109] >= 0
 R4110: y[4] + y[10] + y[28] + y[31] + y[33] + y[43] + y[55] + y[59]
   + y[63] + y[79] + y[89] - z[4110] >= 0
 R4111: y[18] + y[19] + y[26] + y[29] + y[38] + y[44] + y[47] + y[50]
   + y[56] + y[62] + y[69] + y[74] + y[75] + y[78] + y[83] + y[84] + y[85]
   + y[90] + y[93] - z[4111] >= 0
 R4112: y[0] + y[4] + y[10] + y[15] + y[27] + y[28] + y[30] + y[31] + y[33]
   + y[43] + y[80] + y[82] + y[89] + y[94] - z[4112] >= 0
 R4113: y[2] + y[20] + y[35] + y[40] + y[48] + y[57] + y[72] + y[79]
   + y[86] + y[88] + y[91] + y[92] + y[96] - z[4113] >= 0
 R4114: y[4] + y[12] + y[15] + y[26] + y[30] + y[38] + y[47] + y[67]
   + y[70] + y[82] + y[87] + y[94] - z[4114] >= 0
 R4115: y[4] + y[12] + y[19] + y[26] + y[38] + y[44] + y[45] + y[46]
   + y[47] + y[49] + y[67] + y[70] + y[78] + y[83] + y[87] - z[4115] >= 0
 R4116: y[2] + y[20] + y[35] + y[36] + y[39] + y[57] + y[88] + y[98]
   - z[4116] >= 0
 R4117: y[8] + y[12] + y[22] + y[38] + y[45] + y[46] + y[47] + y[61]
   + y[67] + y[70] + y[87] - z[4117] >= 0
 R4118: y[4] + y[12] + y[15] + y[19] + y[26] + y[30] + y[38] + y[44]
   + y[47] + y[49] + y[67] + y[70] + y[78] + y[83] + y[87] - z[4118] >= 0
 R4119: y[1] + y[6] + y[14] + y[20] + y[36] + y[39] + y[57] + y[65] + y[91]
   + y[92] + y[98] - z[4119] >= 0
 R4120: y[1] + y[39] + y[98] - z[4120] >= 0
 R4121: y[2] + y[20] + y[35] + y[36] + y[39] + y[48] + y[57] + y[72]
   + y[79] + y[86] + y[88] + y[91] + y[96] - z[4121] >= 0
 R4122: y[8] + y[12] + y[19] + y[22] + y[26] + y[34] + y[38] + y[44]
   + y[45] + y[46] + y[47] + y[50] + y[58] + y[62] + y[67] + y[74] + y[75]
   + y[87] + y[90] + y[93] - z[4122] >= 0
 R4123: y[0] + y[15] + y[16] + y[23] + y[24] + y[25] + y[27] + y[28]
   + y[30] + y[33] + y[37] + y[42] + y[43] + y[63] + y[71] + y[73] + y[80]
   + y[82] + y[94] - z[4123] >= 0
 R4124: y[0] + y[4] + y[10] + y[15] + y[27] + y[28] + y[30] + y[31] + y[33]
   + y[43] + y[63] + y[80] + y[82] + y[89] + y[94] - z[4124] >= 0
 R4125: y[40] + y[48] + y[55] + y[60] + y[72] + y[79] + y[86] + y[88]
   + y[96] + y[99] - z[4125] >= 0
 R4126: y[18] + y[19] + y[29] + y[44] + y[50] + y[52] + y[62] + y[69]
   + y[74] + y[75] + y[84] + y[85] + y[90] + y[93] - z[4126] >= 0
 R4127: y[18] + y[21] + y[29] + y[50] + y[52] + y[62] + y[69] + y[74]
   + y[75] + y[84] + y[85] + y[90] + y[93] - z[4127] >= 0
 R4128: y[2] + y[31] + y[32] + y[35] + y[36] + y[49] + y[56] + y[78]
   + y[81] + y[83] + y[88] + y[89] + y[96] - z[4128] >= 0
 R4129: y[16] + y[24] + y[41] + y[71] - z[4129] >= 0
 R4130: y[2] + y[20] + y[35] + y[36] + y[39] + y[57] + y[84] + y[88]
   + y[98] - z[4130] >= 0
 R4131: y[10] + y[31] + y[55] + y[60] + y[79] + y[89] + y[99] - z[4131]
   >= 0
 R4132: y[3] + y[11] + y[40] + y[54] + y[60] + y[66] + y[77] + y[99]
   - z[4132] >= 0
 R4133: y[6] + y[20] + y[39] + y[48] + y[57] + y[72] + y[86] + y[88]
   + y[91] + y[92] + y[96] - z[4133] >= 0
 R4134: y[7] + y[13] + y[23] + y[25] + y[33] + y[37] + y[42] + y[51]
   + y[53] + y[59] + y[63] + y[68] + y[73] + y[76] + y[80] + y[95]
   - z[4134] >= 0
 R4135: y[8] + y[12] + y[19] + y[22] + y[26] + y[38] + y[45] + y[46]
   + y[47] + y[58] + y[61] + y[67] + y[70] + y[74] + y[75] + y[87]
   - z[4135] >= 0
 R4136: y[0] + y[15] + y[16] + y[23] + y[24] + y[27] + y[28] + y[30]
   + y[33] + y[41] + y[42] + y[71] + y[73] + y[80] + y[82] + y[94]
   - z[4136] >= 0
 R4137: y[1] + y[6] + y[14] + y[57] + y[65] + y[91] + y[92] - z[4137] >= 0
 R4138: y[0] + y[12] + y[15] + y[46] + y[61] + y[70] + y[82] - z[4138]
   >= 0
 R4139: y[3] + y[9] + y[11] + y[13] + y[17] + y[40] + y[54] + y[55] + y[60]
   + y[64] + y[66] + y[68] + y[77] + y[79] + y[99] - z[4139] >= 0
 R4140: y[40] + y[54] + y[55] + y[60] + y[72] + y[79] + y[96] + y[99]
   - z[4140] >= 0
 R4141: y[4] + y[10] + y[15] + y[26] + y[28] + y[30] + y[31] + y[32]
   + y[43] + y[47] + y[49] + y[67] + y[70] + y[78] + y[80] + y[82] + y[83]
   + y[89] + y[94] - z[4141] >= 0
 R4142: y[18] + y[21] + y[50] + y[69] + y[84] + y[85] + y[93] - z[4142]
   >= 0
 R4143: y[2] + y[31] + y[32] + y[35] + y[36] + y[39] + y[49] + y[56]
   + y[78] + y[81] + y[83] + y[88] + y[96] - z[4143] >= 0
 R4144: y[5] + y[7] + y[9] + y[11] + y[13] + y[17] + y[51] + y[53] + y[64]
   + y[68] + y[95] - z[4144] >= 0
 R4145: y[6] + y[20] + y[48] + y[57] + y[72] + y[86] + y[91] + y[92]
   - z[4145] >= 0
 R4146: y[0] + y[15] + y[82] - z[4146] >= 0
 R4147: y[2] + y[31] + y[32] + y[35] + y[55] + y[72] + y[79] + y[81]
   + y[88] + y[89] + y[96] + y[99] - z[4147] >= 0
 R4148: y[18] + y[19] + y[29] + y[34] + y[44] + y[50] + y[52] + y[58]
   + y[62] + y[74] + y[75] + y[90] + y[93] - z[4148] >= 0
 R4149: y[8] + y[12] + y[22] + y[38] + y[45] + y[46] + y[47] + y[61]
   + y[67] + y[70] + y[87] - z[4149] >= 0
 R4150: y[8] + y[12] + y[19] + y[22] + y[26] + y[38] + y[44] + y[45]
   + y[46] + y[47] + y[58] + y[61] + y[67] + y[70] + y[74] + y[75] + y[87]
   - z[4150] >= 0
 R4151: y[3] + y[9] + y[11] + y[13] + y[17] + y[54] + y[64] + y[66] + y[68]
   + y[77] + y[97] - z[4151] >= 0
 R4152: y[3] + y[40] + y[48] + y[54] + y[60] + y[77] + y[86] - z[4152]
   >= 0
 R4153: y[1] + y[6] + y[14] + y[20] + y[36] + y[39] + y[57] + y[65] + y[91]
   + y[92] + y[98] - z[4153] >= 0
 R4154: y[24] + y[41] + y[71] - z[4154] >= 0
 R4155: y[2] + y[31] + y[32] + y[35] + y[44] + y[49] + y[56] + y[69]
   + y[78] + y[81] + y[83] + y[85] + y[89] - z[4155] >= 0
 R4156: y[8] + y[12] + y[19] + y[22] + y[26] + y[34] + y[38] + y[44]
   + y[45] + y[46] + y[58] + y[61] + y[62] + y[67] + y[74] + y[75] + y[87]
   + y[90] - z[4156] >= 0
 R4157: y[2] + y[20] + y[35] + y[36] + y[39] + y[57] + y[88] + y[91]
   + y[92] + y[96] + y[98] - z[4157] >= 0
 R4158: y[2] + y[4] + y[10] + y[19] + y[26] + y[31] + y[32] + y[44] + y[47]
   + y[49] + y[56] + y[69] + y[78] + y[81] + y[83] + y[89] - z[4158] >= 0
 R4159: y[9] + y[11] + y[13] + y[53] + y[54] + y[55] + y[59] + y[63]
   + y[68] + y[79] + y[99] - z[4159] >= 0
 R4160: y[11] + y[17] + y[64] + y[66] + y[77] + y[97] - z[4160] >= 0
 R4161: y[4] + y[10] + y[28] + y[30] + y[31] + y[32] + y[43] + y[47]
   + y[49] + y[56] + y[78] + y[81] + y[83] + y[89] - z[4161] >= 0
 R4162: y[29] + y[34] + y[52] + y[58] + y[62] + y[75] - z[4162] >= 0
 R4163: y[5] + y[9] + y[11] + y[13] + y[17] + y[64] + y[66] + y[68] + y[77]
   + y[97] - z[4163] >= 0
 R4164: y[7] + y[9] + y[13] + y[25] + y[28] + y[33] + y[37] + y[43] + y[51]
   + y[53] + y[55] + y[59] + y[63] + y[68] + y[76] + y[95] - z[4164] >= 0
 R4165: y[1] + y[6] + y[14] + y[57] + y[65] + y[92] + y[98] - z[4165] >= 0
 R4166: y[8] + y[12] + y[19] + y[22] + y[26] + y[34] + y[38] + y[45]
   + y[46] + y[47] + y[58] + y[61] + y[67] + y[70] + y[74] + y[75] + y[87]
   - z[4166] >= 0
 R4167: y[8] + y[12] + y[19] + y[22] + y[26] + y[34] + y[38] + y[44]
   + y[45] + y[46] + y[47] + y[58] + y[61] + y[62] + y[67] + y[70] + y[74]
   + y[75] + y[87] + y[90] - z[4167] >= 0
 R4168: y[5] + y[7] + y[9] + y[13] + y[23] + y[25] + y[37] + y[42] + y[51]
   + y[53] + y[59] + y[63] + y[68] + y[76] + y[95] - z[4168] >= 0
 R4169: y[29] + y[34] + y[52] + y[58] + y[62] + y[74] + y[75] - z[4169]
   >= 0
 R4170: y[2] + y[31] + y[32] + y[35] + y[36] + y[49] + y[56] + y[72]
   + y[78] + y[81] + y[83] + y[88] + y[89] + y[96] - z[4170] >= 0
 R4171: y[4] + y[10] + y[28] + y[30] + y[31] + y[32] + y[43] + y[47]
   + y[49] + y[56] + y[78] + y[81] + y[83] + y[89] - z[4171] >= 0
 R4172: y[12] + y[18] + y[19] + y[26] + y[38] + y[44] + y[45] + y[46]
   + y[47] + y[49] + y[56] + y[67] + y[69] + y[74] + y[75] + y[78] + y[83]
   + y[85] + y[87] + y[90] + y[93] - z[4172] >= 0
 R4173: y[16] + y[23] + y[24] + y[25] + y[27] + y[37] + y[42] + y[71]
   + y[73] + y[76] - z[4173] >= 0
 R4174: y[18] + y[19] + y[26] + y[32] + y[44] + y[47] + y[49] + y[56]
   + y[67] + y[69] + y[78] + y[81] + y[83] + y[85] + y[93] - z[4174] >= 0
 R4175: y[1] + y[20] + y[36] + y[39] + y[98] - z[4175] >= 0
 R4176: y[4] + y[10] + y[27] + y[28] + y[30] + y[31] + y[33] + y[43]
   + y[59] + y[63] + y[80] + y[89] + y[94] - z[4176] >= 0
 R4177: y[0] + y[16] + y[23] + y[24] + y[25] + y[27] + y[37] + y[41]
   + y[42] + y[71] + y[73] + y[80] + y[94] - z[4177] >= 0
 R4178: y[0] + y[4] + y[12] + y[15] + y[26] + y[38] + y[45] + y[46] + y[47]
   + y[61] + y[67] + y[70] + y[82] + y[87] + y[94] - z[4178] >= 0
 R4179: y[5] + y[7] + y[9] + y[11] + y[13] + y[17] + y[51] + y[53] + y[59]
   + y[64] + y[68] + y[95] - z[4179] >= 0
 R4180: y[8] + y[12] + y[22] + y[34] + y[38] + y[45] + y[46] + y[58]
   + y[61] + y[67] + y[87] - z[4180] >= 0
 R4181: y[2] + y[4] + y[10] + y[31] + y[32] + y[44] + y[49] + y[56] + y[78]
   + y[81] + y[83] + y[89] - z[4181] >= 0
 R4182: y[16] + y[23] + y[24] + y[25] + y[27] + y[37] + y[42] + y[71]
   + y[73] + y[76] - z[4182] >= 0
 R4183: y[8] + y[12] + y[15] + y[22] + y[26] + y[38] + y[45] + y[46]
   + y[47] + y[61] + y[67] + y[70] + y[87] - z[4183] >= 0
 R4184: y[18] + y[21] + y[35] + y[36] + y[39] + y[49] + y[50] + y[56]
   + y[69] + y[83] + y[84] + y[85] + y[93] - z[4184] >= 0
 R4185: y[10] + y[16] + y[23] + y[25] + y[27] + y[28] + y[30] + y[33]
   + y[37] + y[42] + y[43] + y[59] + y[63] + y[76] + y[80] - z[4185] >= 0
 R4186: y[5] + y[7] + y[9] + y[11] + y[13] + y[17] + y[51] + y[53] + y[64]
   + y[68] + y[95] - z[4186] >= 0
 R4187: y[1] + y[20] + y[35] + y[36] + y[39] + y[57] + y[88] + y[92]
   + y[98] - z[4187] >= 0
 R4188: y[1] + y[14] + y[65] + y[98] - z[4188] >= 0
 R4189: y[5] + y[7] + y[9] + y[13] + y[17] + y[25] + y[37] + y[51] + y[53]
   + y[68] + y[76] + y[95] - z[4189] >= 0
 R4190: y[3] + y[11] + y[40] + y[54] + y[60] + y[66] + y[77] + y[97]
   + y[99] - z[4190] >= 0
 R4191: y[4] + y[10] + y[28] + y[31] + y[33] + y[43] + y[55] + y[59]
   + y[63] + y[79] + y[89] - z[4191] >= 0
 R4192: y[4] + y[10] + y[28] + y[30] + y[31] + y[32] + y[33] + y[43]
   + y[59] + y[63] + y[80] + y[89] - z[4192] >= 0
 R4193: y[1] + y[6] + y[14] + y[20] + y[39] + y[57] + y[65] + y[91] + y[92]
   + y[98] - z[4193] >= 0
 R4194: y[6] + y[20] + y[48] + y[57] + y[72] + y[86] + y[91] + y[92]
   - z[4194] >= 0
 R4195: y[4] + y[10] + y[19] + y[26] + y[32] + y[38] + y[44] + y[47]
   + y[49] + y[56] + y[67] + y[78] + y[81] + y[83] + y[89] - z[4195] >= 0
 R4196: y[29] + y[34] + y[50] + y[52] + y[58] + y[62] + y[74] + y[75]
   + y[90] - z[4196] >= 0
 R4197: y[1] + y[6] + y[14] + y[57] + y[65] + y[91] + y[92] - z[4197] >= 0
 R4198: y[0] + y[4] + y[10] + y[15] + y[27] + y[28] + y[30] + y[31] + y[33]
   + y[43] + y[47] + y[67] + y[70] + y[80] + y[82] + y[89] + y[94]
   - z[4198] >= 0
 R4199: y[16] + y[23] + y[24] + y[25] + y[27] + y[37] + y[42] + y[71]
   + y[73] + y[76] + y[80] - z[4199] >= 0
 R4200: y[18] + y[19] + y[26] + y[29] + y[38] + y[44] + y[50] + y[56]
   + y[62] + y[69] + y[74] + y[75] + y[83] + y[84] + y[85] + y[90] + y[93]
   - z[4200] >= 0
 R4201: y[1] + y[6] + y[14] + y[20] + y[39] + y[48] + y[57] + y[72] + y[86]
   + y[91] + y[92] + y[98] - z[4201] >= 0
 R4202: y[5] + y[7] + y[13] + y[25] + y[37] + y[42] + y[51] + y[53] + y[59]
   + y[68] + y[76] + y[95] - z[4202] >= 0
 R4203: y[6] + y[48] + y[86] + y[91] + y[92] - z[4203] >= 0
 R4204: y[10] + y[31] + y[32] + y[55] + y[72] + y[79] + y[88] + y[89]
   + y[96] + y[99] - z[4204] >= 0
 R4205: y[2] + y[20] + y[32] + y[35] + y[36] + y[39] + y[48] + y[57]
   + y[72] + y[79] + y[86] + y[88] + y[91] + y[96] - z[4205] >= 0
 R4206: y[6] + y[40] + y[48] + y[60] + y[72] + y[86] + y[91] + y[92]
   - z[4206] >= 0
 R4207: y[3] + y[11] + y[40] + y[54] + y[60] + y[66] + y[77] + y[97]
   + y[99] - z[4207] >= 0
 R4208: y[0] + y[12] + y[15] + y[61] + y[70] + y[82] - z[4208] >= 0
 R4209: y[8] + y[22] + y[34] + y[38] + y[45] + y[46] + y[52] + y[58]
   + y[61] + y[62] + y[74] + y[75] + y[87] - z[4209] >= 0
 R4210: y[18] + y[21] + y[29] + y[50] + y[69] + y[84] + y[85] + y[90]
   + y[93] - z[4210] >= 0
 R4211: y[3] + y[40] + y[48] + y[54] + y[60] + y[66] + y[77] + y[79]
   + y[86] + y[99] - z[4211] >= 0
 R4212: y[8] + y[12] + y[15] + y[22] + y[26] + y[38] + y[45] + y[46]
   + y[47] + y[61] + y[67] + y[70] + y[87] - z[4212] >= 0
 R4213: y[1] + y[6] + y[14] + y[65] + y[92] - z[4213] >= 0
 R4214: y[3] + y[40] + y[48] + y[54] + y[60] + y[86] - z[4214] >= 0
 R4215: y[0] + y[4] + y[15] + y[16] + y[27] + y[28] + y[30] + y[33] + y[43]
   + y[80] + y[82] + y[94] - z[4215] >= 0
 R4216: y[3] + y[40] + y[54] + y[60] + y[66] + y[77] + y[97] - z[4216]
   >= 0
 R4217: y[16] + y[23] + y[24] + y[25] + y[27] + y[37] + y[42] + y[71]
   + y[73] + y[76] - z[4217] >= 0
 R4218: y[2] + y[20] + y[32] + y[35] + y[48] + y[57] + y[72] + y[79]
   + y[86] + y[88] + y[96] + y[99] - z[4218] >= 0
 R4219: y[3] + y[11] + y[40] + y[54] + y[60] + y[66] + y[77] + y[97]
   - z[4219] >= 0
 R4220: y[3] + y[9] + y[11] + y[40] + y[54] + y[60] + y[66] + y[77] + y[99]
   - z[4220] >= 0
 R4221: y[6] + y[20] + y[36] + y[39] + y[48] + y[57] + y[72] + y[86]
   + y[88] + y[91] + y[92] + y[96] - z[4221] >= 0
 R4222: y[1] + y[6] + y[14] + y[57] + y[65] + y[91] + y[92] - z[4222] >= 0
 R4223: y[12] + y[18] + y[19] + y[26] + y[29] + y[38] + y[44] + y[45]
   + y[47] + y[50] + y[56] + y[58] + y[62] + y[67] + y[69] + y[74] + y[75]
   + y[85] + y[87] + y[90] + y[93] - z[4223] >= 0
 R4224: y[21] + y[84] + y[98] - z[4224] >= 0
 R4225: y[3] + y[11] + y[40] + y[54] + y[60] + y[66] + y[77] + y[97]
   - z[4225] >= 0
 R4226: y[21] + y[36] + y[39] + y[98] - z[4226] >= 0
 R4227: y[18] + y[21] + y[35] + y[36] + y[39] + y[50] + y[56] + y[69]
   + y[84] + y[85] + y[93] - z[4227] >= 0
 R4228: y[2] + y[20] + y[35] + y[36] + y[39] + y[57] + y[88] + y[92]
   + y[96] + y[98] - z[4228] >= 0
 R4229: y[0] + y[4] + y[12] + y[15] + y[26] + y[30] + y[38] + y[45] + y[46]
   + y[47] + y[67] + y[70] + y[82] + y[87] + y[94] - z[4229] >= 0
 R4230: y[2] + y[6] + y[20] + y[35] + y[36] + y[39] + y[48] + y[57] + y[72]
   + y[86] + y[88] + y[91] + y[92] + y[96] + y[98] - z[4230] >= 0
 R4231: y[3] + y[40] + y[48] + y[54] + y[60] + y[86] + y[99] - z[4231]
   >= 0
 R4232: y[2] + y[18] + y[32] + y[35] + y[36] + y[39] + y[44] + y[49]
   + y[56] + y[69] + y[78] + y[81] + y[83] + y[84] + y[85] + y[88] + y[93]
   + y[96] - z[4232] >= 0
 R4233: y[0] + y[4] + y[15] + y[16] + y[23] + y[27] + y[28] + y[30] + y[33]
   + y[42] + y[43] + y[63] + y[71] + y[80] + y[82] + y[94] - z[4233] >= 0
 R4234: y[7] + y[13] + y[23] + y[25] + y[28] + y[33] + y[37] + y[42]
   + y[43] + y[51] + y[53] + y[55] + y[59] + y[63] + y[68] + y[76] + y[80]
   + y[95] - z[4234] >= 0
 R4235: y[4] + y[10] + y[25] + y[27] + y[28] + y[30] + y[31] + y[33]
   + y[37] + y[43] + y[55] + y[59] + y[63] + y[80] + y[89] - z[4235] >= 0
 R4236: y[3] + y[40] + y[54] + y[60] + y[66] + y[77] + y[99] - z[4236]
   >= 0
 R4237: y[0] + y[4] + y[15] + y[16] + y[27] + y[28] + y[30] + y[80] + y[82]
   + y[94] - z[4237] >= 0
 R4238: y[29] + y[34] + y[52] + y[58] + y[62] + y[74] + y[75] - z[4238]
   >= 0
 R4239: y[3] + y[40] + y[48] + y[54] + y[60] + y[72] + y[86] + y[99]
   - z[4239] >= 0
 R4240: y[2] + y[20] + y[35] + y[36] + y[39] + y[48] + y[57] + y[72]
   + y[86] + y[88] + y[91] + y[92] + y[96] - z[4240] >= 0
 R4241: y[20] + y[21] + y[35] + y[36] + y[39] + y[84] + y[85] + y[98]
   - z[4241] >= 0
 R4242: y[9] + y[13] + y[40] + y[54] + y[55] + y[60] + y[72] + y[79]
   + y[99] - z[4242] >= 0
 R4243: y[16] + y[24] + y[41] + y[71] - z[4243] >= 0
 R4244: y[10] + y[28] + y[31] + y[32] + y[33] + y[43] + y[55] + y[79]
   + y[89] + y[96] + y[99] - z[4244] >= 0
 R4245: y[0] + y[15] + y[27] + y[30] + y[70] + y[82] + y[94] - z[4245]
   >= 0
 R4246: y[3] + y[9] + y[11] + y[13] + y[40] + y[54] + y[55] + y[60] + y[77]
   + y[79] + y[99] - z[4246] >= 0
 R4247: y[24] + y[41] + y[71] - z[4247] >= 0
 R4248: y[0] + y[4] + y[10] + y[15] + y[16] + y[23] + y[27] + y[28] + y[30]
   + y[33] + y[42] + y[43] + y[63] + y[80] + y[82] + y[94] - z[4248] >= 0
 R4249: y[4] + y[10] + y[27] + y[28] + y[30] + y[31] + y[33] + y[43]
   + y[55] + y[59] + y[63] + y[80] + y[89] + y[94] - z[4249] >= 0
 R4250: y[2] + y[20] + y[35] + y[36] + y[39] + y[49] + y[56] + y[57]
   + y[69] + y[81] + y[84] + y[85] + y[88] + y[96] + y[98] - z[4250] >= 0
 R4251: y[29] + y[34] + y[50] + y[52] + y[58] + y[62] + y[74] + y[75]
   + y[90] - z[4251] >= 0
 R4252: y[4] + y[12] + y[15] + y[19] + y[26] + y[38] + y[44] + y[45]
   + y[46] + y[47] + y[67] + y[70] + y[78] + y[87] - z[4252] >= 0
 R4253: y[4] + y[10] + y[28] + y[30] + y[31] + y[33] + y[43] + y[55]
   + y[59] + y[63] + y[80] + y[89] + y[94] - z[4253] >= 0
 R4254: y[3] + y[9] + y[11] + y[13] + y[40] + y[54] + y[55] + y[60] + y[77]
   + y[79] + y[99] - z[4254] >= 0
 R4255: y[3] + y[40] + y[54] + y[60] + y[66] + y[77] + y[99] - z[4255]
   >= 0
 R4256: y[4] + y[12] + y[15] + y[26] + y[30] + y[38] + y[45] + y[46]
   + y[47] + y[67] + y[70] + y[82] + y[87] + y[94] - z[4256] >= 0
 R4257: y[6] + y[40] + y[48] + y[57] + y[60] + y[72] + y[86] + y[91]
   + y[92] - z[4257] >= 0
 R4258: y[21] + y[36] + y[39] + y[84] + y[98] - z[4258] >= 0
 R4259: y[18] + y[21] + y[29] + y[50] + y[69] + y[84] + y[85] + y[90]
   + y[93] - z[4259] >= 0
 R4260: y[0] + y[15] + y[16] + y[23] + y[24] + y[25] + y[27] + y[28]
   + y[30] + y[33] + y[37] + y[42] + y[43] + y[59] + y[63] + y[71] + y[73]
   + y[76] + y[80] + y[82] + y[94] - z[4260] >= 0
 R4261: y[2] + y[4] + y[10] + y[28] + y[31] + y[32] + y[43] + y[49] + y[78]
   + y[79] + y[81] + y[83] + y[88] + y[89] + y[96] - z[4261] >= 0
 R4262: y[5] + y[7] + y[9] + y[13] + y[25] + y[37] + y[51] + y[53] + y[59]
   + y[63] + y[68] + y[76] + y[95] - z[4262] >= 0
 R4263: y[4] + y[10] + y[19] + y[26] + y[30] + y[31] + y[32] + y[44]
   + y[47] + y[49] + y[56] + y[67] + y[78] + y[81] + y[83] + y[89]
   - z[4263] >= 0
 R4264: y[1] + y[6] + y[14] + y[20] + y[39] + y[57] + y[65] + y[91] + y[92]
   + y[98] - z[4264] >= 0
 R4265: y[2] + y[20] + y[35] + y[36] + y[39] + y[57] + y[88] + y[98]
   - z[4265] >= 0
 R4266: y[40] + y[48] + y[55] + y[60] + y[72] + y[79] + y[86] + y[88]
   + y[96] + y[99] - z[4266] >= 0
 R4267: y[8] + y[22] + y[34] + y[45] + y[46] + y[52] + y[58] + y[62]
   + y[74] + y[75] + y[87] - z[4267] >= 0
 R4268: y[29] + y[34] + y[50] + y[52] + y[62] + y[74] + y[75] + y[90]
   - z[4268] >= 0
 R4269: y[0] + y[4] + y[10] + y[15] + y[28] + y[30] + y[31] + y[43] + y[47]
   + y[67] + y[70] + y[78] + y[80] + y[82] + y[89] + y[94] - z[4269] >= 0
 R4270: y[1] + y[14] + y[65] + y[98] - z[4270] >= 0
 R4271: y[10] + y[13] + y[25] + y[28] + y[30] + y[31] + y[33] + y[37]
   + y[43] + y[55] + y[59] + y[63] + y[80] + y[89] - z[4271] >= 0
 R4272: y[5] + y[7] + y[9] + y[11] + y[13] + y[17] + y[51] + y[53] + y[64]
   + y[68] + y[77] + y[95] + y[97] - z[4272] >= 0
 R4273: y[0] + y[15] + y[70] + y[82] - z[4273] >= 0
 R4274: y[0] + y[4] + y[10] + y[15] + y[27] + y[28] + y[30] + y[31] + y[33]
   + y[43] + y[80] + y[82] + y[89] + y[94] - z[4274] >= 0
 R4275: y[10] + y[31] + y[55] + y[72] + y[79] + y[89] + y[96] + y[99]
   - z[4275] >= 0
 R4276: y[6] + y[20] + y[48] + y[57] + y[72] + y[86] + y[91] + y[92]
   - z[4276] >= 0
 R4277: y[5] + y[7] + y[9] + y[11] + y[13] + y[17] + y[51] + y[53] + y[54]
   + y[55] + y[64] + y[68] + y[95] + y[97] - z[4277] >= 0
 R4278: y[2] + y[31] + y[32] + y[40] + y[55] + y[60] + y[72] + y[79]
   + y[88] + y[96] + y[99] - z[4278] >= 0
 R4279: y[16] + y[23] + y[24] + y[25] + y[27] + y[37] + y[42] + y[59]
   + y[63] + y[71] + y[73] + y[76] + y[80] - z[4279] >= 0
 R4280: y[6] + y[40] + y[48] + y[60] + y[72] + y[86] + y[91] + y[92]
   - z[4280] >= 0
 R4281: y[34] + y[52] + y[62] - z[4281] >= 0
 R4282: y[6] + y[20] + y[36] + y[39] + y[48] + y[57] + y[72] + y[86]
   + y[88] + y[91] + y[92] + y[96] - z[4282] >= 0
 R4283: y[5] + y[7] + y[9] + y[13] + y[17] + y[51] + y[53] + y[68] + y[95]
   - z[4283] >= 0
 R4284: y[7] + y[23] + y[25] + y[37] + y[42] + y[51] + y[53] + y[59]
   + y[68] + y[73] + y[76] + y[95] - z[4284] >= 0
 R4285: y[1] + y[14] + y[65] - z[4285] >= 0
 R4286: y[0] + y[4] + y[15] + y[16] + y[27] + y[28] + y[30] + y[70] + y[80]
   + y[82] + y[94] - z[4286] >= 0
 R4287: y[4] + y[10] + y[28] + y[30] + y[31] + y[32] + y[33] + y[43]
   + y[49] + y[78] + y[81] + y[83] + y[89] - z[4287] >= 0
 R4288: y[1] + y[14] + y[65] + y[98] - z[4288] >= 0
 R4289: y[4] + y[10] + y[28] + y[30] + y[31] + y[32] + y[33] + y[43]
   + y[78] + y[80] + y[81] + y[89] + y[94] - z[4289] >= 0
 R4290: y[3] + y[9] + y[11] + y[13] + y[17] + y[40] + y[54] + y[60] + y[64]
   + y[66] + y[68] + y[77] + y[97] + y[99] - z[4290] >= 0
 R4291: y[5] + y[9] + y[11] + y[17] + y[64] + y[66] + y[77] + y[97]
   - z[4291] >= 0
 R4292: y[8] + y[12] + y[19] + y[22] + y[26] + y[34] + y[38] + y[44]
   + y[45] + y[46] + y[47] + y[58] + y[61] + y[62] + y[67] + y[74] + y[75]
   + y[87] + y[90] - z[4292] >= 0
 R4293: y[12] + y[19] + y[22] + y[26] + y[38] + y[44] + y[45] + y[46]
   + y[47] + y[67] + y[70] + y[74] + y[87] - z[4293] >= 0
 R4294: y[1] + y[20] + y[35] + y[36] + y[39] + y[57] + y[92] + y[98]
   - z[4294] >= 0
 R4295: y[4] + y[10] + y[26] + y[31] + y[32] + y[44] + y[47] + y[49]
   + y[56] + y[78] + y[81] + y[83] + y[89] - z[4295] >= 0
 R4296: y[2] + y[31] + y[32] + y[35] + y[36] + y[39] + y[49] + y[56]
   + y[78] + y[81] + y[83] + y[88] + y[89] + y[96] - z[4296] >= 0
 R4297: y[0] + y[4] + y[10] + y[15] + y[27] + y[28] + y[30] + y[33] + y[43]
   + y[80] + y[82] + y[89] + y[94] - z[4297] >= 0
 R4298: y[4] + y[10] + y[15] + y[27] + y[28] + y[30] + y[31] + y[33]
   + y[43] + y[63] + y[80] + y[82] + y[89] + y[94] - z[4298] >= 0
 R4299: y[18] + y[21] + y[29] + y[44] + y[50] + y[62] + y[69] + y[74]
   + y[75] + y[84] + y[85] + y[90] + y[93] - z[4299] >= 0
 R4300: y[1] + y[6] + y[14] + y[57] + y[65] + y[92] + y[98] - z[4300] >= 0
 R4301: y[0] + y[4] + y[15] + y[27] + y[28] + y[30] + y[43] + y[70] + y[80]
   + y[82] + y[94] - z[4301] >= 0
 R4302: y[5] + y[9] + y[11] + y[13] + y[17] + y[54] + y[64] + y[66] + y[68]
   + y[77] + y[97] - z[4302] >= 0
 R4303: y[8] + y[12] + y[22] + y[26] + y[38] + y[45] + y[46] + y[47]
   + y[58] + y[61] + y[67] + y[70] + y[87] - z[4303] >= 0
 R4304: y[8] + y[12] + y[19] + y[22] + y[26] + y[34] + y[38] + y[45]
   + y[46] + y[47] + y[58] + y[61] + y[67] + y[70] + y[74] + y[75] + y[87]
   - z[4304] >= 0
 R4305: y[3] + y[40] + y[48] + y[60] + y[72] + y[86] + y[91] + y[99]
   - z[4305] >= 0
 R4306: y[18] + y[21] + y[36] + y[50] + y[69] + y[84] + y[85] + y[93]
   - z[4306] >= 0
 R4307: y[2] + y[20] + y[35] + y[36] + y[39] + y[57] + y[88] + y[98]
   - z[4307] >= 0
 R4308: y[2] + y[18] + y[19] + y[32] + y[35] + y[44] + y[49] + y[56]
   + y[69] + y[78] + y[81] + y[83] + y[85] - z[4308] >= 0
 R4309: y[18] + y[21] + y[36] + y[50] + y[56] + y[69] + y[84] + y[85]
   + y[93] - z[4309] >= 0
 R4310: y[16] + y[23] + y[25] + y[27] + y[28] + y[33] + y[37] + y[42]
   + y[43] + y[59] + y[63] + y[73] + y[76] + y[80] - z[4310] >= 0
 R4311: y[1] + y[6] + y[14] + y[20] + y[36] + y[39] + y[57] + y[65] + y[92]
   + y[98] - z[4311] >= 0
 R4312: y[18] + y[29] + y[50] + y[52] + y[62] + y[74] + y[75] + y[90]
   + y[93] - z[4312] >= 0
 R4313: y[16] + y[23] + y[24] + y[25] + y[27] + y[37] + y[42] + y[71]
   + y[73] + y[76] - z[4313] >= 0
 R4314: y[6] + y[48] + y[86] + y[91] + y[92] - z[4314] >= 0
 R4315: y[2] + y[18] + y[32] + y[35] + y[36] + y[39] + y[49] + y[56]
   + y[69] + y[78] + y[81] + y[83] + y[84] + y[85] + y[88] + y[96]
   - z[4315] >= 0
 R4316: y[29] + y[34] + y[52] + y[58] + y[62] + y[74] + y[75] + y[90]
   - z[4316] >= 0
 R4317: y[1] + y[6] + y[14] + y[48] + y[57] + y[65] + y[86] + y[91] + y[92]
   - z[4317] >= 0
 R4318: y[18] + y[21] + y[29] + y[50] + y[62] + y[69] + y[74] + y[75]
   + y[84] + y[85] + y[90] + y[93] - z[4318] >= 0
 R4319: y[5] + y[7] + y[9] + y[11] + y[13] + y[17] + y[51] + y[53] + y[64]
   + y[68] + y[95] - z[4319] >= 0
 R4320: y[4] + y[10] + y[28] + y[31] + y[32] + y[33] + y[43] + y[55]
   + y[79] + y[81] + y[89] - z[4320] >= 0
 R4321: y[4] + y[19] + y[26] + y[32] + y[38] + y[44] + y[47] + y[49]
   + y[56] + y[67] + y[78] + y[81] + y[83] + y[89] - z[4321] >= 0
 R4322: y[16] + y[23] + y[24] + y[25] + y[37] + y[42] + y[71] + y[73]
   + y[76] + y[95] - z[4322] >= 0
 R4323: y[21] + y[98] - z[4323] >= 0
 R4324: y[1] + y[6] + y[14] + y[20] + y[39] + y[57] + y[65] + y[91] + y[92]
   + y[98] - z[4324] >= 0
 R4325: y[41] - z[4325] >= 0
 R4326: y[0] + y[15] + y[41] - z[4326] >= 0
 R4327: y[18] + y[19] + y[26] + y[29] + y[38] + y[44] + y[45] + y[47]
   + y[50] + y[58] + y[62] + y[67] + y[69] + y[74] + y[75] + y[85] + y[87]
   + y[90] + y[93] - z[4327] >= 0
 R4328: y[3] + y[9] + y[11] + y[13] + y[17] + y[40] + y[54] + y[55] + y[60]
   + y[64] + y[66] + y[77] + y[97] + y[99] - z[4328] >= 0
 R4329: y[6] + y[40] + y[48] + y[57] + y[60] + y[72] + y[86] + y[91]
   + y[92] - z[4329] >= 0
 R4330: y[18] + y[19] + y[26] + y[29] + y[44] + y[50] + y[52] + y[56]
   + y[62] + y[69] + y[74] + y[75] + y[84] + y[85] + y[90] + y[93]
   - z[4330] >= 0
 R4331: y[40] + y[54] + y[55] + y[60] + y[72] + y[79] + y[99] - z[4331]
   >= 0
 R4332: y[0] + y[15] + y[27] + y[30] + y[70] + y[82] + y[94] - z[4332]
   >= 0
 R4333: y[18] + y[19] + y[26] + y[38] + y[44] + y[47] + y[49] + y[50]
   + y[56] + y[67] + y[69] + y[74] + y[75] + y[78] + y[81] + y[83] + y[85]
   + y[87] + y[90] + y[93] - z[4333] >= 0
 R4334: y[40] + y[48] + y[55] + y[60] + y[72] + y[79] + y[86] + y[88]
   + y[96] + y[99] - z[4334] >= 0
 R4335: y[1] + y[14] + y[65] - z[4335] >= 0
 R4336: y[7] + y[9] + y[10] + y[13] + y[28] + y[31] + y[33] + y[43] + y[53]
   + y[55] + y[59] + y[63] + y[68] + y[79] - z[4336] >= 0
 R4337: y[0] + y[4] + y[15] + y[16] + y[27] + y[28] + y[30] + y[33] + y[43]
   + y[80] + y[82] + y[94] - z[4337] >= 0
 R4338: y[18] + y[21] + y[29] + y[50] + y[52] + y[62] + y[69] + y[74]
   + y[75] + y[84] + y[85] + y[90] + y[93] - z[4338] >= 0
 R4339: y[1] + y[14] + y[39] + y[65] + y[98] - z[4339] >= 0
 R4340: y[0] + y[16] + y[24] + y[41] + y[71] - z[4340] >= 0
 R4341: y[18] + y[19] + y[21] + y[44] + y[49] + y[50] + y[56] + y[69]
   + y[74] + y[75] + y[78] + y[83] + y[84] + y[85] + y[90] + y[93]
   - z[4341] >= 0
 R4342: y[5] + y[7] + y[9] + y[13] + y[17] + y[25] + y[37] + y[51] + y[53]
   + y[59] + y[63] + y[68] + y[76] + y[95] - z[4342] >= 0
 R4343: y[19] + y[26] + y[32] + y[38] + y[44] + y[47] + y[49] + y[56]
   + y[67] + y[69] + y[78] + y[81] + y[83] - z[4343] >= 0
 R4344: y[0] + y[4] + y[12] + y[15] + y[30] + y[47] + y[67] + y[70] + y[82]
   + y[94] - z[4344] >= 0
 R4345: y[0] + y[15] + y[16] + y[23] + y[24] + y[25] + y[27] + y[28]
   + y[30] + y[33] + y[37] + y[42] + y[43] + y[63] + y[71] + y[73] + y[80]
   + y[82] + y[94] - z[4345] >= 0
 R4346: y[2] + y[10] + y[31] + y[32] + y[55] + y[72] + y[79] + y[88]
   + y[89] + y[96] + y[99] - z[4346] >= 0
 R4347: y[5] + y[7] + y[9] + y[11] + y[13] + y[17] + y[51] + y[53] + y[64]
   + y[68] + y[97] - z[4347] >= 0
 R4348: y[2] + y[20] + y[35] + y[36] + y[39] + y[57] + y[88] + y[92]
   + y[96] + y[98] - z[4348] >= 0
 R4349: y[0] + y[16] + y[23] + y[24] + y[25] + y[27] + y[37] + y[41]
   + y[42] + y[71] + y[73] + y[76] + y[80] + y[94] - z[4349] >= 0
 R4350: y[0] + y[12] + y[15] + y[45] + y[46] + y[47] + y[61] + y[67]
   + y[70] + y[82] + y[87] - z[4350] >= 0
 R4351: y[5] + y[7] + y[9] + y[11] + y[13] + y[17] + y[51] + y[53] + y[54]
   + y[55] + y[59] + y[68] + y[95] + y[99] - z[4351] >= 0
 R4352: y[2] + y[32] + y[35] + y[36] + y[49] + y[56] + y[69] + y[78]
   + y[81] + y[83] + y[85] + y[88] + y[89] + y[96] - z[4352] >= 0
 R4353: y[21] + y[36] + y[39] + y[84] + y[98] - z[4353] >= 0
 R4354: y[1] + y[6] + y[14] + y[20] + y[39] + y[48] + y[57] + y[65] + y[86]
   + y[91] + y[92] + y[98] - z[4354] >= 0
 R4355: y[3] + y[40] + y[48] + y[54] + y[60] + y[72] + y[79] + y[86]
   + y[99] - z[4355] >= 0
 R4356: y[18] + y[29] + y[50] + y[52] + y[62] + y[74] + y[75] + y[90]
   + y[93] - z[4356] >= 0
 R4357: y[0] + y[15] + y[41] + y[82] - z[4357] >= 0
 R4358: y[1] + y[6] + y[14] + y[20] + y[57] + y[65] + y[91] + y[92] + y[98]
   - z[4358] >= 0
 R4359: y[0] + y[4] + y[10] + y[15] + y[27] + y[28] + y[30] + y[31] + y[33]
   + y[43] + y[47] + y[80] + y[82] + y[89] + y[94] - z[4359] >= 0
 R4360: y[5] + y[7] + y[9] + y[13] + y[17] + y[25] + y[37] + y[51] + y[53]
   + y[59] + y[63] + y[68] + y[76] + y[95] - z[4360] >= 0
 R4361: y[2] + y[10] + y[31] + y[32] + y[35] + y[49] + y[56] + y[78]
   + y[79] + y[81] + y[83] + y[88] + y[89] + y[96] - z[4361] >= 0
 R4362: y[7] + y[9] + y[13] + y[33] + y[37] + y[51] + y[53] + y[55] + y[59]
   + y[63] + y[68] + y[95] - z[4362] >= 0
 R4363: y[3] + y[40] + y[54] + y[60] + y[66] + y[77] + y[99] - z[4363]
   >= 0
 R4364: y[4] + y[10] + y[27] + y[28] + y[30] + y[31] + y[33] + y[43]
   + y[55] + y[59] + y[63] + y[80] + y[89] - z[4364] >= 0
 R4365: y[9] + y[11] + y[13] + y[17] + y[40] + y[51] + y[53] + y[54]
   + y[55] + y[60] + y[68] + y[79] + y[99] - z[4365] >= 0
 R4366: y[2] + y[4] + y[10] + y[31] + y[32] + y[49] + y[56] + y[78] + y[81]
   + y[83] + y[89] - z[4366] >= 0
 R4367: y[0] + y[4] + y[12] + y[15] + y[27] + y[30] + y[47] + y[67] + y[70]
   + y[80] + y[82] + y[94] - z[4367] >= 0
 R4368: y[18] + y[21] + y[29] + y[44] + y[50] + y[62] + y[69] + y[74]
   + y[75] + y[84] + y[85] + y[90] + y[93] - z[4368] >= 0
 R4369: y[2] + y[20] + y[35] + y[36] + y[39] + y[57] + y[88] + y[92]
   + y[96] + y[98] - z[4369] >= 0
 R4370: y[0] + y[4] + y[15] + y[16] + y[27] + y[28] + y[30] + y[33] + y[43]
   + y[80] + y[82] + y[94] - z[4370] >= 0
 R4371: y[12] + y[19] + y[26] + y[38] + y[44] + y[45] + y[46] + y[47]
   + y[67] + y[70] + y[87] - z[4371] >= 0
 R4372: y[3] + y[40] + y[48] + y[54] + y[60] + y[72] + y[79] + y[86]
   + y[91] + y[99] - z[4372] >= 0
 R4373: y[0] + y[4] + y[10] + y[15] + y[16] + y[23] + y[27] + y[28] + y[30]
   + y[33] + y[42] + y[43] + y[63] + y[80] + y[82] + y[94] - z[4373] >= 0
 R4374: y[2] + y[20] + y[35] + y[36] + y[39] + y[57] + y[88] + y[96]
   + y[98] - z[4374] >= 0
 R4375: y[6] + y[20] + y[48] + y[57] + y[72] + y[86] + y[88] + y[91]
   + y[92] + y[96] - z[4375] >= 0
 R4376: y[0] + y[15] + y[16] + y[27] + y[30] + y[41] + y[80] + y[82]
   + y[94] - z[4376] >= 0
 R4377: y[4] + y[10] + y[28] + y[30] + y[31] + y[32] + y[33] + y[43]
   + y[63] + y[80] + y[89] - z[4377] >= 0
 R4378: y[1] + y[6] + y[20] + y[35] + y[36] + y[39] + y[48] + y[57] + y[86]
   + y[88] + y[91] + y[92] + y[96] + y[98] - z[4378] >= 0
 R4379: y[0] + y[12] + y[15] + y[46] + y[61] + y[67] + y[70] - z[4379]
   >= 0
 R4380: y[7] + y[9] + y[11] + y[13] + y[51] + y[53] + y[54] + y[55] + y[59]
   + y[63] + y[68] + y[79] + y[99] - z[4380] >= 0
 R4381: y[1] + y[6] + y[14] + y[20] + y[35] + y[36] + y[39] + y[48] + y[57]
   + y[86] + y[88] + y[91] + y[92] + y[98] - z[4381] >= 0
 R4382: y[0] + y[16] + y[23] + y[24] + y[27] + y[41] + y[42] + y[71]
   + y[73] - z[4382] >= 0
 R4383: y[29] + y[34] + y[52] + y[62] - z[4383] >= 0
 R4384: y[20] + y[40] + y[48] + y[57] + y[60] + y[72] + y[79] + y[86]
   + y[88] + y[91] + y[92] + y[96] + y[99] - z[4384] >= 0
 R4385: y[1] + y[6] + y[20] + y[35] + y[36] + y[39] + y[48] + y[57] + y[72]
   + y[86] + y[88] + y[91] + y[92] + y[96] + y[98] - z[4385] >= 0
 R4386: y[16] + y[23] + y[24] + y[25] + y[37] + y[42] + y[71] + y[73]
   + y[76] - z[4386] >= 0
 R4387: y[7] + y[23] + y[25] + y[37] + y[42] + y[51] + y[53] + y[59]
   + y[63] + y[68] + y[73] + y[76] + y[95] - z[4387] >= 0
 R4388: y[0] + y[15] + y[16] + y[23] + y[24] + y[25] + y[27] + y[28]
   + y[30] + y[33] + y[37] + y[42] + y[63] + y[71] + y[73] + y[80] + y[82]
   + y[94] - z[4388] >= 0
 R4389: y[1] + y[6] + y[14] + y[57] + y[65] + y[91] + y[92] - z[4389] >= 0
 R4390: y[18] + y[21] + y[29] + y[50] + y[69] + y[84] + y[85] + y[90]
   + y[93] - z[4390] >= 0
 R4391: y[18] + y[19] + y[26] + y[29] + y[34] + y[38] + y[44] + y[45]
   + y[50] + y[52] + y[58] + y[62] + y[69] + y[74] + y[75] + y[87] + y[90]
   + y[93] - z[4391] >= 0
 R4392: y[12] + y[19] + y[26] + y[38] + y[44] + y[45] + y[46] + y[47]
   + y[67] + y[70] + y[87] - z[4392] >= 0
 R4393: y[18] + y[19] + y[26] + y[32] + y[38] + y[44] + y[47] + y[49]
   + y[56] + y[67] + y[69] + y[78] + y[81] + y[83] + y[85] + y[93]
   - z[4393] >= 0
 R4394: y[29] + y[34] + y[52] + y[62] + y[74] + y[75] - z[4394] >= 0
 R4395: y[0] + y[4] + y[10] + y[15] + y[27] + y[28] + y[30] + y[43] + y[47]
   + y[70] + y[80] + y[82] + y[94] - z[4395] >= 0
 R4396: y[8] + y[12] + y[19] + y[22] + y[26] + y[34] + y[38] + y[44]
   + y[45] + y[46] + y[47] + y[58] + y[61] + y[62] + y[67] + y[74] + y[75]
   + y[87] + y[90] - z[4396] >= 0
 R4397: y[5] + y[9] + y[11] + y[13] + y[17] + y[64] + y[66] + y[68] + y[77]
   + y[97] - z[4397] >= 0
 R4398: y[0] + y[15] + y[82] - z[4398] >= 0
 R4399: y[1] + y[6] + y[14] + y[20] + y[57] + y[65] + y[92] + y[98]
   - z[4399] >= 0
 R4400: y[2] + y[20] + y[21] + y[35] + y[36] + y[39] + y[57] + y[84]
   + y[85] + y[88] + y[98] - z[4400] >= 0
 R4401: y[6] + y[20] + y[39] + y[48] + y[57] + y[72] + y[86] + y[88]
   + y[91] + y[92] + y[96] - z[4401] >= 0
 R4402: y[1] + y[20] + y[36] + y[39] + y[98] - z[4402] >= 0
 R4403: y[0] + y[15] + y[27] + y[70] + y[82] + y[94] - z[4403] >= 0
 R4404: y[29] + y[34] + y[50] + y[52] + y[62] + y[74] + y[75] + y[90]
   - z[4404] >= 0
 R4405: y[11] + y[17] + y[64] + y[66] + y[77] + y[97] - z[4405] >= 0
 R4406: y[6] + y[20] + y[40] + y[48] + y[57] + y[60] + y[72] + y[86]
   + y[91] + y[92] + y[96] - z[4406] >= 0
 R4407: y[0] + y[16] + y[23] + y[24] + y[27] + y[41] + y[42] + y[71]
   + y[73] - z[4407] >= 0
 R4408: y[5] + y[7] + y[9] + y[11] + y[13] + y[17] + y[51] + y[53] + y[64]
   + y[68] + y[95] + y[97] - z[4408] >= 0
 R4409: y[8] + y[12] + y[15] + y[22] + y[38] + y[45] + y[46] + y[47]
   + y[61] + y[67] + y[70] + y[87] - z[4409] >= 0
 R4410: y[1] + y[6] + y[14] + y[20] + y[39] + y[57] + y[65] + y[91] + y[92]
   + y[98] - z[4410] >= 0
 R4411: y[9] + y[10] + y[13] + y[28] + y[31] + y[33] + y[43] + y[55]
   + y[59] + y[63] + y[79] + y[89] + y[99] - z[4411] >= 0
 R4412: y[16] + y[23] + y[24] + y[25] + y[37] + y[42] + y[71] + y[73]
   + y[76] - z[4412] >= 0
 R4413: y[4] + y[10] + y[15] + y[28] + y[30] + y[31] + y[33] + y[43]
   + y[47] + y[78] + y[80] + y[82] + y[89] + y[94] - z[4413] >= 0
 R4414: y[0] + y[4] + y[10] + y[15] + y[27] + y[28] + y[30] + y[31] + y[33]
   + y[43] + y[80] + y[82] + y[89] + y[94] - z[4414] >= 0
 R4415: y[0] + y[15] + y[16] + y[23] + y[24] + y[27] + y[30] + y[41]
   + y[42] + y[71] + y[80] + y[82] + y[94] - z[4415] >= 0
 R4416: y[1] + y[14] + y[65] + y[98] - z[4416] >= 0
 R4417: y[5] + y[9] + y[11] + y[17] + y[64] + y[66] + y[77] + y[97]
   - z[4417] >= 0
 R4418: y[2] + y[4] + y[10] + y[19] + y[26] + y[31] + y[32] + y[44] + y[47]
   + y[49] + y[56] + y[78] + y[81] + y[83] + y[89] - z[4418] >= 0
 R4419: y[21] + y[84] + y[98] - z[4419] >= 0
 R4420: y[8] + y[12] + y[22] + y[38] + y[45] + y[46] + y[47] + y[61]
   + y[67] + y[70] + y[87] - z[4420] >= 0
 R4421: y[0] + y[12] + y[15] + y[38] + y[45] + y[46] + y[47] + y[61]
   + y[67] + y[70] + y[82] + y[87] - z[4421] >= 0
 R4422: y[18] + y[21] + y[35] + y[36] + y[39] + y[69] + y[84] + y[85]
   + y[98] - z[4422] >= 0
 R4423: y[3] + y[11] + y[40] + y[54] + y[60] + y[66] + y[77] + y[97]
   - z[4423] >= 0
 R4424: y[3] + y[9] + y[11] + y[13] + y[40] + y[54] + y[55] + y[60] + y[77]
   + y[79] + y[99] - z[4424] >= 0
 R4425: y[16] + y[23] + y[24] + y[41] + y[42] + y[71] + y[73] - z[4425]
   >= 0
 R4426: y[18] + y[19] + y[26] + y[32] + y[38] + y[44] + y[47] + y[49]
   + y[56] + y[67] + y[69] + y[78] + y[81] + y[83] + y[85] + y[93]
   - z[4426] >= 0
 R4427: y[2] + y[20] + y[35] + y[36] + y[39] + y[57] + y[88] + y[96]
   + y[98] - z[4427] >= 0
 R4428: y[8] + y[12] + y[19] + y[22] + y[26] + y[38] + y[44] + y[45]
   + y[46] + y[47] + y[58] + y[61] + y[67] + y[70] + y[74] + y[75] + y[87]
   + y[90] - z[4428] >= 0
 R4429: y[24] + y[41] + y[71] - z[4429] >= 0
 R4430: y[4] + y[12] + y[15] + y[19] + y[26] + y[30] + y[38] + y[45]
   + y[46] + y[47] + y[67] + y[70] + y[82] + y[87] - z[4430] >= 0
 R4431: y[4] + y[10] + y[25] + y[27] + y[28] + y[30] + y[31] + y[33]
   + y[37] + y[43] + y[55] + y[59] + y[63] + y[80] + y[89] - z[4431] >= 0
 R4432: y[16] + y[23] + y[24] + y[25] + y[27] + y[33] + y[37] + y[42]
   + y[63] + y[71] + y[73] + y[76] + y[80] + y[94] - z[4432] >= 0
 R4433: y[9] + y[40] + y[54] + y[55] + y[60] + y[72] + y[79] + y[99]
   - z[4433] >= 0
 R4434: y[18] + y[19] + y[26] + y[32] + y[38] + y[44] + y[47] + y[49]
   + y[50] + y[56] + y[69] + y[74] + y[75] + y[78] + y[81] + y[83] + y[84]
   + y[85] + y[90] + y[93] - z[4434] >= 0
 R4435: y[0] + y[4] + y[15] + y[16] + y[27] + y[28] + y[30] + y[33] + y[43]
   + y[80] + y[82] + y[94] - z[4435] >= 0
 R4436: y[3] + y[40] + y[54] + y[55] + y[60] + y[72] + y[79] + y[99]
   - z[4436] >= 0
 R4437: y[0] + y[4] + y[10] + y[15] + y[27] + y[28] + y[30] + y[33] + y[43]
   + y[70] + y[80] + y[82] + y[89] + y[94] - z[4437] >= 0
 R4438: y[9] + y[13] + y[31] + y[55] + y[59] + y[60] + y[63] + y[79]
   + y[99] - z[4438] >= 0
 R4439: y[7] + y[9] + y[11] + y[13] + y[17] + y[51] + y[53] + y[54] + y[55]
   + y[59] + y[63] + y[68] + y[79] + y[95] + y[99] - z[4439] >= 0
 R4440: y[0] + y[4] + y[10] + y[15] + y[27] + y[28] + y[30] + y[43] + y[47]
   + y[67] + y[70] + y[80] + y[82] + y[94] - z[4440] >= 0
 R4441: y[8] + y[22] + y[34] + y[38] + y[45] + y[46] + y[52] + y[58]
   + y[62] + y[74] + y[75] + y[87] - z[4441] >= 0
 R4442: y[2] + y[31] + y[32] + y[35] + y[36] + y[49] + y[56] + y[78]
   + y[79] + y[81] + y[83] + y[88] + y[89] + y[96] - z[4442] >= 0
 R4443: y[12] + y[18] + y[19] + y[26] + y[38] + y[44] + y[45] + y[46]
   + y[47] + y[50] + y[56] + y[58] + y[62] + y[67] + y[69] + y[74] + y[75]
   + y[78] + y[83] + y[85] + y[87] + y[90] + y[93] - z[4443] >= 0
 R4444: y[2] + y[6] + y[20] + y[35] + y[36] + y[39] + y[57] + y[72] + y[88]
   + y[91] + y[92] + y[96] + y[98] - z[4444] >= 0
 R4445: y[0] + y[4] + y[10] + y[15] + y[16] + y[27] + y[28] + y[30] + y[33]
   + y[43] + y[80] + y[82] + y[94] - z[4445] >= 0
 R4446: y[21] + y[84] + y[98] - z[4446] >= 0
 R4447: y[8] + y[12] + y[19] + y[22] + y[26] + y[34] + y[38] + y[45]
   + y[46] + y[58] + y[61] + y[62] + y[67] + y[74] + y[75] + y[87] + y[90]
   - z[4447] >= 0
 R4448: y[19] + y[29] + y[34] + y[52] + y[58] + y[62] + y[74] + y[75]
   + y[90] - z[4448] >= 0
 R4449: y[2] + y[18] + y[20] + y[21] + y[35] + y[36] + y[39] + y[56]
   + y[69] + y[84] + y[85] + y[88] + y[98] - z[4449] >= 0
 R4450: y[0] + y[12] + y[15] + y[38] + y[45] + y[46] + y[47] + y[61]
   + y[67] + y[70] + y[82] + y[87] - z[4450] >= 0
 R4451: y[1] + y[6] + y[14] + y[20] + y[39] + y[57] + y[65] + y[91] + y[92]
   + y[98] - z[4451] >= 0
 R4452: y[18] + y[19] + y[26] + y[29] + y[34] + y[38] + y[44] + y[50]
   + y[52] + y[58] + y[62] + y[69] + y[74] + y[75] + y[85] + y[90] + y[93]
   - z[4452] >= 0
 R4453: y[0] + y[16] + y[23] + y[24] + y[27] + y[41] + y[42] + y[71]
   + y[73] - z[4453] >= 0
 R4454: y[18] + y[19] + y[21] + y[26] + y[29] + y[44] + y[50] + y[56]
   + y[62] + y[69] + y[74] + y[75] + y[84] + y[85] + y[90] + y[93]
   - z[4454] >= 0
 R4455: y[18] + y[19] + y[26] + y[29] + y[44] + y[50] + y[52] + y[56]
   + y[62] + y[69] + y[74] + y[75] + y[84] + y[85] + y[90] + y[93]
   - z[4455] >= 0
 R4456: y[2] + y[20] + y[32] + y[35] + y[36] + y[39] + y[57] + y[72]
   + y[79] + y[81] + y[86] + y[88] + y[96] - z[4456] >= 0
 R4457: y[0] + y[15] + y[27] + y[30] + y[70] + y[80] + y[82] + y[94]
   - z[4457] >= 0
 R4458: y[0] + y[15] + y[41] + y[82] - z[4458] >= 0
 R4459: y[3] + y[40] + y[48] + y[54] + y[60] + y[77] + y[86] - z[4459]
   >= 0
 R4460: y[2] + y[20] + y[35] + y[36] + y[39] + y[57] + y[88] + y[92]
   + y[96] + y[98] - z[4460] >= 0
 R4461: y[3] + y[9] + y[11] + y[13] + y[17] + y[40] + y[54] + y[55] + y[60]
   + y[68] + y[77] + y[79] + y[99] - z[4461] >= 0
 R4462: y[0] + y[41] - z[4462] >= 0
 R4463: y[19] + y[26] + y[29] + y[34] + y[38] + y[50] + y[52] + y[58]
   + y[62] + y[74] + y[75] + y[90] - z[4463] >= 0
 R4464: y[5] + y[7] + y[9] + y[11] + y[13] + y[17] + y[51] + y[53] + y[55]
   + y[59] + y[64] + y[68] + y[95] - z[4464] >= 0
 R4465: y[2] + y[20] + y[32] + y[35] + y[36] + y[39] + y[49] + y[56]
   + y[57] + y[78] + y[81] + y[83] + y[88] + y[96] - z[4465] >= 0
 R4466: y[2] + y[18] + y[20] + y[32] + y[35] + y[36] + y[39] + y[49]
   + y[56] + y[69] + y[78] + y[81] + y[83] + y[84] + y[85] + y[88] + y[96]
   + y[98] - z[4466] >= 0
 R4467: y[10] + y[31] + y[32] + y[55] + y[72] + y[79] + y[88] + y[89]
   + y[96] + y[99] - z[4467] >= 0
 R4468: y[2] + y[18] + y[20] + y[32] + y[35] + y[36] + y[39] + y[49]
   + y[56] + y[69] + y[78] + y[81] + y[83] + y[84] + y[85] + y[88] + y[93]
   + y[96] - z[4468] >= 0
 R4469: y[2] + y[20] + y[35] + y[36] + y[39] + y[57] + y[84] + y[88]
   + y[96] + y[98] - z[4469] >= 0
 R4470: y[20] + y[21] + y[35] + y[36] + y[39] + y[57] + y[84] + y[98]
   - z[4470] >= 0
 R4471: y[18] + y[21] + y[44] + y[50] + y[56] + y[69] + y[84] + y[85]
   + y[90] + y[93] - z[4471] >= 0
 R4472: y[0] + y[4] + y[15] + y[16] + y[27] + y[28] + y[30] + y[43] + y[80]
   + y[82] + y[94] - z[4472] >= 0
 R4473: y[2] + y[10] + y[31] + y[32] + y[35] + y[36] + y[49] + y[56]
   + y[78] + y[81] + y[83] + y[88] + y[89] + y[96] - z[4473] >= 0
 R4474: y[0] + y[41] - z[4474] >= 0
 R4475: y[8] + y[12] + y[15] + y[22] + y[38] + y[45] + y[46] + y[47]
   + y[61] + y[67] + y[70] + y[87] - z[4475] >= 0
 R4476: y[2] + y[6] + y[20] + y[35] + y[36] + y[39] + y[48] + y[57] + y[72]
   + y[86] + y[88] + y[91] + y[92] + y[96] + y[98] - z[4476] >= 0
 R4477: y[1] + y[6] + y[14] + y[65] + y[91] + y[92] - z[4477] >= 0
 R4478: y[2] + y[20] + y[35] + y[36] + y[39] + y[57] + y[72] + y[88]
   + y[96] + y[98] - z[4478] >= 0
 R4479: y[5] + y[9] + y[11] + y[13] + y[17] + y[54] + y[64] + y[66] + y[68]
   + y[77] + y[97] - z[4479] >= 0
 R4480: y[3] + y[9] + y[11] + y[40] + y[54] + y[55] + y[60] + y[72] + y[77]
   + y[79] + y[99] - z[4480] >= 0
 R4481: y[0] + y[12] + y[15] + y[45] + y[46] + y[47] + y[61] + y[67]
   + y[70] + y[82] + y[87] + y[94] - z[4481] >= 0
 R4482: y[3] + y[40] + y[54] + y[60] + y[66] + y[77] + y[79] + y[86]
   + y[99] - z[4482] >= 0
 R4483: y[8] + y[12] + y[19] + y[22] + y[26] + y[34] + y[38] + y[44]
   + y[45] + y[46] + y[47] + y[58] + y[61] + y[62] + y[67] + y[70] + y[74]
   + y[75] + y[87] + y[90] - z[4483] >= 0
 R4484: y[4] + y[10] + y[28] + y[31] + y[32] + y[33] + y[43] + y[55]
   + y[63] + y[79] + y[89] - z[4484] >= 0
 R4485: y[18] + y[19] + y[26] + y[38] + y[44] + y[47] + y[49] + y[50]
   + y[56] + y[58] + y[62] + y[67] + y[69] + y[74] + y[75] + y[78] + y[83]
   + y[85] + y[87] + y[90] + y[93] - z[4485] >= 0
 R4486: y[5] + y[7] + y[9] + y[11] + y[13] + y[17] + y[51] + y[53] + y[55]
   + y[59] + y[63] + y[68] + y[95] - z[4486] >= 0
 R4487: y[2] + y[18] + y[32] + y[35] + y[36] + y[44] + y[49] + y[56]
   + y[69] + y[78] + y[81] + y[83] + y[84] + y[85] + y[88] + y[93]
   - z[4487] >= 0
 R4488: y[18] + y[19] + y[21] + y[26] + y[29] + y[44] + y[50] + y[56]
   + y[62] + y[69] + y[74] + y[75] + y[84] + y[85] + y[90] + y[93]
   - z[4488] >= 0
 R4489: y[29] + y[34] + y[52] + y[62] + y[74] + y[75] - z[4489] >= 0
 R4490: y[4] + y[10] + y[27] + y[28] + y[30] + y[31] + y[33] + y[43]
   + y[55] + y[59] + y[63] + y[80] + y[89] - z[4490] >= 0
 R4491: y[41] - z[4491] >= 0
 R4492: y[3] + y[11] + y[17] + y[54] + y[64] + y[66] + y[77] + y[97]
   - z[4492] >= 0
 R4493: y[1] + y[14] + y[65] - z[4493] >= 0
 R4494: y[8] + y[12] + y[19] + y[22] + y[26] + y[38] + y[45] + y[46]
   + y[47] + y[58] + y[61] + y[67] + y[70] + y[87] - z[4494] >= 0
 R4495: y[1] + y[6] + y[14] + y[57] + y[65] + y[91] + y[92] - z[4495] >= 0
 R4496: y[18] + y[19] + y[29] + y[44] + y[50] + y[52] + y[62] + y[69]
   + y[74] + y[75] + y[85] + y[90] + y[93] - z[4496] >= 0
 R4497: y[16] + y[23] + y[24] + y[25] + y[27] + y[37] + y[42] + y[71]
   + y[73] + y[76] - z[4497] >= 0
 R4498: y[5] + y[7] + y[9] + y[11] + y[13] + y[17] + y[51] + y[53] + y[54]
   + y[64] + y[66] + y[68] + y[77] + y[97] - z[4498] >= 0
 R4499: y[4] + y[10] + y[28] + y[30] + y[31] + y[32] + y[33] + y[43]
   + y[55] + y[63] + y[79] + y[80] + y[89] - z[4499] >= 0
 R4500: y[0] + y[15] + y[27] + y[30] + y[70] + y[80] + y[82] + y[94]
   - z[4500] >= 0
 R4501: y[2] + y[18] + y[21] + y[32] + y[35] + y[36] + y[39] + y[49]
   + y[56] + y[69] + y[78] + y[81] + y[83] + y[84] + y[85] + y[88] + y[93]
   - z[4501] >= 0
 R4502: y[2] + y[18] + y[21] + y[32] + y[35] + y[36] + y[39] + y[44]
   + y[49] + y[50] + y[56] + y[69] + y[78] + y[81] + y[83] + y[84] + y[85]
   + y[93] - z[4502] >= 0
 R4503: y[21] + y[84] + y[98] - z[4503] >= 0
 R4504: y[1] + y[6] + y[14] + y[65] + y[91] + y[92] - z[4504] >= 0
 R4505: y[8] + y[12] + y[19] + y[22] + y[26] + y[34] + y[38] + y[44]
   + y[45] + y[46] + y[47] + y[58] + y[61] + y[62] + y[67] + y[70] + y[74]
   + y[75] + y[87] - z[4505] >= 0
 R4506: y[3] + y[40] + y[48] + y[54] + y[60] + y[72] + y[79] + y[86]
   + y[99] - z[4506] >= 0
 R4507: y[5] + y[7] + y[9] + y[11] + y[13] + y[17] + y[51] + y[53] + y[55]
   + y[59] + y[63] + y[68] + y[95] - z[4507] >= 0
 R4508: y[8] + y[19] + y[22] + y[26] + y[29] + y[34] + y[38] + y[44]
   + y[45] + y[50] + y[52] + y[58] + y[62] + y[74] + y[75] + y[87] + y[90]
   - z[4508] >= 0
 R4509: y[2] + y[4] + y[10] + y[31] + y[32] + y[35] + y[49] + y[56] + y[78]
   + y[81] + y[83] + y[88] + y[89] + y[96] - z[4509] >= 0
 R4510: y[0] + y[4] + y[10] + y[16] + y[23] + y[25] + y[27] + y[28] + y[30]
   + y[33] + y[37] + y[42] + y[43] + y[59] + y[63] + y[80] + y[82] + y[94]
   - z[4510] >= 0
 R4511: y[0] + y[4] + y[12] + y[15] + y[30] + y[47] + y[67] + y[70] + y[82]
   + y[94] - z[4511] >= 0
 R4512: y[2] + y[31] + y[32] + y[35] + y[36] + y[49] + y[56] + y[78]
   + y[81] + y[83] + y[88] + y[89] + y[96] - z[4512] >= 0
 R4513: y[31] + y[40] + y[55] + y[60] + y[72] + y[79] + y[88] + y[96]
   + y[99] - z[4513] >= 0
 R4514: y[3] + y[9] + y[11] + y[40] + y[54] + y[55] + y[60] + y[66] + y[77]
   + y[79] + y[99] - z[4514] >= 0
 R4515: y[5] + y[7] + y[9] + y[11] + y[13] + y[17] + y[51] + y[53] + y[54]
   + y[55] + y[59] + y[63] + y[68] + y[95] + y[99] - z[4515] >= 0
 R4516: y[1] + y[14] + y[65] - z[4516] >= 0
 R4517: y[3] + y[5] + y[7] + y[9] + y[11] + y[13] + y[17] + y[51] + y[53]
   + y[54] + y[55] + y[60] + y[64] + y[68] + y[77] + y[97] + y[99]
   - z[4517] >= 0
 R4518: y[0] + y[4] + y[12] + y[15] + y[30] + y[38] + y[45] + y[46] + y[47]
   + y[67] + y[70] + y[82] + y[87] + y[94] - z[4518] >= 0
 R4519: y[0] + y[4] + y[10] + y[15] + y[27] + y[28] + y[30] + y[33] + y[43]
   + y[47] + y[70] + y[80] + y[82] + y[89] + y[94] - z[4519] >= 0
 R4520: y[0] + y[16] + y[24] + y[27] + y[41] + y[71] + y[82] - z[4520]
   >= 0
 R4521: y[10] + y[31] + y[33] + y[43] + y[55] + y[79] + y[89] + y[99]
   - z[4521] >= 0
 R4522: y[18] + y[21] + y[84] + y[85] - z[4522] >= 0
 R4523: y[3] + y[9] + y[11] + y[13] + y[17] + y[40] + y[54] + y[55] + y[60]
   + y[66] + y[77] + y[79] + y[99] - z[4523] >= 0
 R4524: y[6] + y[20] + y[48] + y[57] + y[72] + y[86] + y[88] + y[91]
   + y[92] + y[96] - z[4524] >= 0
 R4525: y[3] + y[11] + y[40] + y[54] + y[60] + y[66] + y[77] + y[97]
   + y[99] - z[4525] >= 0
 R4526: y[7] + y[9] + y[11] + y[13] + y[17] + y[40] + y[51] + y[53] + y[54]
   + y[55] + y[59] + y[60] + y[68] + y[79] + y[99] - z[4526] >= 0
 R4527: y[5] + y[9] + y[11] + y[13] + y[17] + y[51] + y[53] + y[64] + y[66]
   + y[68] + y[77] + y[97] - z[4527] >= 0
 R4528: y[10] + y[13] + y[25] + y[28] + y[31] + y[33] + y[37] + y[43]
   + y[53] + y[55] + y[59] + y[63] + y[76] + y[80] - z[4528] >= 0
 R4529: y[2] + y[10] + y[31] + y[32] + y[35] + y[49] + y[78] + y[79]
   + y[81] + y[83] + y[88] + y[89] + y[96] - z[4529] >= 0
 R4530: y[3] + y[9] + y[11] + y[13] + y[40] + y[54] + y[55] + y[60] + y[79]
   + y[99] - z[4530] >= 0
 R4531: y[0] + y[4] + y[15] + y[16] + y[23] + y[25] + y[27] + y[28] + y[30]
   + y[33] + y[37] + y[42] + y[43] + y[59] + y[63] + y[71] + y[80] + y[82]
   + y[94] - z[4531] >= 0
 R4532: y[2] + y[18] + y[19] + y[26] + y[32] + y[35] + y[44] + y[49]
   + y[50] + y[56] + y[69] + y[78] + y[81] + y[83] + y[84] + y[85] + y[93]
   - z[4532] >= 0
 R4533: y[0] + y[16] + y[23] + y[24] + y[27] + y[41] + y[42] + y[71]
   + y[73] - z[4533] >= 0
 R4534: y[2] + y[10] + y[31] + y[32] + y[35] + y[49] + y[56] + y[78]
   + y[81] + y[83] + y[88] + y[89] + y[96] - z[4534] >= 0
 R4535: y[40] + y[48] + y[54] + y[55] + y[60] + y[72] + y[79] + y[86]
   + y[96] + y[99] - z[4535] >= 0
 R4536: y[6] + y[20] + y[48] + y[57] + y[72] + y[86] + y[88] + y[91]
   + y[92] + y[96] - z[4536] >= 0
 R4537: y[10] + y[28] + y[31] + y[33] + y[43] + y[55] + y[59] + y[63]
   + y[79] + y[89] + y[99] - z[4537] >= 0
 R4538: y[9] + y[10] + y[13] + y[31] + y[55] + y[59] + y[60] + y[63]
   + y[79] + y[89] + y[99] - z[4538] >= 0
 R4539: y[3] + y[40] + y[54] + y[60] + y[77] - z[4539] >= 0
 R4540: y[2] + y[31] + y[32] + y[35] + y[40] + y[48] + y[55] + y[60]
   + y[72] + y[79] + y[86] + y[88] + y[96] + y[99] - z[4540] >= 0
 R4541: y[1] + y[20] + y[36] + y[39] + y[57] + y[98] - z[4541] >= 0
 R4542: y[3] + y[40] + y[48] + y[54] + y[60] + y[66] + y[77] + y[86]
   + y[99] - z[4542] >= 0
 R4543: y[2] + y[31] + y[32] + y[35] + y[36] + y[49] + y[72] + y[78]
   + y[79] + y[81] + y[83] + y[88] + y[89] + y[96] - z[4543] >= 0
 R4544: y[0] + y[12] + y[15] + y[45] + y[46] + y[47] + y[61] + y[67]
   + y[70] + y[82] + y[87] - z[4544] >= 0
 R4545: y[3] + y[5] + y[9] + y[11] + y[13] + y[17] + y[51] + y[53] + y[54]
   + y[55] + y[60] + y[64] + y[66] + y[68] + y[77] + y[97] + y[99]
   - z[4545] >= 0
 R4546: y[18] + y[19] + y[21] + y[44] + y[49] + y[50] + y[56] + y[69]
   + y[74] + y[75] + y[78] + y[81] + y[83] + y[84] + y[85] + y[90] + y[93]
   - z[4546] >= 0
 R4547: y[5] + y[7] + y[13] + y[23] + y[25] + y[33] + y[37] + y[42] + y[51]
   + y[53] + y[59] + y[63] + y[68] + y[76] + y[95] - z[4547] >= 0
 R4548: y[18] + y[19] + y[26] + y[29] + y[34] + y[38] + y[44] + y[50]
   + y[52] + y[58] + y[62] + y[69] + y[74] + y[75] + y[87] + y[90] + y[93]
   - z[4548] >= 0
 R4549: y[2] + y[18] + y[19] + y[26] + y[32] + y[35] + y[44] + y[49]
   + y[56] + y[69] + y[78] + y[81] + y[83] + y[84] + y[85] + y[93]
   - z[4549] >= 0
 R4550: y[8] + y[12] + y[19] + y[22] + y[26] + y[38] + y[44] + y[45]
   + y[46] + y[47] + y[58] + y[61] + y[67] + y[70] + y[74] + y[75] + y[87]
   - z[4550] >= 0
 R4551: y[0] + y[15] + y[16] + y[23] + y[24] + y[25] + y[27] + y[28]
   + y[30] + y[33] + y[37] + y[42] + y[43] + y[63] + y[71] + y[73] + y[80]
   + y[82] + y[94] - z[4551] >= 0
 R4552: y[18] + y[21] + y[36] + y[84] + y[85] + y[98] - z[4552] >= 0
 R4553: y[18] + y[19] + y[21] + y[26] + y[29] + y[44] + y[50] + y[52]
   + y[62] + y[69] + y[74] + y[75] + y[84] + y[85] + y[90] + y[93]
   - z[4553] >= 0
 R4554: y[0] + y[15] + y[16] + y[23] + y[24] + y[25] + y[27] + y[28]
   + y[30] + y[33] + y[37] + y[42] + y[43] + y[63] + y[71] + y[73] + y[80]
   + y[82] + y[94] - z[4554] >= 0
 R4555: y[9] + y[11] + y[13] + y[40] + y[54] + y[55] + y[59] + y[60]
   + y[68] + y[79] + y[99] - z[4555] >= 0
 R4556: y[29] + y[34] + y[50] + y[52] + y[62] + y[74] + y[75] + y[90]
   + y[93] - z[4556] >= 0
 R4557: y[0] + y[4] + y[10] + y[15] + y[27] + y[28] + y[30] + y[31] + y[33]
   + y[43] + y[47] + y[80] + y[82] + y[89] + y[94] - z[4557] >= 0
 R4558: y[3] + y[11] + y[17] + y[54] + y[64] + y[66] + y[77] + y[97]
   - z[4558] >= 0
 R4559: y[21] + y[84] + y[98] - z[4559] >= 0
 R4560: y[16] + y[23] + y[24] + y[41] + y[42] + y[71] + y[73] - z[4560]
   >= 0
 R4561: y[3] + y[40] + y[48] + y[54] + y[60] + y[77] + y[79] + y[86]
   + y[99] - z[4561] >= 0
 R4562: y[2] + y[4] + y[10] + y[31] + y[32] + y[35] + y[49] + y[56] + y[78]
   + y[81] + y[83] + y[88] + y[89] + y[96] - z[4562] >= 0
 R4563: y[4] + y[10] + y[15] + y[27] + y[28] + y[30] + y[31] + y[33]
   + y[43] + y[80] + y[82] + y[89] + y[94] - z[4563] >= 0
 R4564: y[8] + y[12] + y[19] + y[22] + y[26] + y[38] + y[45] + y[46]
   + y[47] + y[58] + y[61] + y[67] + y[70] + y[74] + y[75] + y[87]
   - z[4564] >= 0
 R4565: y[18] + y[19] + y[21] + y[26] + y[44] + y[49] + y[50] + y[56]
   + y[69] + y[74] + y[75] + y[78] + y[81] + y[83] + y[84] + y[85] + y[90]
   + y[93] - z[4565] >= 0
 R4566: y[3] + y[11] + y[40] + y[54] + y[66] + y[77] + y[97] - z[4566]
   >= 0
 R4567: y[8] + y[12] + y[19] + y[22] + y[26] + y[38] + y[44] + y[45]
   + y[46] + y[47] + y[58] + y[61] + y[67] + y[70] + y[74] + y[75] + y[87]
   - z[4567] >= 0
 R4568: y[2] + y[10] + y[31] + y[32] + y[35] + y[49] + y[56] + y[78]
   + y[79] + y[81] + y[83] + y[88] + y[89] + y[96] - z[4568] >= 0
 R4569: y[40] + y[48] + y[55] + y[60] + y[72] + y[79] + y[86] + y[88]
   + y[96] + y[99] - z[4569] >= 0
 R4570: y[1] + y[20] + y[35] + y[36] + y[39] + y[57] + y[88] + y[92]
   + y[98] - z[4570] >= 0
 R4571: y[3] + y[40] + y[48] + y[54] + y[55] + y[60] + y[72] + y[79]
   + y[86] + y[99] - z[4571] >= 0
 R4572: y[1] + y[6] + y[14] + y[20] + y[57] + y[65] + y[92] + y[98]
   - z[4572] >= 0
 R4573: y[41] + y[71] - z[4573] >= 0
 R4574: y[8] + y[19] + y[22] + y[26] + y[29] + y[34] + y[38] + y[45]
   + y[46] + y[52] + y[58] + y[62] + y[74] + y[75] + y[87] + y[90]
   - z[4574] >= 0
 R4575: y[6] + y[20] + y[48] + y[57] + y[72] + y[86] + y[91] + y[92]
   - z[4575] >= 0
 R4576: y[0] + y[41] - z[4576] >= 0
 R4577: y[1] + y[6] + y[14] + y[20] + y[35] + y[36] + y[39] + y[57] + y[65]
   + y[88] + y[91] + y[92] + y[98] - z[4577] >= 0
 R4578: y[0] + y[4] + y[12] + y[15] + y[26] + y[30] + y[38] + y[45] + y[46]
   + y[47] + y[67] + y[70] + y[82] + y[87] + y[94] - z[4578] >= 0
 R4579: y[0] + y[15] + y[16] + y[23] + y[24] + y[27] + y[41] + y[42]
   + y[71] + y[73] + y[80] + y[82] + y[94] - z[4579] >= 0
 R4580: y[3] + y[11] + y[40] + y[54] + y[60] + y[66] + y[77] - z[4580]
   >= 0
 R4581: y[2] + y[10] + y[31] + y[32] + y[35] + y[49] + y[56] + y[78]
   + y[81] + y[83] + y[88] + y[89] + y[96] - z[4581] >= 0
 R4582: y[18] + y[29] + y[34] + y[50] + y[52] + y[62] + y[74] + y[75]
   + y[90] + y[93] - z[4582] >= 0
 R4583: y[2] + y[18] + y[32] + y[35] + y[36] + y[44] + y[49] + y[56]
   + y[69] + y[78] + y[81] + y[83] + y[84] + y[85] + y[88] + y[93] + y[96]
   - z[4583] >= 0
 R4584: y[8] + y[12] + y[19] + y[22] + y[26] + y[34] + y[38] + y[44]
   + y[45] + y[46] + y[47] + y[58] + y[61] + y[62] + y[67] + y[74] + y[75]
   + y[87] + y[90] - z[4584] >= 0
 R4585: y[7] + y[9] + y[13] + y[25] + y[28] + y[33] + y[37] + y[43] + y[51]
   + y[53] + y[55] + y[59] + y[63] + y[68] + y[76] + y[95] - z[4585] >= 0
 R4586: y[20] + y[21] + y[35] + y[36] + y[39] + y[57] + y[84] + y[98]
   - z[4586] >= 0
 R4587: y[3] + y[9] + y[11] + y[13] + y[40] + y[54] + y[55] + y[60] + y[79]
   + y[99] - z[4587] >= 0
 R4588: y[4] + y[10] + y[28] + y[30] + y[31] + y[32] + y[33] + y[43]
   + y[49] + y[78] + y[81] + y[83] + y[89] - z[4588] >= 0
 R4589: y[18] + y[19] + y[26] + y[29] + y[44] + y[50] + y[56] + y[62]
   + y[69] + y[74] + y[75] + y[84] + y[85] + y[90] + y[93] - z[4589] >= 0
 R4590: y[2] + y[4] + y[10] + y[31] + y[32] + y[43] + y[49] + y[56] + y[78]
   + y[81] + y[83] + y[89] - z[4590] >= 0
 R4591: y[3] + y[9] + y[11] + y[13] + y[17] + y[40] + y[51] + y[53] + y[54]
   + y[55] + y[60] + y[64] + y[66] + y[68] + y[77] + y[97] + y[99]
   - z[4591] >= 0
 R4592: y[3] + y[40] + y[48] + y[60] + y[86] - z[4592] >= 0
 R4593: y[6] + y[48] + y[72] + y[86] + y[91] + y[92] - z[4593] >= 0
 R4594: y[5] + y[7] + y[9] + y[11] + y[13] + y[17] + y[51] + y[53] + y[54]
   + y[55] + y[60] + y[64] + y[68] + y[95] + y[99] - z[4594] >= 0
 R4595: y[7] + y[13] + y[23] + y[25] + y[28] + y[33] + y[37] + y[42]
   + y[43] + y[51] + y[53] + y[59] + y[63] + y[68] + y[76] + y[80] + y[95]
   - z[4595] >= 0
 R4596: y[2] + y[20] + y[35] + y[36] + y[39] + y[48] + y[57] + y[72]
   + y[86] + y[88] + y[91] + y[92] + y[96] + y[98] - z[4596] >= 0
 R4597: y[5] + y[7] + y[9] + y[13] + y[17] + y[51] + y[53] + y[68] + y[76]
   + y[95] - z[4597] >= 0
 R4598: y[1] + y[20] + y[36] + y[39] + y[98] - z[4598] >= 0
 R4599: y[5] + y[7] + y[9] + y[11] + y[13] + y[17] + y[51] + y[53] + y[55]
   + y[59] + y[68] + y[95] - z[4599] >= 0
 R4600: y[18] + y[19] + y[21] + y[26] + y[29] + y[44] + y[50] + y[56]
   + y[62] + y[69] + y[74] + y[75] + y[83] + y[84] + y[85] + y[90] + y[93]
   - z[4600] >= 0
 R4601: y[7] + y[9] + y[11] + y[13] + y[17] + y[51] + y[53] + y[54] + y[55]
   + y[59] + y[63] + y[68] + y[79] + y[95] + y[99] - z[4601] >= 0
 R4602: y[21] + y[84] + y[85] + y[98] - z[4602] >= 0
 R4603: y[4] + y[10] + y[28] + y[30] + y[31] + y[32] + y[33] + y[43]
   + y[49] + y[78] + y[80] + y[81] + y[83] + y[89] - z[4603] >= 0
 R4604: y[16] + y[23] + y[24] + y[25] + y[37] + y[42] + y[71] + y[73]
   + y[76] - z[4604] >= 0
 R4605: y[2] + y[18] + y[20] + y[32] + y[35] + y[36] + y[39] + y[49]
   + y[56] + y[69] + y[78] + y[81] + y[83] + y[84] + y[85] + y[88] + y[96]
   - z[4605] >= 0
 R4606: y[6] + y[14] + y[48] + y[57] + y[86] + y[91] + y[92] - z[4606]
   >= 0
 R4607: y[0] + y[4] + y[15] + y[16] + y[27] + y[30] + y[70] + y[80] + y[82]
   + y[94] - z[4607] >= 0
 R4608: y[1] + y[14] + y[65] + y[98] - z[4608] >= 0
 R4609: y[0] + y[15] + y[16] + y[23] + y[24] + y[27] + y[41] + y[42]
   + y[71] + y[82] + y[94] - z[4609] >= 0
 R4610: y[12] + y[19] + y[26] + y[32] + y[38] + y[44] + y[47] + y[49]
   + y[56] + y[67] + y[69] + y[78] + y[81] + y[83] + y[87] - z[4610] >= 0
 R4611: y[18] + y[19] + y[26] + y[32] + y[38] + y[44] + y[47] + y[49]
   + y[56] + y[67] + y[69] + y[78] + y[81] + y[83] + y[85] + y[87] + y[93]
   - z[4611] >= 0
 R4612: y[5] + y[7] + y[9] + y[11] + y[13] + y[17] + y[51] + y[53] + y[64]
   + y[68] + y[95] - z[4612] >= 0
 R4613: y[1] + y[14] + y[65] - z[4613] >= 0
 R4614: y[0] + y[15] + y[70] + y[82] + y[94] - z[4614] >= 0
 R4615: y[8] + y[12] + y[19] + y[22] + y[26] + y[38] + y[44] + y[45]
   + y[46] + y[47] + y[61] + y[67] + y[70] + y[87] - z[4615] >= 0
 R4616: y[3] + y[40] + y[48] + y[54] + y[55] + y[60] + y[72] + y[79]
   + y[86] + y[99] - z[4616] >= 0
 R4617: y[18] + y[19] + y[21] + y[29] + y[44] + y[50] + y[56] + y[69]
   + y[74] + y[75] + y[84] + y[85] + y[90] + y[93] - z[4617] >= 0
 R4618: y[0] + y[4] + y[10] + y[15] + y[27] + y[28] + y[30] + y[31] + y[33]
   + y[43] + y[80] + y[82] + y[89] + y[94] - z[4618] >= 0
 R4619: y[18] + y[19] + y[21] + y[29] + y[44] + y[50] + y[56] + y[62]
   + y[69] + y[74] + y[75] + y[84] + y[85] + y[90] + y[93] - z[4619] >= 0
 R4620: y[2] + y[20] + y[31] + y[32] + y[35] + y[36] + y[49] + y[72]
   + y[78] + y[79] + y[81] + y[83] + y[88] + y[89] + y[96] - z[4620] >= 0
 R4621: y[18] + y[19] + y[21] + y[29] + y[44] + y[50] + y[52] + y[62]
   + y[69] + y[74] + y[75] + y[84] + y[85] + y[90] + y[93] - z[4621] >= 0
 R4622: y[4] + y[12] + y[19] + y[26] + y[38] + y[44] + y[45] + y[46]
   + y[47] + y[67] + y[70] + y[78] + y[87] - z[4622] >= 0
 R4623: y[2] + y[4] + y[10] + y[28] + y[31] + y[32] + y[33] + y[43] + y[49]
   + y[55] + y[78] + y[79] + y[81] + y[88] + y[89] + y[96] - z[4623] >= 0
 R4624: y[5] + y[7] + y[9] + y[11] + y[13] + y[17] + y[25] + y[37] + y[51]
   + y[53] + y[55] + y[59] + y[63] + y[68] + y[76] + y[95] - z[4624] >= 0
 R4625: y[2] + y[6] + y[20] + y[35] + y[36] + y[39] + y[48] + y[57] + y[72]
   + y[86] + y[88] + y[91] + y[92] + y[96] + y[98] - z[4625] >= 0
 R4626: y[18] + y[21] + y[29] + y[44] + y[50] + y[62] + y[69] + y[74]
   + y[75] + y[84] + y[85] + y[90] + y[93] - z[4626] >= 0
 R4627: y[11] + y[17] + y[64] + y[66] + y[77] + y[97] - z[4627] >= 0
 R4628: y[24] + y[41] + y[71] - z[4628] >= 0
 R4629: y[18] + y[19] + y[21] + y[29] + y[44] + y[50] + y[56] + y[69]
   + y[74] + y[75] + y[84] + y[85] + y[90] + y[93] - z[4629] >= 0
 R4630: y[7] + y[16] + y[23] + y[25] + y[33] + y[37] + y[42] + y[51]
   + y[53] + y[59] + y[63] + y[68] + y[73] + y[76] + y[80] + y[95]
   - z[4630] >= 0
 R4631: y[2] + y[31] + y[32] + y[35] + y[36] + y[49] + y[56] + y[78]
   + y[81] + y[83] + y[88] + y[89] + y[96] - z[4631] >= 0
 R4632: y[4] + y[10] + y[27] + y[28] + y[30] + y[31] + y[33] + y[43]
   + y[55] + y[59] + y[63] + y[80] + y[89] + y[94] - z[4632] >= 0
 R4633: y[21] + y[36] + y[39] + y[84] + y[98] - z[4633] >= 0
 R4634: y[1] + y[6] + y[14] + y[20] + y[36] + y[39] + y[57] + y[88] + y[91]
   + y[92] + y[98] - z[4634] >= 0
 R4635: y[16] + y[23] + y[24] + y[25] + y[37] + y[42] + y[71] + y[73]
   + y[76] - z[4635] >= 0
 R4636: y[3] + y[40] + y[48] + y[54] + y[60] + y[77] + y[86] + y[99]
   - z[4636] >= 0
 R4637: y[6] + y[48] + y[86] + y[91] + y[92] - z[4637] >= 0
 R4638: y[0] + y[16] + y[24] + y[27] + y[41] + y[71] + y[82] - z[4638]
   >= 0
 R4639: y[4] + y[10] + y[12] + y[15] + y[26] + y[30] + y[38] + y[47]
   + y[49] + y[67] + y[70] + y[78] + y[82] + y[83] + y[89] - z[4639] >= 0
 R4640: y[12] + y[18] + y[19] + y[26] + y[38] + y[44] + y[45] + y[46]
   + y[47] + y[56] + y[58] + y[62] + y[67] + y[69] + y[74] + y[75] + y[87]
   + y[90] + y[93] - z[4640] >= 0
 R4641: y[5] + y[7] + y[9] + y[13] + y[17] + y[25] + y[37] + y[51] + y[53]
   + y[59] + y[68] + y[76] + y[95] - z[4641] >= 0
 R4642: y[8] + y[12] + y[19] + y[22] + y[26] + y[38] + y[45] + y[46]
   + y[47] + y[58] + y[61] + y[67] + y[70] + y[87] - z[4642] >= 0
 R4643: y[2] + y[31] + y[32] + y[35] + y[36] + y[49] + y[72] + y[78]
   + y[79] + y[81] + y[83] + y[88] + y[89] + y[96] - z[4643] >= 0
 R4644: y[16] + y[23] + y[25] + y[27] + y[28] + y[33] + y[37] + y[42]
   + y[43] + y[59] + y[63] + y[73] + y[76] + y[80] + y[95] - z[4644] >= 0
 R4645: y[18] + y[21] + y[29] + y[50] + y[52] + y[62] + y[74] + y[75]
   + y[84] + y[90] + y[93] - z[4645] >= 0
 R4646: y[21] + y[36] + y[39] + y[84] + y[85] + y[98] - z[4646] >= 0
 R4647: y[18] + y[19] + y[26] + y[29] + y[34] + y[38] + y[44] + y[50]
   + y[52] + y[58] + y[62] + y[69] + y[74] + y[75] + y[90] + y[93]
   - z[4647] >= 0
 R4648: y[5] + y[7] + y[9] + y[11] + y[13] + y[17] + y[51] + y[53] + y[64]
   + y[68] + y[95] + y[97] - z[4648] >= 0
 R4649: y[1] + y[6] + y[14] + y[20] + y[36] + y[39] + y[57] + y[65] + y[91]
   + y[92] + y[98] - z[4649] >= 0
 R4650: y[6] + y[20] + y[48] + y[57] + y[72] + y[86] + y[88] + y[91]
   + y[92] + y[96] - z[4650] >= 0
 R4651: y[41] - z[4651] >= 0
 R4652: y[1] + y[6] + y[20] + y[35] + y[36] + y[39] + y[57] + y[88] + y[91]
   + y[92] + y[96] + y[98] - z[4652] >= 0
 R4653: y[1] + y[14] + y[65] - z[4653] >= 0
 R4654: y[18] + y[21] + y[36] + y[39] + y[50] + y[56] + y[69] + y[84]
   + y[85] + y[93] - z[4654] >= 0
 R4655: y[7] + y[9] + y[13] + y[25] + y[33] + y[37] + y[51] + y[53] + y[55]
   + y[59] + y[63] + y[68] + y[95] - z[4655] >= 0
 R4656: y[12] + y[18] + y[19] + y[26] + y[38] + y[44] + y[45] + y[46]
   + y[47] + y[49] + y[50] + y[56] + y[58] + y[62] + y[67] + y[69] + y[74]
   + y[75] + y[78] + y[83] + y[85] + y[87] + y[90] + y[93] - z[4656] >= 0
 R4657: y[0] + y[15] + y[16] + y[23] + y[24] + y[25] + y[27] + y[28]
   + y[30] + y[33] + y[37] + y[42] + y[43] + y[63] + y[71] + y[73] + y[80]
   + y[82] + y[94] - z[4657] >= 0
 R4658: y[3] + y[40] + y[54] + y[55] + y[60] + y[72] + y[79] + y[86]
   + y[99] - z[4658] >= 0
 R4659: y[18] + y[21] + y[36] + y[39] + y[50] + y[69] + y[84] + y[85]
   + y[93] + y[98] - z[4659] >= 0
 R4660: y[3] + y[9] + y[11] + y[17] + y[40] + y[54] + y[60] + y[64] + y[66]
   + y[77] + y[97] + y[99] - z[4660] >= 0
 R4661: y[8] + y[19] + y[22] + y[26] + y[29] + y[34] + y[38] + y[44]
   + y[45] + y[46] + y[52] + y[58] + y[62] + y[74] + y[75] + y[87] + y[90]
   - z[4661] >= 0
 R4662: y[2] + y[31] + y[32] + y[55] + y[60] + y[72] + y[79] + y[88]
   + y[89] + y[96] + y[99] - z[4662] >= 0
 R4663: y[4] + y[10] + y[28] + y[30] + y[31] + y[33] + y[43] + y[55]
   + y[59] + y[63] + y[79] + y[80] + y[89] - z[4663] >= 0
 R4664: y[0] + y[12] + y[15] + y[38] + y[45] + y[46] + y[47] + y[61]
   + y[67] + y[70] + y[82] + y[87] + y[94] - z[4664] >= 0
 R4665: y[0] + y[15] + y[82] + y[94] - z[4665] >= 0
 R4666: y[18] + y[21] + y[50] + y[69] + y[84] + y[85] + y[93] - z[4666]
   >= 0
 R4667: y[5] + y[7] + y[9] + y[11] + y[13] + y[17] + y[51] + y[53] + y[64]
   + y[68] + y[95] + y[97] - z[4667] >= 0
 R4668: y[0] + y[15] + y[41] + y[82] - z[4668] >= 0
 R4669: y[8] + y[12] + y[19] + y[22] + y[26] + y[38] + y[44] + y[45]
   + y[46] + y[47] + y[58] + y[61] + y[67] + y[70] + y[74] + y[75] + y[87]
   - z[4669] >= 0
 R4670: y[6] + y[40] + y[48] + y[57] + y[60] + y[72] + y[86] + y[91]
   + y[92] - z[4670] >= 0
 R4671: y[12] + y[18] + y[19] + y[26] + y[38] + y[44] + y[45] + y[46]
   + y[47] + y[49] + y[50] + y[56] + y[58] + y[67] + y[69] + y[74] + y[75]
   + y[78] + y[83] + y[85] + y[87] + y[90] + y[93] - z[4671] >= 0
 R4672: y[3] + y[9] + y[11] + y[17] + y[54] + y[64] + y[66] + y[77] + y[97]
   - z[4672] >= 0
 R4673: y[2] + y[10] + y[31] + y[32] + y[35] + y[49] + y[56] + y[78]
   + y[81] + y[83] + y[88] + y[89] + y[96] - z[4673] >= 0
 R4674: y[2] + y[18] + y[19] + y[32] + y[35] + y[36] + y[44] + y[49]
   + y[56] + y[69] + y[78] + y[81] + y[83] + y[84] + y[85] + y[88] + y[93]
   - z[4674] >= 0
 R4675: y[11] + y[17] + y[64] + y[66] + y[77] + y[97] - z[4675] >= 0
 R4676: y[3] + y[40] + y[48] + y[54] + y[60] + y[72] + y[77] + y[79]
   + y[86] + y[99] - z[4676] >= 0
 R4677: y[5] + y[9] + y[11] + y[13] + y[17] + y[51] + y[64] + y[66] + y[68]
   + y[77] + y[97] - z[4677] >= 0
 R4678: y[4] + y[10] + y[26] + y[28] + y[30] + y[31] + y[32] + y[43]
   + y[47] + y[49] + y[56] + y[67] + y[78] + y[81] + y[83] + y[89]
   - z[4678] >= 0
 R4679: y[3] + y[40] + y[54] + y[60] + y[66] + y[77] - z[4679] >= 0
 R4680: y[2] + y[35] + y[40] + y[48] + y[55] + y[60] + y[72] + y[79]
   + y[86] + y[88] + y[96] + y[99] - z[4680] >= 0
 R4681: y[7] + y[23] + y[25] + y[37] + y[42] + y[51] + y[53] + y[59]
   + y[63] + y[68] + y[73] + y[76] + y[95] - z[4681] >= 0
 R4682: y[0] + y[15] + y[16] + y[24] + y[27] + y[41] + y[71] + y[82]
   - z[4682] >= 0
 R4683: y[4] + y[10] + y[16] + y[23] + y[25] + y[27] + y[28] + y[30]
   + y[33] + y[37] + y[42] + y[43] + y[59] + y[63] + y[76] + y[80] + y[94]
   - z[4683] >= 0
 R4684: y[3] + y[9] + y[11] + y[17] + y[54] + y[64] + y[66] + y[77] + y[97]
   - z[4684] >= 0
 R4685: y[2] + y[20] + y[32] + y[35] + y[48] + y[57] + y[72] + y[79]
   + y[86] + y[88] + y[96] + y[99] - z[4685] >= 0
 R4686: y[18] + y[19] + y[26] + y[29] + y[38] + y[44] + y[47] + y[50]
   + y[56] + y[58] + y[62] + y[67] + y[69] + y[74] + y[75] + y[85] + y[87]
   + y[90] + y[93] - z[4686] >= 0
 R4687: y[1] + y[14] + y[65] + y[98] - z[4687] >= 0
 R4688: y[7] + y[13] + y[23] + y[25] + y[28] + y[33] + y[37] + y[42]
   + y[43] + y[51] + y[53] + y[59] + y[63] + y[68] + y[76] + y[80] + y[95]
   - z[4688] >= 0
 R4689: y[3] + y[40] + y[48] + y[54] + y[60] + y[72] + y[77] + y[79]
   + y[86] + y[99] - z[4689] >= 0
 R4690: y[18] + y[21] + y[50] + y[69] + y[84] + y[85] + y[90] + y[93]
   - z[4690] >= 0
 R4691: y[18] + y[19] + y[21] + y[26] + y[29] + y[44] + y[49] + y[50]
   + y[56] + y[62] + y[69] + y[74] + y[75] + y[78] + y[83] + y[84] + y[85]
   + y[90] + y[93] - z[4691] >= 0
 R4692: y[3] + y[9] + y[11] + y[40] + y[54] + y[55] + y[60] + y[66] + y[77]
   + y[79] + y[99] - z[4692] >= 0
 R4693: y[3] + y[9] + y[11] + y[13] + y[17] + y[40] + y[54] + y[60] + y[64]
   + y[66] + y[68] + y[77] + y[97] + y[99] - z[4693] >= 0
 R4694: y[7] + y[9] + y[13] + y[25] + y[28] + y[33] + y[37] + y[43] + y[51]
   + y[53] + y[55] + y[59] + y[63] + y[68] + y[76] + y[95] - z[4694] >= 0
 R4695: y[1] + y[20] + y[35] + y[36] + y[39] + y[57] + y[98] - z[4695]
   >= 0
 R4696: y[3] + y[9] + y[11] + y[17] + y[40] + y[54] + y[60] + y[64] + y[66]
   + y[77] + y[97] + y[99] - z[4696] >= 0
 R4697: y[16] + y[23] + y[25] + y[27] + y[28] + y[30] + y[33] + y[37]
   + y[42] + y[43] + y[59] + y[63] + y[73] + y[76] + y[80] + y[94]
   - z[4697] >= 0
 R4698: y[18] + y[21] + y[29] + y[50] + y[69] + y[84] + y[85] + y[90]
   + y[93] - z[4698] >= 0
 R4699: y[8] + y[19] + y[26] + y[29] + y[34] + y[38] + y[44] + y[45]
   + y[50] + y[52] + y[58] + y[62] + y[74] + y[75] + y[87] + y[90]
   - z[4699] >= 0
 R4700: y[0] + y[4] + y[10] + y[15] + y[27] + y[28] + y[30] + y[31] + y[33]
   + y[43] + y[59] + y[63] + y[80] + y[82] + y[89] + y[94] - z[4700] >= 0
 R4701: y[8] + y[19] + y[22] + y[26] + y[29] + y[34] + y[38] + y[45]
   + y[46] + y[52] + y[58] + y[62] + y[74] + y[75] + y[87] + y[90]
   - z[4701] >= 0
 R4702: y[2] + y[6] + y[20] + y[35] + y[36] + y[39] + y[48] + y[57] + y[72]
   + y[86] + y[88] + y[91] + y[92] + y[96] - z[4702] >= 0
 R4703: y[1] + y[14] + y[65] + y[98] - z[4703] >= 0
 R4704: y[0] + y[4] + y[10] + y[15] + y[16] + y[23] + y[27] + y[28] + y[30]
   + y[31] + y[33] + y[43] + y[59] + y[63] + y[80] + y[82] + y[89] + y[94]
   - z[4704] >= 0
 R4705: y[12] + y[18] + y[19] + y[26] + y[38] + y[44] + y[45] + y[46]
   + y[47] + y[49] + y[56] + y[58] + y[67] + y[69] + y[74] + y[75] + y[78]
   + y[83] + y[85] + y[87] + y[90] + y[93] - z[4705] >= 0
 R4706: y[2] + y[18] + y[21] + y[35] + y[36] + y[39] + y[44] + y[49]
   + y[50] + y[56] + y[69] + y[83] + y[84] + y[85] + y[93] - z[4706] >= 0
 R4707: y[8] + y[12] + y[19] + y[22] + y[26] + y[38] + y[45] + y[46]
   + y[47] + y[61] + y[67] + y[70] + y[87] - z[4707] >= 0
 R4708: y[3] + y[9] + y[11] + y[13] + y[40] + y[54] + y[55] + y[60] + y[79]
   + y[99] - z[4708] >= 0
 R4709: y[5] + y[7] + y[13] + y[23] + y[25] + y[37] + y[42] + y[51] + y[53]
   + y[59] + y[68] + y[76] + y[95] - z[4709] >= 0
 R4710: y[3] + y[9] + y[11] + y[40] + y[54] + y[55] + y[60] + y[66] + y[77]
   + y[79] + y[99] - z[4710] >= 0
 R4711: y[7] + y[9] + y[10] + y[13] + y[28] + y[31] + y[33] + y[43] + y[53]
   + y[55] + y[59] + y[63] + y[68] - z[4711] >= 0
 R4712: y[2] + y[18] + y[19] + y[32] + y[35] + y[36] + y[44] + y[49]
   + y[50] + y[56] + y[69] + y[78] + y[81] + y[83] + y[84] + y[85] + y[93]
   - z[4712] >= 0
 R4713: y[1] + y[39] + y[98] - z[4713] >= 0
 R4714: y[1] + y[6] + y[14] + y[20] + y[36] + y[39] + y[57] + y[65] + y[92]
   + y[98] - z[4714] >= 0
 R4715: y[18] + y[19] + y[26] + y[29] + y[34] + y[38] + y[44] + y[50]
   + y[52] + y[58] + y[62] + y[74] + y[75] + y[90] + y[93] - z[4715] >= 0
 R4716: y[5] + y[7] + y[9] + y[11] + y[13] + y[17] + y[51] + y[53] + y[54]
   + y[55] + y[59] + y[68] + y[95] + y[99] - z[4716] >= 0
 R4717: y[3] + y[9] + y[11] + y[13] + y[17] + y[40] + y[54] + y[55] + y[60]
   + y[64] + y[66] + y[77] + y[97] + y[99] - z[4717] >= 0
 R4718: y[0] + y[4] + y[12] + y[15] + y[28] + y[30] + y[43] + y[47] + y[67]
   + y[70] + y[80] + y[82] + y[94] - z[4718] >= 0
 R4719: y[2] + y[6] + y[20] + y[35] + y[36] + y[39] + y[48] + y[57] + y[72]
   + y[86] + y[88] + y[91] + y[92] + y[96] + y[98] - z[4719] >= 0
 R4720: y[19] + y[26] + y[32] + y[44] + y[47] + y[49] + y[56] + y[67]
   + y[69] + y[78] + y[81] + y[83] + y[85] - z[4720] >= 0
 R4721: y[18] + y[21] + y[50] + y[84] + y[85] + y[93] - z[4721] >= 0
 R4722: y[2] + y[18] + y[20] + y[21] + y[35] + y[36] + y[39] + y[69]
   + y[84] + y[85] + y[98] - z[4722] >= 0
 R4723: y[8] + y[12] + y[19] + y[22] + y[26] + y[38] + y[44] + y[45]
   + y[46] + y[47] + y[58] + y[61] + y[67] + y[70] + y[74] + y[87]
   - z[4723] >= 0
 R4724: y[9] + y[10] + y[13] + y[31] + y[55] + y[59] + y[60] + y[63]
   + y[79] + y[89] + y[99] - z[4724] >= 0
 R4725: y[2] + y[20] + y[35] + y[36] + y[39] + y[57] + y[81] + y[88]
   + y[96] + y[98] - z[4725] >= 0
 R4726: y[3] + y[40] + y[48] + y[60] + y[86] + y[91] - z[4726] >= 0
 R4727: y[0] + y[15] + y[16] + y[23] + y[24] + y[27] + y[30] + y[41]
   + y[42] + y[71] + y[80] + y[82] + y[94] - z[4727] >= 0
 R4728: y[0] + y[4] + y[12] + y[15] + y[27] + y[30] + y[47] + y[67] + y[70]
   + y[80] + y[82] + y[94] - z[4728] >= 0
 R4729: y[18] + y[21] + y[29] + y[44] + y[50] + y[52] + y[62] + y[69]
   + y[74] + y[75] + y[84] + y[85] + y[90] + y[93] - z[4729] >= 0
 R4730: y[5] + y[7] + y[9] + y[11] + y[13] + y[17] + y[51] + y[53] + y[64]
   + y[68] + y[97] - z[4730] >= 0
 R4731: y[0] + y[4] + y[12] + y[15] + y[30] + y[38] + y[47] + y[67] + y[70]
   + y[82] + y[87] + y[94] - z[4731] >= 0
 R4732: y[40] + y[48] + y[55] + y[60] + y[72] + y[79] + y[86] + y[88]
   + y[96] + y[99] - z[4732] >= 0
 R4733: y[11] + y[17] + y[64] + y[66] + y[77] + y[97] - z[4733] >= 0
 R4734: y[1] + y[39] + y[98] - z[4734] >= 0
 R4735: y[2] + y[20] + y[32] + y[35] + y[36] + y[39] + y[49] + y[56]
   + y[57] + y[78] + y[81] + y[83] + y[88] + y[96] - z[4735] >= 0
 R4736: y[5] + y[7] + y[9] + y[11] + y[13] + y[17] + y[51] + y[53] + y[59]
   + y[64] + y[68] + y[95] - z[4736] >= 0
 R4737: y[11] + y[17] + y[64] + y[66] + y[77] + y[97] - z[4737] >= 0
 R4738: y[9] + y[11] + y[13] + y[40] + y[53] + y[54] + y[55] + y[59]
   + y[60] + y[68] + y[79] + y[99] - z[4738] >= 0
 R4739: y[5] + y[7] + y[9] + y[11] + y[13] + y[17] + y[25] + y[37] + y[51]
   + y[53] + y[55] + y[59] + y[63] + y[68] + y[76] + y[95] - z[4739] >= 0
 R4740: y[3] + y[40] + y[54] + y[60] + y[66] + y[77] + y[99] - z[4740]
   >= 0
 R4741: y[3] + y[9] + y[11] + y[13] + y[17] + y[40] + y[54] + y[55] + y[60]
   + y[66] + y[77] + y[99] - z[4741] >= 0
 R4742: y[18] + y[21] + y[36] + y[50] + y[56] + y[69] + y[84] + y[85]
   + y[90] + y[93] - z[4742] >= 0
 R4743: y[16] + y[23] + y[24] + y[25] + y[27] + y[37] + y[42] + y[71]
   + y[73] + y[76] - z[4743] >= 0
 R4744: y[8] + y[12] + y[22] + y[34] + y[38] + y[45] + y[46] + y[58]
   + y[61] + y[67] + y[70] + y[87] - z[4744] >= 0
 R4745: y[2] + y[20] + y[32] + y[35] + y[36] + y[39] + y[48] + y[57]
   + y[72] + y[79] + y[81] + y[86] + y[88] + y[96] - z[4745] >= 0
 R4746: y[8] + y[22] + y[34] + y[38] + y[45] + y[46] + y[52] + y[58]
   + y[62] + y[74] + y[75] + y[87] - z[4746] >= 0
 R4747: y[18] + y[19] + y[21] + y[29] + y[44] + y[50] + y[52] + y[62]
   + y[69] + y[74] + y[75] + y[84] + y[85] + y[90] + y[93] - z[4747] >= 0
 R4748: y[1] + y[6] + y[14] + y[57] + y[65] + y[91] + y[92] - z[4748] >= 0
 R4749: y[3] + y[9] + y[11] + y[13] + y[17] + y[40] + y[54] + y[55] + y[60]
   + y[68] + y[77] + y[79] + y[99] - z[4749] >= 0
 R4750: y[6] + y[14] + y[48] + y[57] + y[86] + y[91] + y[92] - z[4750]
   >= 0
 R4751: y[3] + y[40] + y[54] + y[55] + y[60] + y[72] + y[79] + y[86]
   + y[99] - z[4751] >= 0
 R4752: y[2] + y[18] + y[19] + y[32] + y[35] + y[44] + y[49] + y[56]
   + y[69] + y[78] + y[81] + y[83] + y[85] + y[93] - z[4752] >= 0
 R4753: y[1] + y[6] + y[14] + y[57] + y[65] + y[91] + y[92] - z[4753] >= 0
 R4754: y[3] + y[9] + y[11] + y[17] + y[54] + y[64] + y[66] + y[77] + y[97]
   - z[4754] >= 0
 R4755: y[2] + y[4] + y[10] + y[31] + y[32] + y[35] + y[49] + y[56] + y[78]
   + y[81] + y[83] + y[88] + y[89] + y[96] - z[4755] >= 0
 R4756: y[1] + y[6] + y[14] + y[20] + y[36] + y[39] + y[57] + y[65] + y[91]
   + y[92] + y[98] - z[4756] >= 0
 R4757: y[9] + y[13] + y[40] + y[54] + y[55] + y[60] + y[79] + y[99]
   - z[4757] >= 0
 R4758: y[0] + y[4] + y[10] + y[15] + y[16] + y[27] + y[28] + y[30] + y[31]
   + y[33] + y[43] + y[59] + y[63] + y[80] + y[82] + y[89] + y[94]
   - z[4758] >= 0
 R4759: y[1] + y[14] + y[65] - z[4759] >= 0
 R4760: y[10] + y[28] + y[31] + y[33] + y[43] + y[55] + y[79] + y[89]
   + y[99] - z[4760] >= 0
 R4761: y[8] + y[12] + y[19] + y[22] + y[26] + y[38] + y[44] + y[45]
   + y[46] + y[47] + y[58] + y[61] + y[67] + y[70] + y[74] + y[75] + y[87]
   - z[4761] >= 0
 R4762: y[2] + y[20] + y[32] + y[35] + y[36] + y[39] + y[49] + y[56]
   + y[78] + y[81] + y[83] + y[88] + y[96] - z[4762] >= 0
 R4763: y[2] + y[4] + y[10] + y[28] + y[30] + y[31] + y[32] + y[43] + y[49]
   + y[56] + y[78] + y[81] + y[83] + y[89] - z[4763] >= 0
 R4764: y[40] + y[48] + y[60] + y[72] + y[79] + y[86] + y[88] + y[91]
   + y[96] + y[99] - z[4764] >= 0
 R4765: y[0] + y[15] + y[16] + y[23] + y[24] + y[27] + y[30] + y[41]
   + y[42] + y[71] + y[80] + y[82] + y[94] - z[4765] >= 0
 R4766: y[2] + y[20] + y[32] + y[35] + y[36] + y[39] + y[49] + y[56]
   + y[57] + y[69] + y[78] + y[81] + y[83] + y[84] + y[85] + y[88] + y[96]
   + y[98] - z[4766] >= 0
 R4767: y[7] + y[23] + y[24] + y[25] + y[37] + y[42] + y[59] + y[71]
   + y[73] + y[76] + y[95] - z[4767] >= 0
 R4768: y[5] + y[7] + y[9] + y[11] + y[13] + y[17] + y[51] + y[53] + y[64]
   + y[68] + y[95] + y[97] - z[4768] >= 0
 R4769: y[0] + y[4] + y[15] + y[27] + y[30] + y[47] + y[70] + y[80] + y[82]
   + y[94] - z[4769] >= 0
 R4770: y[6] + y[14] + y[20] + y[48] + y[57] + y[86] + y[91] + y[92]
   - z[4770] >= 0
 R4771: y[2] + y[32] + y[35] + y[36] + y[39] + y[49] + y[56] + y[69]
   + y[78] + y[81] + y[83] + y[85] + y[88] + y[96] - z[4771] >= 0
 R4772: y[8] + y[12] + y[22] + y[34] + y[38] + y[45] + y[46] + y[58]
   + y[61] + y[62] + y[74] + y[75] + y[87] - z[4772] >= 0
 R4773: y[0] + y[15] + y[16] + y[27] + y[41] + y[82] + y[94] - z[4773]
   >= 0
 R4774: y[0] + y[4] + y[15] + y[27] + y[28] + y[30] + y[47] + y[67] + y[70]
   + y[80] + y[82] + y[94] - z[4774] >= 0
 R4775: y[5] + y[7] + y[9] + y[11] + y[13] + y[17] + y[51] + y[53] + y[64]
   + y[68] + y[77] + y[97] - z[4775] >= 0
 R4776: y[1] + y[20] + y[35] + y[36] + y[39] + y[57] + y[88] + y[92]
   + y[98] - z[4776] >= 0
 R4777: y[7] + y[23] + y[25] + y[37] + y[42] + y[51] + y[53] + y[59]
   + y[73] + y[76] + y[95] - z[4777] >= 0
 R4778: y[10] + y[13] + y[28] + y[31] + y[33] + y[43] + y[55] + y[59]
   + y[63] + y[80] + y[89] - z[4778] >= 0
 R4779: y[1] + y[14] + y[20] + y[36] + y[39] + y[57] + y[65] + y[92]
   + y[98] - z[4779] >= 0
 R4780: y[0] + y[15] + y[27] + y[41] + y[82] + y[94] - z[4780] >= 0
 R4781: y[29] + y[34] + y[52] + y[58] + y[62] + y[74] + y[75] - z[4781]
   >= 0
 R4782: y[6] + y[14] + y[48] + y[57] + y[86] + y[91] + y[92] - z[4782]
   >= 0
 R4783: y[40] + y[48] + y[55] + y[60] + y[72] + y[79] + y[86] + y[88]
   + y[96] + y[99] - z[4783] >= 0
 R4784: y[1] + y[6] + y[14] + y[20] + y[39] + y[48] + y[57] + y[65] + y[86]
   + y[91] + y[92] + y[98] - z[4784] >= 0
 R4785: y[18] + y[21] + y[50] + y[56] + y[69] + y[84] + y[85] + y[90]
   + y[93] - z[4785] >= 0
 R4786: y[2] + y[20] + y[21] + y[35] + y[36] + y[39] + y[56] + y[84]
   + y[85] + y[88] + y[98] - z[4786] >= 0
 R4787: y[21] + y[84] + y[98] - z[4787] >= 0
 R4788: y[8] + y[12] + y[19] + y[22] + y[26] + y[38] + y[44] + y[45]
   + y[46] + y[47] + y[58] + y[61] + y[67] + y[70] + y[87] - z[4788] >= 0
 R4789: y[8] + y[12] + y[22] + y[26] + y[34] + y[38] + y[45] + y[46]
   + y[47] + y[58] + y[61] + y[67] + y[70] + y[87] - z[4789] >= 0
 R4790: y[40] + y[54] + y[55] + y[60] + y[72] + y[79] + y[86] + y[99]
   - z[4790] >= 0
 R4791: y[18] + y[19] + y[26] + y[29] + y[34] + y[38] + y[44] + y[50]
   + y[52] + y[58] + y[62] + y[69] + y[74] + y[75] + y[85] + y[90] + y[93]
   - z[4791] >= 0
 R4792: y[3] + y[40] + y[48] + y[54] + y[60] + y[72] + y[79] + y[86]
   + y[99] - z[4792] >= 0
 R4793: y[2] + y[20] + y[35] + y[36] + y[39] + y[48] + y[57] + y[72]
   + y[86] + y[88] + y[91] + y[92] + y[96] - z[4793] >= 0
 R4794: y[4] + y[10] + y[28] + y[31] + y[33] + y[43] + y[55] + y[59]
   + y[63] + y[79] + y[89] + y[99] - z[4794] >= 0
 R4795: y[2] + y[31] + y[32] + y[35] + y[48] + y[55] + y[60] + y[72]
   + y[79] + y[86] + y[88] + y[96] + y[99] - z[4795] >= 0
 R4796: y[2] + y[18] + y[32] + y[35] + y[36] + y[44] + y[49] + y[56]
   + y[69] + y[78] + y[81] + y[83] + y[85] + y[88] + y[96] - z[4796] >= 0
 R4797: y[18] + y[19] + y[26] + y[32] + y[44] + y[49] + y[50] + y[56]
   + y[69] + y[74] + y[75] + y[78] + y[81] + y[83] + y[84] + y[85] + y[90]
   + y[93] - z[4797] >= 0
 R4798: y[0] + y[4] + y[12] + y[15] + y[30] + y[38] + y[47] + y[67] + y[70]
   + y[82] + y[87] + y[94] - z[4798] >= 0
 R4799: y[16] + y[23] + y[24] + y[25] + y[27] + y[37] + y[41] + y[42]
   + y[71] + y[73] - z[4799] >= 0
 R4800: y[3] + y[11] + y[17] + y[64] + y[66] + y[77] + y[97] - z[4800]
   >= 0
 R4801: y[6] + y[20] + y[48] + y[57] + y[86] + y[91] + y[92] - z[4801]
   >= 0
 R4802: y[2] + y[20] + y[32] + y[35] + y[36] + y[39] + y[48] + y[57]
   + y[72] + y[79] + y[81] + y[86] + y[88] + y[96] - z[4802] >= 0
 R4803: y[4] + y[12] + y[15] + y[26] + y[30] + y[38] + y[45] + y[46]
   + y[47] + y[67] + y[70] + y[82] + y[87] - z[4803] >= 0
 R4804: y[18] + y[19] + y[26] + y[29] + y[34] + y[38] + y[44] + y[50]
   + y[52] + y[58] + y[62] + y[69] + y[74] + y[75] + y[90] + y[93]
   - z[4804] >= 0
 R4805: y[0] + y[4] + y[15] + y[16] + y[23] + y[27] + y[28] + y[30] + y[33]
   + y[42] + y[43] + y[71] + y[80] + y[82] + y[94] - z[4805] >= 0
 R4806: y[29] + y[34] + y[52] + y[58] + y[62] + y[74] + y[75] + y[90]
   - z[4806] >= 0
 R4807: y[4] + y[10] + y[28] + y[30] + y[31] + y[32] + y[33] + y[43]
   + y[47] + y[49] + y[78] + y[80] + y[81] + y[83] + y[89] + y[94]
   - z[4807] >= 0
 R4808: y[29] + y[34] + y[50] + y[52] + y[58] + y[62] + y[74] + y[75]
   + y[90] - z[4808] >= 0
 R4809: y[16] + y[23] + y[24] + y[25] + y[27] + y[37] + y[42] + y[63]
   + y[71] + y[73] + y[76] + y[80] + y[94] - z[4809] >= 0
 R4810: y[2] + y[20] + y[32] + y[35] + y[36] + y[39] + y[49] + y[56]
   + y[57] + y[78] + y[81] + y[83] + y[88] + y[96] - z[4810] >= 0
 R4811: y[18] + y[21] + y[29] + y[50] + y[62] + y[69] + y[74] + y[75]
   + y[84] + y[85] + y[90] + y[93] - z[4811] >= 0
 R4812: y[5] + y[7] + y[9] + y[11] + y[13] + y[17] + y[51] + y[53] + y[59]
   + y[64] + y[68] + y[95] - z[4812] >= 0
 R4813: y[2] + y[20] + y[32] + y[35] + y[36] + y[39] + y[49] + y[56]
   + y[69] + y[78] + y[81] + y[83] + y[84] + y[85] + y[88] + y[96]
   - z[4813] >= 0
 R4814: y[1] + y[14] + y[39] + y[65] + y[98] - z[4814] >= 0
 R4815: y[8] + y[22] + y[34] + y[38] + y[45] + y[46] + y[52] + y[58]
   + y[61] + y[62] + y[74] + y[75] + y[87] - z[4815] >= 0
 R4816: y[2] + y[18] + y[21] + y[35] + y[36] + y[39] + y[44] + y[49]
   + y[50] + y[56] + y[69] + y[78] + y[81] + y[83] + y[84] + y[85] + y[93]
   - z[4816] >= 0
 R4817: y[18] + y[21] + y[29] + y[50] + y[69] + y[84] + y[85] + y[90]
   + y[93] - z[4817] >= 0
 R4818: y[7] + y[16] + y[23] + y[25] + y[28] + y[33] + y[37] + y[42]
   + y[43] + y[51] + y[53] + y[59] + y[63] + y[68] + y[73] + y[76] + y[80]
   + y[95] - z[4818] >= 0
 R4819: y[8] + y[12] + y[22] + y[38] + y[45] + y[46] + y[58] + y[61]
   + y[67] + y[70] + y[87] - z[4819] >= 0
 R4820: y[6] + y[20] + y[39] + y[48] + y[57] + y[72] + y[86] + y[88]
   + y[91] + y[92] + y[96] - z[4820] >= 0
 R4821: y[9] + y[10] + y[13] + y[28] + y[31] + y[33] + y[43] + y[53]
   + y[55] + y[59] + y[63] + y[68] + y[79] + y[99] - z[4821] >= 0
 R4822: y[1] + y[20] + y[36] + y[39] + y[57] + y[98] - z[4822] >= 0
 R4823: y[1] + y[14] + y[65] + y[98] - z[4823] >= 0
 R4824: y[8] + y[22] + y[29] + y[34] + y[52] + y[58] + y[62] + y[74]
   + y[75] - z[4824] >= 0
 R4825: y[5] + y[7] + y[9] + y[13] + y[25] + y[33] + y[37] + y[51] + y[53]
   + y[59] + y[63] + y[68] + y[76] + y[95] - z[4825] >= 0
 R4826: y[8] + y[12] + y[19] + y[22] + y[26] + y[38] + y[45] + y[46]
   + y[47] + y[58] + y[61] + y[67] + y[70] + y[74] + y[75] + y[87]
   - z[4826] >= 0
 R4827: y[1] + y[14] + y[20] + y[36] + y[39] + y[57] + y[65] + y[98]
   - z[4827] >= 0
 R4828: y[2] + y[20] + y[35] + y[36] + y[39] + y[57] + y[84] + y[88]
   + y[98] - z[4828] >= 0
 R4829: y[3] + y[9] + y[40] + y[54] + y[55] + y[60] + y[72] + y[79] + y[99]
   - z[4829] >= 0
 R4830: y[0] + y[4] + y[12] + y[15] + y[30] + y[45] + y[46] + y[47] + y[67]
   + y[70] + y[82] + y[87] + y[94] - z[4830] >= 0
 R4831: y[18] + y[19] + y[26] + y[29] + y[38] + y[44] + y[47] + y[50]
   + y[56] + y[58] + y[62] + y[67] + y[69] + y[74] + y[75] + y[85] + y[87]
   + y[90] + y[93] - z[4831] >= 0
 R4832: y[2] + y[6] + y[20] + y[35] + y[36] + y[39] + y[48] + y[57] + y[72]
   + y[86] + y[88] + y[91] + y[92] + y[96] - z[4832] >= 0
 R4833: y[6] + y[20] + y[35] + y[36] + y[39] + y[48] + y[57] + y[72]
   + y[86] + y[88] + y[91] + y[92] + y[96] - z[4833] >= 0
 R4834: y[0] + y[15] + y[16] + y[23] + y[24] + y[27] + y[28] + y[30]
   + y[41] + y[42] + y[71] + y[80] + y[82] + y[94] - z[4834] >= 0
 R4835: y[1] + y[6] + y[14] + y[20] + y[39] + y[57] + y[65] + y[91] + y[92]
   + y[98] - z[4835] >= 0
 R4836: y[24] + y[41] + y[71] - z[4836] >= 0
 R4837: y[3] + y[40] + y[48] + y[60] + y[86] - z[4837] >= 0
 R4838: y[18] + y[19] + y[21] + y[44] + y[49] + y[50] + y[56] + y[69]
   + y[74] + y[75] + y[78] + y[81] + y[83] + y[84] + y[85] + y[90] + y[93]
   - z[4838] >= 0
 R4839: y[2] + y[20] + y[35] + y[36] + y[39] + y[57] + y[88] + y[96]
   + y[98] - z[4839] >= 0
 R4840: y[3] + y[40] + y[48] + y[60] + y[72] + y[86] + y[91] - z[4840]
   >= 0
 R4841: y[0] + y[15] + y[16] + y[24] + y[27] + y[41] + y[71] + y[82]
   + y[94] - z[4841] >= 0
 R4842: y[16] + y[24] + y[41] + y[71] - z[4842] >= 0
 R4843: y[1] + y[14] + y[65] + y[98] - z[4843] >= 0
 R4844: y[18] + y[19] + y[26] + y[38] + y[44] + y[47] + y[49] + y[50]
   + y[56] + y[62] + y[67] + y[69] + y[74] + y[75] + y[78] + y[83] + y[85]
   + y[87] + y[90] + y[93] - z[4844] >= 0
 R4845: y[8] + y[12] + y[19] + y[22] + y[26] + y[38] + y[44] + y[45]
   + y[46] + y[47] + y[61] + y[67] + y[70] + y[87] - z[4845] >= 0
 R4846: y[4] + y[10] + y[28] + y[30] + y[31] + y[32] + y[33] + y[43]
   + y[78] + y[80] + y[81] + y[82] + y[89] + y[94] - z[4846] >= 0
 R4847: y[0] + y[12] + y[15] + y[45] + y[46] + y[47] + y[61] + y[67]
   + y[70] + y[82] + y[87] - z[4847] >= 0
 R4848: y[0] + y[16] + y[24] + y[41] + y[71] - z[4848] >= 0
 R4849: y[18] + y[19] + y[21] + y[29] + y[44] + y[50] + y[56] + y[62]
   + y[69] + y[74] + y[75] + y[84] + y[85] + y[90] + y[93] - z[4849] >= 0
 R4850: y[9] + y[13] + y[40] + y[54] + y[55] + y[59] + y[60] + y[63]
   + y[68] + y[79] + y[99] - z[4850] >= 0
 R4851: y[0] + y[4] + y[10] + y[16] + y[23] + y[25] + y[27] + y[28] + y[30]
   + y[33] + y[37] + y[42] + y[43] + y[59] + y[63] + y[73] + y[76] + y[80]
   + y[82] + y[94] - z[4851] >= 0
 R4852: y[2] + y[20] + y[35] + y[36] + y[39] + y[57] + y[72] + y[81]
   + y[88] + y[96] + y[98] - z[4852] >= 0
 R4853: y[4] + y[10] + y[28] + y[30] + y[31] + y[33] + y[43] + y[55]
   + y[59] + y[63] + y[79] + y[80] + y[89] - z[4853] >= 0
 R4854: y[16] + y[23] + y[24] + y[41] + y[42] + y[71] + y[73] - z[4854]
   >= 0
 R4855: y[7] + y[9] + y[13] + y[23] + y[25] + y[33] + y[37] + y[42] + y[51]
   + y[53] + y[55] + y[59] + y[63] + y[68] + y[76] + y[95] - z[4855] >= 0
 R4856: y[16] + y[23] + y[24] + y[25] + y[27] + y[37] + y[42] + y[59]
   + y[63] + y[71] + y[73] + y[76] + y[80] - z[4856] >= 0
 R4857: y[8] + y[12] + y[19] + y[22] + y[26] + y[38] + y[44] + y[45]
   + y[46] + y[47] + y[58] + y[61] + y[67] + y[70] + y[74] + y[75] + y[87]
   - z[4857] >= 0
 R4858: y[2] + y[10] + y[31] + y[32] + y[55] + y[72] + y[79] + y[88]
   + y[89] + y[96] + y[99] - z[4858] >= 0
 R4859: y[29] + y[50] + y[52] + y[62] + y[74] + y[75] + y[90] - z[4859]
   >= 0
 R4860: y[21] + y[36] + y[39] + y[84] + y[98] - z[4860] >= 0
 R4861: y[0] + y[4] + y[10] + y[15] + y[27] + y[28] + y[30] + y[31] + y[33]
   + y[43] + y[80] + y[82] + y[89] + y[94] - z[4861] >= 0
 R4862: y[1] + y[14] + y[65] + y[98] - z[4862] >= 0
 R4863: y[0] + y[12] + y[15] + y[46] + y[47] + y[61] + y[67] + y[70]
   + y[82] + y[94] - z[4863] >= 0
 R4864: y[18] + y[19] + y[21] + y[29] + y[44] + y[50] + y[52] + y[62]
   + y[69] + y[74] + y[75] + y[84] + y[85] + y[90] + y[93] - z[4864] >= 0
 R4865: y[0] + y[4] + y[12] + y[15] + y[30] + y[47] + y[67] + y[70] + y[80]
   + y[82] + y[94] - z[4865] >= 0
 R4866: y[36] + y[39] + y[98] - z[4866] >= 0
 R4867: y[2] + y[20] + y[32] + y[35] + y[36] + y[39] + y[48] + y[57]
   + y[72] + y[79] + y[81] + y[86] + y[88] + y[96] - z[4867] >= 0
 R4868: y[3] + y[40] + y[54] + y[60] + y[66] + y[77] + y[99] - z[4868]
   >= 0
 R4869: y[16] + y[23] + y[25] + y[27] + y[28] + y[30] + y[33] + y[37]
   + y[42] + y[43] + y[59] + y[63] + y[73] + y[76] + y[80] + y[94]
   - z[4869] >= 0
 R4870: y[16] + y[23] + y[24] + y[25] + y[27] + y[37] + y[42] + y[63]
   + y[71] + y[73] + y[76] - z[4870] >= 0
 R4871: y[29] + y[34] + y[50] + y[52] + y[58] + y[62] + y[74] + y[75]
   + y[90] - z[4871] >= 0
 R4872: y[2] + y[20] + y[32] + y[35] + y[36] + y[39] + y[49] + y[57]
   + y[72] + y[81] + y[88] + y[96] - z[4872] >= 0
 R4873: y[0] + y[15] + y[16] + y[27] + y[30] + y[80] + y[82] + y[94]
   - z[4873] >= 0
 R4874: y[0] + y[4] + y[10] + y[15] + y[16] + y[23] + y[27] + y[28] + y[30]
   + y[33] + y[42] + y[43] + y[63] + y[80] + y[82] + y[94] - z[4874] >= 0
 R4875: y[0] + y[4] + y[15] + y[27] + y[30] + y[70] + y[80] + y[82] + y[94]
   - z[4875] >= 0
 R4876: y[1] + y[14] + y[20] + y[36] + y[39] + y[57] + y[65] + y[98]
   - z[4876] >= 0
 R4877: y[40] + y[48] + y[60] + y[72] + y[86] + y[91] + y[92] - z[4877]
   >= 0
 R4878: y[6] + y[48] + y[72] + y[86] + y[91] + y[92] - z[4878] >= 0
 R4879: y[5] + y[7] + y[23] + y[25] + y[37] + y[42] + y[51] + y[53] + y[59]
   + y[68] + y[73] + y[76] + y[95] - z[4879] >= 0
 R4880: y[4] + y[10] + y[25] + y[27] + y[28] + y[30] + y[31] + y[33]
   + y[37] + y[43] + y[55] + y[59] + y[63] + y[80] + y[89] - z[4880] >= 0
 R4881: y[12] + y[18] + y[19] + y[26] + y[38] + y[44] + y[45] + y[46]
   + y[47] + y[50] + y[56] + y[58] + y[62] + y[67] + y[69] + y[74] + y[75]
   + y[85] + y[87] + y[90] + y[93] - z[4881] >= 0
 R4882: y[0] + y[16] + y[23] + y[24] + y[25] + y[27] + y[28] + y[30]
   + y[33] + y[37] + y[42] + y[59] + y[63] + y[71] + y[73] + y[76] + y[80]
   + y[94] - z[4882] >= 0
 R4883: y[18] + y[21] + y[50] + y[69] + y[84] + y[85] + y[93] - z[4883]
   >= 0
 R4884: y[0] + y[15] + y[27] + y[41] + y[82] + y[94] - z[4884] >= 0
 R4885: y[18] + y[19] + y[21] + y[29] + y[44] + y[50] + y[62] + y[69]
   + y[74] + y[75] + y[84] + y[85] + y[90] + y[93] - z[4885] >= 0
 R4886: y[3] + y[40] + y[48] + y[54] + y[60] + y[72] + y[79] + y[86]
   + y[99] - z[4886] >= 0
 R4887: y[8] + y[12] + y[15] + y[22] + y[26] + y[38] + y[45] + y[46]
   + y[47] + y[61] + y[67] + y[70] + y[87] - z[4887] >= 0
 R4888: y[40] + y[48] + y[60] + y[72] + y[79] + y[86] + y[91] + y[96]
   + y[99] - z[4888] >= 0
 R4889: y[3] + y[9] + y[11] + y[13] + y[17] + y[40] + y[54] + y[55] + y[60]
   + y[68] + y[77] + y[79] + y[99] - z[4889] >= 0
 R4890: y[5] + y[7] + y[9] + y[11] + y[13] + y[17] + y[25] + y[37] + y[51]
   + y[53] + y[55] + y[59] + y[63] + y[68] + y[76] + y[95] - z[4890] >= 0
 R4891: y[29] + y[34] + y[52] + y[58] + y[62] + y[74] + y[75] - z[4891]
   >= 0
 R4892: y[4] + y[10] + y[28] + y[30] + y[31] + y[33] + y[43] + y[59]
   + y[63] + y[80] + y[89] + y[94] - z[4892] >= 0
 R4893: y[1] + y[6] + y[14] + y[65] - z[4893] >= 0
 R4894: y[3] + y[40] + y[48] + y[54] + y[60] + y[77] + y[86] + y[99]
   - z[4894] >= 0
 R4895: y[2] + y[31] + y[32] + y[55] + y[60] + y[72] + y[79] + y[88]
   + y[89] + y[96] + y[99] - z[4895] >= 0
 R4896: y[0] + y[4] + y[15] + y[27] + y[28] + y[30] + y[43] + y[47] + y[67]
   + y[70] + y[80] + y[82] + y[94] - z[4896] >= 0
 R4897: y[18] + y[21] + y[35] + y[36] + y[39] + y[69] + y[84] + y[85]
   + y[98] - z[4897] >= 0
 R4898: y[20] + y[40] + y[48] + y[57] + y[60] + y[72] + y[79] + y[86]
   + y[88] + y[91] + y[92] + y[96] + y[99] - z[4898] >= 0
 R4899: y[5] + y[7] + y[9] + y[11] + y[13] + y[17] + y[51] + y[53] + y[64]
   + y[68] + y[97] - z[4899] >= 0
 R4900: y[1] + y[6] + y[14] + y[65] + y[92] - z[4900] >= 0
 R4901: y[0] + y[16] + y[23] + y[24] + y[25] + y[27] + y[28] + y[30]
   + y[33] + y[37] + y[42] + y[63] + y[71] + y[73] + y[76] + y[80] + y[82]
   + y[94] - z[4901] >= 0
 R4902: y[2] + y[20] + y[35] + y[36] + y[39] + y[57] + y[88] + y[96]
   + y[98] - z[4902] >= 0
 R4903: y[0] + y[4] + y[10] + y[15] + y[27] + y[28] + y[30] + y[31] + y[33]
   + y[43] + y[47] + y[67] + y[70] + y[80] + y[82] + y[89] + y[94]
   - z[4903] >= 0
 R4904: y[2] + y[31] + y[40] + y[48] + y[55] + y[60] + y[72] + y[79]
   + y[86] + y[88] + y[96] + y[99] - z[4904] >= 0
 R4905: y[5] + y[7] + y[9] + y[13] + y[17] + y[25] + y[37] + y[51] + y[53]
   + y[59] + y[63] + y[68] + y[76] + y[95] - z[4905] >= 0
 R4906: y[3] + y[40] + y[54] + y[60] + y[66] + y[77] - z[4906] >= 0
 R4907: y[2] + y[20] + y[32] + y[35] + y[36] + y[39] + y[57] + y[72]
   + y[79] + y[81] + y[86] + y[88] + y[96] - z[4907] >= 0
 R4908: y[4] + y[10] + y[28] + y[31] + y[32] + y[33] + y[43] + y[55]
   + y[79] + y[81] + y[89] + y[96] - z[4908] >= 0
 R4909: y[6] + y[20] + y[48] + y[57] + y[72] + y[86] + y[88] + y[91]
   + y[92] + y[96] - z[4909] >= 0
 R4910: y[0] + y[12] + y[15] + y[22] + y[38] + y[45] + y[46] + y[47]
   + y[61] + y[67] + y[70] + y[82] + y[87] - z[4910] >= 0
 R4911: y[3] + y[40] + y[48] + y[60] + y[72] + y[86] + y[91] + y[99]
   - z[4911] >= 0
 R4912: y[0] + y[4] + y[10] + y[15] + y[16] + y[27] + y[28] + y[30] + y[31]
   + y[33] + y[43] + y[59] + y[63] + y[80] + y[82] + y[89] + y[94]
   - z[4912] >= 0
 R4913: y[3] + y[40] + y[48] + y[54] + y[60] + y[72] + y[79] + y[86]
   + y[99] - z[4913] >= 0
 R4914: y[7] + y[13] + y[23] + y[25] + y[28] + y[33] + y[37] + y[42]
   + y[43] + y[51] + y[53] + y[59] + y[63] + y[68] + y[76] + y[80] + y[95]
   - z[4914] >= 0
 R4915: y[8] + y[12] + y[22] + y[26] + y[34] + y[38] + y[45] + y[46]
   + y[47] + y[58] + y[61] + y[67] + y[70] + y[87] - z[4915] >= 0
 R4916: y[3] + y[40] + y[48] + y[54] + y[60] + y[72] + y[79] + y[86]
   + y[99] - z[4916] >= 0
 R4917: y[0] + y[4] + y[15] + y[27] + y[28] + y[30] + y[33] + y[43] + y[70]
   + y[80] + y[82] + y[94] - z[4917] >= 0
 R4918: y[40] + y[48] + y[60] + y[72] + y[79] + y[86] + y[88] + y[96]
   + y[99] - z[4918] >= 0
 R4919: y[6] + y[40] + y[48] + y[60] + y[72] + y[86] + y[91] + y[92]
   - z[4919] >= 0
 R4920: y[2] + y[10] + y[31] + y[32] + y[55] + y[72] + y[79] + y[81]
   + y[88] + y[89] + y[96] - z[4920] >= 0
 R4921: y[20] + y[35] + y[40] + y[48] + y[57] + y[60] + y[72] + y[79]
   + y[86] + y[88] + y[91] + y[92] + y[96] + y[99] - z[4921] >= 0
 R4922: y[8] + y[12] + y[15] + y[19] + y[22] + y[26] + y[38] + y[45]
   + y[46] + y[47] + y[61] + y[67] + y[70] + y[87] - z[4922] >= 0
 R4923: y[3] + y[40] + y[48] + y[54] + y[60] + y[86] - z[4923] >= 0
 R4924: y[8] + y[12] + y[19] + y[22] + y[26] + y[34] + y[38] + y[45]
   + y[46] + y[58] + y[61] + y[67] + y[74] + y[75] + y[87] - z[4924] >= 0
 R4925: y[18] + y[19] + y[26] + y[29] + y[34] + y[38] + y[44] + y[50]
   + y[52] + y[58] + y[62] + y[69] + y[74] + y[75] + y[85] + y[90] + y[93]
   - z[4925] >= 0
 R4926: y[0] + y[16] + y[23] + y[24] + y[25] + y[27] + y[28] + y[30]
   + y[33] + y[37] + y[42] + y[43] + y[59] + y[63] + y[71] + y[73] + y[76]
   + y[80] + y[82] + y[94] - z[4926] >= 0
 R4927: y[7] + y[23] + y[25] + y[33] + y[37] + y[42] + y[51] + y[53]
   + y[59] + y[63] + y[68] + y[73] + y[76] + y[95] - z[4927] >= 0
 R4928: y[2] + y[20] + y[32] + y[35] + y[36] + y[39] + y[49] + y[56]
   + y[69] + y[78] + y[81] + y[83] + y[85] + y[88] + y[96] - z[4928] >= 0
 R4929: y[3] + y[11] + y[40] + y[54] + y[60] + y[66] + y[77] + y[79]
   + y[99] - z[4929] >= 0
 R4930: y[41] - z[4930] >= 0
 R4931: y[18] + y[21] + y[50] + y[69] + y[84] + y[85] + y[93] - z[4931]
   >= 0
 R4932: y[18] + y[19] + y[26] + y[29] + y[44] + y[50] + y[52] + y[56]
   + y[62] + y[69] + y[74] + y[75] + y[84] + y[85] + y[90] + y[93]
   - z[4932] >= 0
 R4933: y[18] + y[19] + y[26] + y[38] + y[44] + y[47] + y[49] + y[50]
   + y[56] + y[69] + y[74] + y[75] + y[78] + y[81] + y[83] + y[84] + y[85]
   + y[90] + y[93] - z[4933] >= 0
 R4934: y[16] + y[23] + y[24] + y[25] + y[27] + y[37] + y[41] + y[42]
   + y[71] + y[73] + y[76] - z[4934] >= 0
 R4935: y[10] + y[13] + y[28] + y[31] + y[33] + y[43] + y[55] + y[59]
   + y[63] + y[79] + y[80] + y[89] - z[4935] >= 0
 R4936: y[1] + y[6] + y[14] + y[20] + y[39] + y[57] + y[65] + y[91] + y[92]
   + y[98] - z[4936] >= 0
 R4937: y[4] + y[10] + y[16] + y[27] + y[28] + y[30] + y[31] + y[33]
   + y[43] + y[59] + y[63] + y[80] + y[82] + y[89] + y[94] - z[4937] >= 0
 R4938: y[5] + y[7] + y[9] + y[11] + y[13] + y[17] + y[51] + y[53] + y[64]
   + y[68] + y[95] + y[97] - z[4938] >= 0
 R4939: y[3] + y[40] + y[54] + y[55] + y[60] + y[72] + y[79] + y[86]
   + y[99] - z[4939] >= 0
 R4940: y[18] + y[19] + y[26] + y[29] + y[38] + y[44] + y[45] + y[47]
   + y[50] + y[58] + y[62] + y[67] + y[69] + y[74] + y[75] + y[85] + y[87]
   + y[90] + y[93] - z[4940] >= 0
 R4941: y[1] + y[14] + y[65] - z[4941] >= 0
 R4942: y[8] + y[12] + y[22] + y[26] + y[38] + y[45] + y[46] + y[47]
   + y[61] + y[67] + y[70] + y[87] - z[4942] >= 0
 R4943: y[0] + y[4] + y[10] + y[15] + y[27] + y[28] + y[30] + y[43] + y[47]
   + y[67] + y[70] + y[80] + y[82] + y[94] - z[4943] >= 0
 R4944: y[2] + y[6] + y[20] + y[35] + y[36] + y[39] + y[48] + y[57] + y[72]
   + y[86] + y[88] + y[91] + y[92] + y[96] - z[4944] >= 0
 R4945: y[5] + y[7] + y[9] + y[11] + y[13] + y[17] + y[51] + y[53] + y[55]
   + y[59] + y[64] + y[68] + y[95] - z[4945] >= 0
 R4946: y[8] + y[12] + y[22] + y[34] + y[38] + y[45] + y[46] + y[58]
   + y[61] + y[62] + y[74] + y[75] + y[87] - z[4946] >= 0
 R4947: y[5] + y[7] + y[9] + y[13] + y[25] + y[37] + y[51] + y[53] + y[55]
   + y[59] + y[63] + y[68] + y[76] + y[95] - z[4947] >= 0
 R4948: y[3] + y[11] + y[40] + y[54] + y[60] + y[66] + y[77] + y[99]
   - z[4948] >= 0
 R4949: y[18] + y[21] + y[29] + y[44] + y[50] + y[62] + y[69] + y[74]
   + y[75] + y[84] + y[85] + y[90] + y[93] - z[4949] >= 0
 R4950: y[0] + y[15] + y[16] + y[23] + y[24] + y[27] + y[30] + y[41]
   + y[42] + y[71] + y[73] + y[80] + y[82] + y[94] - z[4950] >= 0
 R4951: y[34] + y[52] + y[58] + y[62] + y[74] + y[75] - z[4951] >= 0
 R4952: y[16] + y[23] + y[24] + y[27] + y[41] + y[42] + y[71] + y[73]
   - z[4952] >= 0
 R4953: y[0] + y[12] + y[15] + y[47] + y[67] + y[70] + y[82] + y[94]
   - z[4953] >= 0
 R4954: y[1] + y[14] + y[20] + y[39] + y[57] + y[65] + y[98] - z[4954]
   >= 0
 R4955: y[1] + y[20] + y[35] + y[36] + y[39] + y[57] + y[98] - z[4955]
   >= 0
 R4956: y[5] + y[9] + y[11] + y[13] + y[17] + y[51] + y[53] + y[64] + y[68]
   + y[97] - z[4956] >= 0
 R4957: y[2] + y[20] + y[32] + y[35] + y[36] + y[39] + y[49] + y[56]
   + y[78] + y[81] + y[83] + y[88] + y[96] - z[4957] >= 0
 R4958: y[29] + y[34] + y[52] + y[58] + y[62] + y[74] + y[75] + y[90]
   - z[4958] >= 0
 R4959: y[2] + y[18] + y[21] + y[35] + y[36] + y[39] + y[49] + y[56]
   + y[69] + y[81] + y[83] + y[84] + y[85] + y[93] + y[98] - z[4959] >= 0
 R4960: y[1] + y[6] + y[14] + y[57] + y[65] + y[91] + y[92] - z[4960] >= 0
 R4961: y[7] + y[9] + y[13] + y[25] + y[33] + y[37] + y[51] + y[53] + y[55]
   + y[59] + y[63] + y[68] + y[95] - z[4961] >= 0
 R4962: y[18] + y[21] + y[29] + y[50] + y[62] + y[69] + y[75] + y[84]
   + y[85] + y[90] + y[93] - z[4962] >= 0
 R4963: y[0] + y[15] + y[16] + y[23] + y[24] + y[25] + y[27] + y[28]
   + y[30] + y[33] + y[37] + y[42] + y[63] + y[71] + y[73] + y[80] + y[82]
   + y[94] - z[4963] >= 0
 R4964: y[0] + y[15] + y[16] + y[27] + y[41] + y[82] + y[94] - z[4964]
   >= 0
 R4965: y[2] + y[32] + y[35] + y[44] + y[49] + y[56] + y[69] + y[78]
   + y[81] + y[83] + y[85] + y[89] - z[4965] >= 0
 R4966: y[4] + y[10] + y[28] + y[31] + y[33] + y[43] + y[55] + y[59]
   + y[63] + y[79] + y[80] + y[89] - z[4966] >= 0
 R4967: y[4] + y[10] + y[28] + y[30] + y[31] + y[32] + y[33] + y[43]
   + y[49] + y[78] + y[80] + y[81] + y[83] + y[89] - z[4967] >= 0
 R4968: y[1] + y[6] + y[14] + y[20] + y[39] + y[48] + y[57] + y[72] + y[86]
   + y[91] + y[92] + y[98] - z[4968] >= 0
 R4969: y[2] + y[31] + y[32] + y[35] + y[55] + y[72] + y[79] + y[81]
   + y[88] + y[96] + y[99] - z[4969] >= 0
 R4970: y[2] + y[18] + y[19] + y[26] + y[32] + y[44] + y[47] + y[49]
   + y[56] + y[69] + y[78] + y[81] + y[83] + y[85] + y[93] - z[4970] >= 0
 R4971: y[31] + y[40] + y[54] + y[55] + y[60] + y[72] + y[79] + y[99]
   - z[4971] >= 0
 R4972: y[0] + y[41] - z[4972] >= 0
 R4973: y[0] + y[15] + y[16] + y[27] + y[41] + y[82] + y[94] - z[4973]
   >= 0
 R4974: y[16] + y[24] + y[41] + y[71] - z[4974] >= 0
 R4975: y[6] + y[48] + y[57] + y[72] + y[86] + y[91] + y[92] - z[4975]
   >= 0
 R4976: y[5] + y[9] + y[11] + y[17] + y[51] + y[64] + y[68] + y[97]
   - z[4976] >= 0
 R4977: y[3] + y[40] + y[48] + y[60] + y[72] + y[86] + y[91] - z[4977]
   >= 0
 R4978: y[5] + y[7] + y[9] + y[11] + y[13] + y[17] + y[51] + y[53] + y[54]
   + y[55] + y[59] + y[68] + y[95] + y[99] - z[4978] >= 0
 R4979: y[10] + y[25] + y[27] + y[28] + y[30] + y[31] + y[33] + y[37]
   + y[43] + y[55] + y[59] + y[63] + y[76] + y[80] + y[89] - z[4979] >= 0
 R4980: y[1] + y[6] + y[14] + y[20] + y[39] + y[57] + y[65] + y[91] + y[92]
   + y[98] - z[4980] >= 0
 R4981: y[29] + y[34] + y[50] + y[52] + y[58] + y[62] + y[74] + y[75]
   + y[90] - z[4981] >= 0
 R4982: y[4] + y[10] + y[15] + y[27] + y[28] + y[30] + y[31] + y[33]
   + y[43] + y[63] + y[80] + y[82] + y[89] + y[94] - z[4982] >= 0
 R4983: y[8] + y[12] + y[19] + y[22] + y[26] + y[38] + y[45] + y[46]
   + y[47] + y[61] + y[67] + y[70] + y[87] - z[4983] >= 0
 R4984: y[0] + y[15] + y[16] + y[27] + y[41] + y[82] + y[94] - z[4984]
   >= 0
 R4985: y[1] + y[6] + y[14] + y[20] + y[57] + y[65] + y[91] + y[92]
   - z[4985] >= 0
 R4986: y[0] + y[4] + y[12] + y[15] + y[30] + y[38] + y[45] + y[46] + y[47]
   + y[67] + y[70] + y[82] + y[87] + y[94] - z[4986] >= 0
 R4987: y[2] + y[20] + y[32] + y[35] + y[36] + y[39] + y[57] + y[72]
   + y[79] + y[81] + y[86] + y[88] + y[96] - z[4987] >= 0
 R4988: y[3] + y[9] + y[11] + y[13] + y[17] + y[40] + y[54] + y[60] + y[64]
   + y[66] + y[68] + y[77] + y[97] + y[99] - z[4988] >= 0
 R4989: y[18] + y[19] + y[26] + y[38] + y[44] + y[47] + y[49] + y[50]
   + y[56] + y[62] + y[69] + y[74] + y[75] + y[78] + y[83] + y[84] + y[85]
   + y[90] + y[93] - z[4989] >= 0
 R4990: y[18] + y[21] + y[29] + y[44] + y[50] + y[62] + y[69] + y[75]
   + y[84] + y[85] + y[90] + y[93] - z[4990] >= 0
 R4991: y[3] + y[11] + y[17] + y[40] + y[54] + y[60] + y[64] + y[66]
   + y[77] + y[97] - z[4991] >= 0
 R4992: y[7] + y[9] + y[11] + y[13] + y[17] + y[51] + y[53] + y[54] + y[55]
   + y[59] + y[60] + y[68] + y[79] + y[99] - z[4992] >= 0
 R4993: y[18] + y[21] + y[29] + y[44] + y[50] + y[56] + y[69] + y[84]
   + y[85] + y[90] + y[93] - z[4993] >= 0
 R4994: y[0] + y[12] + y[15] + y[30] + y[47] + y[67] + y[70] + y[82]
   + y[94] - z[4994] >= 0
 R4995: y[18] + y[19] + y[29] + y[34] + y[44] + y[50] + y[52] + y[58]
   + y[62] + y[69] + y[74] + y[75] + y[90] + y[93] - z[4995] >= 0
 R4996: y[5] + y[9] + y[11] + y[17] + y[51] + y[64] + y[68] + y[97]
   - z[4996] >= 0
 R4997: y[4] + y[10] + y[27] + y[28] + y[30] + y[31] + y[33] + y[43]
   + y[63] + y[80] + y[82] + y[89] + y[94] - z[4997] >= 0
 R4998: y[3] + y[11] + y[40] + y[54] + y[60] + y[64] + y[66] + y[77]
   + y[97] - z[4998] >= 0
 R4999: y[2] + y[4] + y[10] + y[31] + y[32] + y[35] + y[43] + y[49] + y[56]
   + y[78] + y[81] + y[83] + y[88] + y[89] + y[96] - z[4999] >= 0
 R5000: 6 z[0] + 79 z[1] + 38 z[2] + 32 z[3] + 2 z[4] + 15 z[5] + 91 z[6]
   + 62 z[7] + 41 z[8] + 78 z[9] + 91 z[10] + 63 z[11] + 53 z[12]
   + 61 z[13] + 84 z[14] + z[15] + 38 z[16] + 29 z[17] + 7 z[18] + 51 z[19]
   + 27 z[20] + 16 z[21] + 77 z[22] + 53 z[23] + 59 z[24] + 60 z[25]
   + 25 z[26] + 60 z[27] + 76 z[28] + 94 z[29] + 55 z[30] + 33 z[31]
   + 72 z[32] + 45 z[33] + 17 z[34] + 25 z[35] + 59 z[36] + 7 z[37]
   + 86 z[38] + 51 z[39] + 36 z[40] + 77 z[41] + 14 z[42] + 88 z[43]
   + 89 z[44] + 49 z[45] + 40 z[46] + 26 z[47] + 77 z[48] + 99 z[49]
   + 29 z[50] + 3 z[51] + 14 z[52] + 5 z[53] + 8 z[54] + 24 z[55]
   + 64 z[56] + 32 z[57] + 35 z[58] + 92 z[59] + 77 z[60] + 42 z[61]
   + 76 z[62] + 49 z[63] + 86 z[64] + 92 z[65] + 73 z[66] + 96 z[67]
   + 50 z[68] + 11 z[69] + 47 z[70] + 86 z[71] + 39 z[72] + 12 z[73]
   + 25 z[74] + 27 z[75] + 60 z[76] + 65 z[77] + 4 z[78] + 88 z[79]
   + 15 z[80] + 32 z[81] + 91 z[82] + 28 z[83] + 88 z[84] + 50 z[85]
   + 3 z[86] + 52 z[87] + 81 z[88] + 37 z[89] + 95 z[90] + 10 z[91]
   + 30 z[92] + 70 z[93] + 58 z[94] + 15 z[95] + 14 z[96] + 82 z[97]
   + 11 z[98] + 15 z[99] + 92 z[100] + 9 z[101] + 100 z[102] + 30 z[103]
   + 20 z[104] + 77 z[105] + 56 z[106] + 31 z[107] + 93 z[108] + 12 z[109]
   + 18 z[110] + 7 z[111] + 43 z[112] + 60 z[113] + 86 z[114] + 31 z[115]
   + 9 z[116] + 88 z[117] + 34 z[118] + 42 z[119] + 76 z[120] + 28 z[121]
   + 51 z[122] + 58 z[123] + 49 z[124] + 8 z[125] + 72 z[126] + 14 z[127]
   + 89 z[128] + 34 z[129] + 29 z[130] + 33 z[131] + 94 z[132] + 80 z[133]
   + 62 z[134] + 13 z[135] + 8 z[136] + 70 z[137] + 95 z[138] + 100 z[139]
   + 81 z[140] + 13 z[141] + 58 z[142] + 23 z[143] + 72 z[144] + 43 z[145]
   + 5 z[146] + 81 z[147] + 82 z[148] + 38 z[149] + 22 z[150] + 10 z[151]
   + 17 z[152] + 24 z[153] + 67 z[154] + 66 z[155] + 31 z[156] + 90 z[157]
   + 31 z[158] + 71 z[159] + 24 z[160] + 11 z[161] + 3 z[162] + 69 z[163]
   + 43 z[164] + 17 z[165] + 82 z[166] + 50 z[167] + 86 z[168] + 28 z[169]
   + 50 z[170] + 66 z[171] + 40 z[172] + 59 z[173] + 40 z[174] + 64 z[175]
   + 2 z[176] + 45 z[177] + 96 z[178] + 35 z[179] + 34 z[180] + 69 z[181]
   + 44 z[182] + 51 z[183] + 92 z[184] + 10 z[185] + 16 z[186] + 74 z[187]
   + 52 z[188] + 98 z[189] + 96 z[190] + 27 z[191] + 9 z[192] + 99 z[193]
   + 95 z[194] + 51 z[195] + 15 z[196] + 28 z[197] + 100 z[198] + 52 z[199]
   + 56 z[200] + z[201] + 69 z[202] + 47 z[203] + 60 z[204] + 8 z[205]
   + 62 z[206] + 13 z[207] + 4 z[208] + 57 z[209] + 47 z[210] + 38 z[211]
   + 77 z[212] + 43 z[213] + 88 z[214] + 20 z[215] + 4 z[216] + 55 z[217]
   + 93 z[218] + 55 z[219] + 52 z[220] + 89 z[221] + 81 z[222] + 60 z[223]
   + 39 z[224] + 76 z[225] + 10 z[226] + 5 z[227] + 55 z[228] + 62 z[229]
   + 56 z[230] + 10 z[231] + 14 z[232] + 24 z[233] + 57 z[234] + 73 z[235]
   + 83 z[236] + 70 z[237] + 85 z[238] + 87 z[239] + 27 z[240] + 84 z[241]
   + 76 z[242] + 55 z[243] + 26 z[244] + 63 z[245] + 75 z[246] + 29 z[247]
   + 69 z[248] + 67 z[249] + 84 z[250] + 20 z[251] + 7 z[252] + 16 z[253]
   + 32 z[254] + 45 z[255] + 43 z[256] + 41 z[257] + 49 z[258] + 98 z[259]
   + 54 z[260] + 56 z[261] + 59 z[262] + 68 z[263] + 31 z[264] + 15 z[265]
   + 92 z[266] + 14 z[267] + 85 z[268] + 77 z[269] + 52 z[270] + 63 z[271]
   + 12 z[272] + 27 z[273] + 69 z[274] + 37 z[275] + 41 z[276] + 43 z[277]
   + 17 z[278] + 9 z[279] + 62 z[280] + 52 z[281] + 28 z[282] + 68 z[283]
   + 20 z[284] + 11 z[285] + 65 z[286] + 62 z[287] + 52 z[288] + 65 z[289]
   + 11 z[290] + 57 z[291] + 21 z[292] + 70 z[293] + 24 z[294] + 51 z[295]
   + 84 z[296] + 16 z[297] + 16 z[298] + 20 z[299] + 44 z[300] + 67 z[301]
   + 34 z[302] + 7 z[303] + 45 z[304] + 3 z[305] + 95 z[306] + 85 z[307]
   + 97 z[308] + 11 z[309] + 45 z[310] + 58 z[311] + 15 z[312] + 25 z[313]
   + 78 z[314] + 34 z[315] + 35 z[316] + 42 z[317] + 95 z[318] + 38 z[319]
   + 6 z[320] + 6 z[321] + 95 z[322] + 26 z[323] + 75 z[324] + 70 z[325]
   + 29 z[326] + 10 z[327] + 37 z[328] + 44 z[329] + 82 z[330] + 80 z[331]
   + 63 z[332] + 67 z[333] + 38 z[334] + 7 z[335] + 21 z[336] + 32 z[337]
   + 44 z[338] + 18 z[339] + 43 z[340] + 88 z[341] + 75 z[342] + 9 z[343]
   + 64 z[344] + 52 z[345] + 42 z[346] + 99 z[347] + 45 z[348] + 88 z[349]
   + 36 z[350] + 51 z[351] + 93 z[352] + 82 z[353] + 28 z[354] + 19 z[355]
   + 52 z[356] + 8 z[357] + 81 z[358] + 88 z[359] + 52 z[360] + 14 z[361]
   + 20 z[362] + 66 z[363] + 80 z[364] + 57 z[365] + 72 z[366] + z[367]
   + 89 z[368] + 67 z[369] + 70 z[370] + 83 z[371] + 7 z[372] + 96 z[373]
   + 43 z[374] + 70 z[375] + 100 z[376] + 84 z[377] + 68 z[378] + 44 z[379]
   + 71 z[380] + 56 z[381] + 46 z[382] + 16 z[383] + 37 z[384] + 74 z[385]
   + 34 z[386] + 40 z[387] + 33 z[388] + 66 z[389] + 80 z[390] + 36 z[391]
   + 79 z[392] + 51 z[393] + z[394] + 11 z[395] + 7 z[396] + 25 z[397]
   + 11 z[398] + 47 z[399] + 91 z[400] + 32 z[401] + 81 z[402] + 97 z[403]
   + 27 z[404] + 23 z[405] + 67 z[406] + 26 z[407] + 58 z[408] + 86 z[409]
   + 70 z[410] + 29 z[411] + 93 z[412] + 67 z[413] + 96 z[414] + 30 z[415]
   + 40 z[416] + 81 z[417] + 21 z[418] + 25 z[419] + 47 z[420] + 52 z[421]
   + 60 z[422] + 77 z[423] + 2 z[424] + 61 z[425] + 87 z[426] + 61 z[427]
   + 37 z[428] + 49 z[429] + 7 z[430] + 27 z[431] + 80 z[432] + 40 z[433]
   + 76 z[434] + 7 z[435] + 14 z[436] + 94 z[437] + 32 z[438] + 24 z[439]
   + 79 z[440] + 53 z[441] + 4 z[442] + 72 z[443] + 20 z[444] + 99 z[445]
   + 53 z[446] + 11 z[447] + 79 z[448] + 25 z[449] + 35 z[450] + 77 z[451]
   + 77 z[452] + 95 z[453] + 54 z[454] + 78 z[455] + 7 z[456] + 40 z[457]
   + 38 z[458] + 43 z[459] + 41 z[460] + 97 z[461] + 21 z[462] + 20 z[463]
   + 88 z[464] + 96 z[465] + 26 z[466] + z[467] + 89 z[468] + 10 z[469]
   + 76 z[470] + 20 z[471] + 62 z[472] + 79 z[473] + 43 z[474] + 33 z[475]
   + 77 z[476] + 47 z[477] + 44 z[478] + 8 z[479] + 71 z[480] + 30 z[481]
   + 84 z[482] + 47 z[483] + 76 z[484] + 89 z[485] + 77 z[486] + 82 z[487]
   + 81 z[488] + 14 z[489] + 76 z[490] + 21 z[491] + 62 z[492] + 97 z[493]
   + 40 z[494] + 49 z[495] + 44 z[496] + 18 z[497] + 2 z[498] + 85 z[499]
   + 27 z[500] + 77 z[501] + 4 z[502] + 40 z[503] + 56 z[504] + 46 z[505]
   + 73 z[506] + 84 z[507] + 44 z[508] + 68 z[509] + 91 z[510] + 14 z[511]
   + 97 z[512] + 27 z[513] + 13 z[514] + 73 z[515] + 67 z[516] + 89 z[517]
   + 6 z[518] + 47 z[519] + 54 z[520] + 82 z[521] + 19 z[522] + 16 z[523]
   + 30 z[524] + 11 z[525] + 16 z[526] + 73 z[527] + 28 z[528] + 69 z[529]
   + 57 z[530] + 54 z[531] + 98 z[532] + 12 z[533] + 93 z[534] + 5 z[535]
   + 9 z[536] + 17 z[537] + 88 z[538] + 52 z[539] + 84 z[540] + 31 z[541]
   + 66 z[542] + 81 z[543] + 57 z[544] + 78 z[545] + 5 z[546] + 23 z[547]
   + 18 z[548] + 62 z[549] + 22 z[550] + 71 z[551] + 95 z[552] + 92 z[553]
   + 38 z[554] + 76 z[555] + 2 z[556] + 6 z[557] + 49 z[558] + 29 z[559]
   + 74 z[560] + 57 z[561] + 82 z[562] + 23 z[563] + 21 z[564] + 27 z[565]
   + 27 z[566] + 29 z[567] + 43 z[568] + 15 z[569] + 33 z[570] + 27 z[571]
   + 97 z[572] + 50 z[573] + 59 z[574] + 5 z[575] + 79 z[576] + 15 z[577]
   + 79 z[578] + 96 z[579] + 28 z[580] + 100 z[581] + 18 z[582] + 23 z[583]
   + 92 z[584] + 56 z[585] + 98 z[586] + 93 z[587] + 61 z[588] + 98 z[589]
   + 74 z[590] + 86 z[591] + 7 z[592] + 55 z[593] + 9 z[594] + 27 z[595]
   + 33 z[596] + 35 z[597] + 7 z[598] + 76 z[599] + z[600] + 39 z[601]
   + 54 z[602] + 49 z[603] + 88 z[604] + 64 z[605] + 53 z[606] + 66 z[607]
   + 30 z[608] + 32 z[609] + 13 z[610] + 57 z[611] + 83 z[612] + 31 z[613]
   + 79 z[614] + 26 z[615] + 86 z[616] + 29 z[617] + 19 z[618] + 98 z[619]
   + 78 z[620] + 44 z[621] + 83 z[622] + 84 z[623] + 98 z[624] + 91 z[625]
   + 62 z[626] + 83 z[627] + 78 z[628] + 69 z[629] + 58 z[630] + 30 z[631]
   + 59 z[632] + 63 z[633] + 79 z[634] + 99 z[635] + 78 z[636] + 31 z[637]
   + 16 z[638] + 7 z[639] + 62 z[640] + 29 z[641] + 63 z[642] + 97 z[643]
   + 59 z[644] + 94 z[645] + 22 z[646] + 44 z[647] + 22 z[648] + 92 z[649]
   + 93 z[650] + 51 z[651] + 35 z[652] + 75 z[653] + 35 z[654] + 85 z[655]
   + 18 z[656] + 48 z[657] + 67 z[658] + 47 z[659] + 68 z[660] + 76 z[661]
   + 76 z[662] + 27 z[663] + 38 z[664] + 6 z[665] + 25 z[666] + 15 z[667]
   + 37 z[668] + 40 z[669] + 73 z[670] + 50 z[671] + 20 z[672] + 35 z[673]
   + 46 z[674] + 78 z[675] + 28 z[676] + 68 z[677] + 73 z[678] + z[679]
   + 59 z[680] + 65 z[681] + 52 z[682] + 46 z[683] + 40 z[684] + 38 z[685]
   + 30 z[686] + 9 z[687] + 85 z[688] + 96 z[689] + 55 z[690] + 53 z[691]
   + 71 z[692] + 82 z[693] + 31 z[694] + 60 z[695] + 88 z[696] + 7 z[697]
   + 26 z[698] + 76 z[699] + 98 z[700] + 98 z[701] + 77 z[702] + 18 z[703]
   + 32 z[704] + 23 z[705] + 95 z[706] + 12 z[707] + 42 z[708] + 68 z[709]
   + 12 z[710] + 52 z[711] + 84 z[712] + 15 z[713] + 97 z[714] + 75 z[715]
   + 52 z[716] + 26 z[717] + 83 z[718] + 89 z[719] + 73 z[720] + 89 z[721]
   + 93 z[722] + 43 z[723] + 23 z[724] + 23 z[725] + 54 z[726] + 62 z[727]
   + 29 z[728] + 31 z[729] + 37 z[730] + 78 z[731] + 28 z[732] + 13 z[733]
   + 95 z[734] + 12 z[735] + 87 z[736] + 42 z[737] + 75 z[738] + 28 z[739]
   + 61 z[740] + 38 z[741] + 32 z[742] + 44 z[743] + 53 z[744] + 28 z[745]
   + 71 z[746] + 56 z[747] + 6 z[748] + 53 z[749] + 44 z[750] + 78 z[751]
   + 94 z[752] + 88 z[753] + 73 z[754] + 68 z[755] + 10 z[756] + 78 z[757]
   + 29 z[758] + 90 z[759] + 9 z[760] + 65 z[761] + 68 z[762] + 88 z[763]
   + 29 z[764] + 14 z[765] + 99 z[766] + 16 z[767] + 55 z[768] + 73 z[769]
   + 95 z[770] + 67 z[771] + 11 z[772] + 26 z[773] + 63 z[774] + 15 z[775]
   + 6 z[776] + 33 z[777] + 70 z[778] + 63 z[779] + 37 z[780] + 66 z[781]
   + 92 z[782] + 30 z[783] + 53 z[784] + 16 z[785] + 49 z[786] + 15 z[787]
   + 94 z[788] + 77 z[789] + 4 z[790] + 54 z[791] + 93 z[792] + 23 z[793]
   + 41 z[794] + 22 z[795] + 37 z[796] + 40 z[797] + 89 z[798] + 43 z[799]
   + 64 z[800] + 83 z[801] + 62 z[802] + 26 z[803] + 61 z[804] + 24 z[805]
   + 40 z[806] + 66 z[807] + 56 z[808] + 62 z[809] + 80 z[810] + 92 z[811]
   + 27 z[812] + 71 z[813] + 74 z[814] + 31 z[815] + 87 z[816] + 22 z[817]
   + 45 z[818] + 32 z[819] + 51 z[820] + z[821] + 85 z[822] + 43 z[823]
   + 75 z[824] + 25 z[825] + 16 z[826] + 63 z[827] + 16 z[828] + 4 z[829]
   + 58 z[830] + 80 z[831] + 87 z[832] + 19 z[833] + 5 z[834] + 47 z[835]
   + 42 z[836] + 97 z[837] + 64 z[838] + 97 z[839] + 58 z[840] + 43 z[841]
   + 40 z[842] + 36 z[843] + 65 z[844] + 65 z[845] + 18 z[846] + 51 z[847]
   + 87 z[848] + 15 z[849] + 34 z[850] + 89 z[851] + 67 z[852] + 18 z[853]
   + 31 z[854] + 41 z[855] + 95 z[856] + 47 z[857] + 4 z[858] + 10 z[859]
   + 2 z[860] + 61 z[861] + 41 z[862] + 88 z[863] + 79 z[864] + 98 z[865]
   + 86 z[866] + 72 z[867] + 94 z[868] + z[869] + 68 z[870] + 3 z[871]
   + 43 z[872] + 59 z[873] + 38 z[874] + 8 z[875] + 24 z[876] + 7 z[877]
   + 10 z[878] + 62 z[879] + 21 z[880] + 44 z[881] + 50 z[882] + 87 z[883]
   + 61 z[884] + 80 z[885] + 28 z[886] + 7 z[887] + 78 z[888] + 83 z[889]
   + 17 z[890] + 80 z[891] + 43 z[892] + 57 z[893] + 19 z[894] + 73 z[895]
   + 54 z[896] + 57 z[897] + 44 z[898] + 99 z[899] + 57 z[900] + 63 z[901]
   + z[902] + 52 z[903] + 21 z[904] + 90 z[905] + 59 z[906] + 44 z[907]
   + 97 z[908] + 20 z[909] + 5 z[910] + 17 z[911] + 63 z[912] + 6 z[913]
   + 56 z[914] + 76 z[915] + 86 z[916] + 83 z[917] + 82 z[918] + 15 z[919]
   + 65 z[920] + 98 z[921] + 46 z[922] + 59 z[923] + 7 z[924] + 17 z[925]
   + 31 z[926] + 12 z[927] + 73 z[928] + 74 z[929] + 11 z[930] + 81 z[931]
   + 36 z[932] + 63 z[933] + 32 z[934] + 8 z[935] + 53 z[936] + 90 z[937]
   + 4 z[938] + 49 z[939] + 10 z[940] + 60 z[941] + 17 z[942] + 24 z[943]
   + 66 z[944] + 72 z[945] + 99 z[946] + 51 z[947] + 6 z[948] + 33 z[949]
   + 17 z[950] + 22 z[951] + 82 z[952] + 15 z[953] + 80 z[954] + 40 z[955]
   + 31 z[956] + 62 z[957] + 52 z[958] + 55 z[959] + 35 z[960] + 14 z[961]
   + 35 z[962] + 22 z[963] + 76 z[964] + 67 z[965] + 82 z[966] + 28 z[967]
   + 8 z[968] + 85 z[969] + 28 z[970] + 69 z[971] + 44 z[972] + 45 z[973]
   + 45 z[974] + 9 z[975] + 68 z[976] + 95 z[977] + 11 z[978] + 74 z[979]
   + 27 z[980] + 80 z[981] + 95 z[982] + 61 z[983] + 94 z[984] + 75 z[985]
   + 100 z[986] + 24 z[987] + 36 z[988] + 51 z[989] + 78 z[990] + 23 z[991]
   + 64 z[992] + 64 z[993] + 96 z[994] + 40 z[995] + 82 z[996] + 77 z[997]
   + 19 z[998] + 42 z[999] + 13 z[1000] + 47 z[1001] + 10 z[1002]
   + 57 z[1003] + 43 z[1004] + 6 z[1005] + 65 z[1006] + 10 z[1007]
   + z[1008] + 28 z[1009] + 83 z[1010] + 27 z[1011] + 7 z[1012]
   + 30 z[1013] + 39 z[1014] + 100 z[1015] + 56 z[1016] + 39 z[1017]
   + 75 z[1018] + 43 z[1019] + 41 z[1020] + 4 z[1021] + 65 z[1022]
   + 5 z[1023] + 67 z[1024] + 13 z[1025] + 96 z[1026] + z[1027]
   + 41 z[1028] + 66 z[1029] + 42 z[1030] + 54 z[1031] + 12 z[1032]
   + 51 z[1033] + 10 z[1034] + 54 z[1035] + 57 z[1036] + 26 z[1037]
   + 16 z[1038] + 9 z[1039] + 53 z[1040] + 50 z[1041] + 87 z[1042]
   + 11 z[1043] + 79 z[1044] + 26 z[1045] + 10 z[1046] + 34 z[1047]
   + 64 z[1048] + 36 z[1049] + 77 z[1050] + 4 z[1051] + 39 z[1052]
   + 93 z[1053] + 60 z[1054] + 58 z[1055] + 5 z[1056] + 7 z[1057]
   + 58 z[1058] + 46 z[1059] + 73 z[1060] + 99 z[1061] + 99 z[1062]
   + 84 z[1063] + z[1064] + 60 z[1065] + 90 z[1066] + 57 z[1067]
   + 85 z[1068] + 57 z[1069] + 17 z[1070] + 90 z[1071] + 6 z[1072]
   + 4 z[1073] + 52 z[1074] + 85 z[1075] + 29 z[1076] + 14 z[1077]
   + 70 z[1078] + 44 z[1079] + 49 z[1080] + 98 z[1081] + 47 z[1082]
   + 88 z[1083] + 91 z[1084] + 59 z[1085] + 97 z[1086] + 47 z[1087]
   + 65 z[1088] + 54 z[1089] + 92 z[1090] + 37 z[1091] + 52 z[1092]
   + 42 z[1093] + 73 z[1094] + 52 z[1095] + z[1096] + 14 z[1097]
   + 61 z[1098] + 38 z[1099] + 70 z[1100] + 77 z[1101] + 79 z[1102]
   + 27 z[1103] + 80 z[1104] + 82 z[1105] + 63 z[1106] + 60 z[1107]
   + 95 z[1108] + 33 z[1109] + 3 z[1110] + 44 z[1111] + 30 z[1112]
   + 50 z[1113] + 83 z[1114] + 72 z[1115] + 60 z[1116] + 31 z[1117]
   + 19 z[1118] + 24 z[1119] + 84 z[1120] + 62 z[1121] + 61 z[1122]
   + 87 z[1123] + 4 z[1124] + 33 z[1125] + 38 z[1126] + 56 z[1127]
   + 46 z[1128] + 50 z[1129] + 45 z[1130] + 67 z[1131] + 79 z[1132]
   + 75 z[1133] + 93 z[1134] + 10 z[1135] + 57 z[1136] + 56 z[1137]
   + 70 z[1138] + 51 z[1139] + 40 z[1140] + 72 z[1141] + 46 z[1142]
   + 69 z[1143] + 73 z[1144] + 80 z[1145] + 41 z[1146] + 32 z[1147]
   + 10 z[1148] + 11 z[1149] + 8 z[1150] + 93 z[1151] + 72 z[1152]
   + 68 z[1153] + 79 z[1154] + 75 z[1155] + 52 z[1156] + 69 z[1157]
   + 83 z[1158] + 49 z[1159] + 70 z[1160] + 27 z[1161] + 15 z[1162]
   + 48 z[1163] + 2 z[1164] + 59 z[1165] + 58 z[1166] + 58 z[1167]
   + 14 z[1168] + 27 z[1169] + 60 z[1170] + 53 z[1171] + 50 z[1172]
   + 6 z[1173] + 74 z[1174] + 75 z[1175] + 85 z[1176] + 66 z[1177]
   + 58 z[1178] + 47 z[1179] + 76 z[1180] + 65 z[1181] + 91 z[1182]
   + 47 z[1183] + 32 z[1184] + 70 z[1185] + 74 z[1186] + 35 z[1187]
   + 90 z[1188] + 56 z[1189] + 83 z[1190] + 59 z[1191] + 82 z[1192]
   + 97 z[1193] + 7 z[1194] + 35 z[1195] + 56 z[1196] + 16 z[1197]
   + 44 z[1198] + 21 z[1199] + 42 z[1200] + 4 z[1201] + 74 z[1202]
   + 43 z[1203] + 9 z[1204] + 99 z[1205] + 69 z[1206] + 45 z[1207]
   + 64 z[1208] + 27 z[1209] + 43 z[1210] + 91 z[1211] + 43 z[1212]
   + 34 z[1213] + 37 z[1214] + 27 z[1215] + 55 z[1216] + 62 z[1217]
   + 61 z[1218] + 44 z[1219] + 17 z[1220] + 44 z[1221] + 54 z[1222]
   + 51 z[1223] + 92 z[1224] + 12 z[1225] + 85 z[1226] + 99 z[1227]
   + 27 z[1228] + 81 z[1229] + 20 z[1230] + 20 z[1231] + 84 z[1232]
   + 45 z[1233] + 63 z[1234] + 44 z[1235] + 43 z[1236] + 31 z[1237]
   + 40 z[1238] + 58 z[1239] + 9 z[1240] + 83 z[1241] + 48 z[1242]
   + 52 z[1243] + 16 z[1244] + 36 z[1245] + 78 z[1246] + 70 z[1247]
   + 98 z[1248] + 90 z[1249] + 65 z[1250] + 14 z[1251] + 33 z[1252]
   + 18 z[1253] + 16 z[1254] + 77 z[1255] + 30 z[1256] + 53 z[1257]
   + 75 z[1258] + 56 z[1259] + 33 z[1260] + 94 z[1261] + 28 z[1262]
   + 16 z[1263] + 90 z[1264] + 90 z[1265] + 11 z[1266] + 32 z[1267]
   + 72 z[1268] + 50 z[1269] + 41 z[1270] + 33 z[1271] + 32 z[1272]
   + 88 z[1273] + 36 z[1274] + 47 z[1275] + 76 z[1276] + 65 z[1277]
   + 16 z[1278] + 73 z[1279] + 54 z[1280] + 80 z[1281] + 38 z[1282]
   + 39 z[1283] + 50 z[1284] + 54 z[1285] + 15 z[1286] + 79 z[1287]
   + 6 z[1288] + 89 z[1289] + 86 z[1290] + 90 z[1291] + 35 z[1292]
   + 13 z[1293] + 5 z[1294] + 24 z[1295] + 54 z[1296] + 15 z[1297]
   + 8 z[1298] + 78 z[1299] + 16 z[1300] + 100 z[1301] + 62 z[1302]
   + 48 z[1303] + 88 z[1304] + 97 z[1305] + 94 z[1306] + 63 z[1307]
   + 61 z[1308] + 62 z[1309] + 87 z[1310] + 66 z[1311] + 93 z[1312]
   + 24 z[1313] + 4 z[1314] + 42 z[1315] + 29 z[1316] + 70 z[1317]
   + 72 z[1318] + 34 z[1319] + 11 z[1320] + 10 z[1321] + 23 z[1322]
   + 97 z[1323] + 74 z[1324] + 79 z[1325] + 72 z[1326] + 80 z[1327]
   + 45 z[1328] + 79 z[1329] + 9 z[1330] + 61 z[1331] + 79 z[1332]
   + 70 z[1333] + 60 z[1334] + 18 z[1335] + 66 z[1336] + 53 z[1337]
   + 32 z[1338] + 78 z[1339] + 66 z[1340] + 70 z[1341] + 95 z[1342]
   + 59 z[1343] + 93 z[1344] + 51 z[1345] + 52 z[1346] + 22 z[1347]
   + 20 z[1348] + 76 z[1349] + 7 z[1350] + 82 z[1351] + 37 z[1352]
   + 82 z[1353] + 78 z[1354] + 10 z[1355] + 12 z[1356] + 50 z[1357]
   + 41 z[1358] + 9 z[1359] + 80 z[1360] + 49 z[1361] + 21 z[1362]
   + 10 z[1363] + 18 z[1364] + 80 z[1365] + 27 z[1366] + 35 z[1367]
   + 32 z[1368] + 10 z[1369] + 12 z[1370] + 50 z[1371] + 79 z[1372]
   + 7 z[1373] + 8 z[1374] + 24 z[1375] + 9 z[1376] + 11 z[1377]
   + 97 z[1378] + 28 z[1379] + 38 z[1380] + 3 z[1381] + 62 z[1382]
   + 74 z[1383] + 36 z[1384] + 39 z[1385] + 84 z[1386] + 100 z[1387]
   + 88 z[1388] + 76 z[1389] + 8 z[1390] + 20 z[1391] + 25 z[1392]
   + 28 z[1393] + 29 z[1394] + 42 z[1395] + 7 z[1396] + 56 z[1397]
   + 77 z[1398] + 90 z[1399] + 17 z[1400] + 40 z[1401] + 39 z[1402]
   + 48 z[1403] + 98 z[1404] + 98 z[1405] + 71 z[1406] + 6 z[1407]
   + 9 z[1408] + 67 z[1409] + 86 z[1410] + 46 z[1411] + 21 z[1412]
   + 47 z[1413] + 72 z[1414] + 9 z[1415] + 85 z[1416] + 7 z[1417]
   + 8 z[1418] + 25 z[1419] + 82 z[1420] + 15 z[1421] + 44 z[1422]
   + 6 z[1423] + 94 z[1424] + 72 z[1425] + 100 z[1426] + 100 z[1427]
   + 79 z[1428] + 76 z[1429] + 89 z[1430] + 48 z[1431] + 67 z[1432]
   + 80 z[1433] + 95 z[1434] + 65 z[1435] + 77 z[1436] + 65 z[1437]
   + 22 z[1438] + 37 z[1439] + 83 z[1440] + 7 z[1441] + 35 z[1442]
   + 55 z[1443] + 5 z[1444] + 6 z[1445] + 63 z[1446] + 42 z[1447]
   + 12 z[1448] + 70 z[1449] + 66 z[1450] + 45 z[1451] + 36 z[1452]
   + 61 z[1453] + 51 z[1454] + 29 z[1455] + 84 z[1456] + 50 z[1457]
   + 80 z[1458] + 15 z[1459] + 77 z[1460] + 21 z[1461] + 62 z[1462]
   + 43 z[1463] + 100 z[1464] + 8 z[1465] + 59 z[1466] + 76 z[1467]
   + 72 z[1468] + 81 z[1469] + 65 z[1470] + 6 z[1471] + 39 z[1472]
   + 99 z[1473] + 60 z[1474] + 44 z[1475] + 56 z[1476] + 23 z[1477]
   + 85 z[1478] + 19 z[1479] + 44 z[1480] + 2 z[1481] + 63 z[1482]
   + 32 z[1483] + 14 z[1484] + 13 z[1485] + 60 z[1486] + 49 z[1487]
   + 14 z[1488] + 40 z[1489] + 63 z[1490] + 42 z[1491] + 60 z[1492]
   + 76 z[1493] + 37 z[1494] + 11 z[1495] + 83 z[1496] + 95 z[1497]
   + 38 z[1498] + 54 z[1499] + 27 z[1500] + 2 z[1501] + 11 z[1502]
   + 66 z[1503] + 100 z[1504] + 71 z[1505] + 61 z[1506] + 7 z[1507]
   + 45 z[1508] + 97 z[1509] + 25 z[1510] + 40 z[1511] + 50 z[1512]
   + 88 z[1513] + 71 z[1514] + 63 z[1515] + 52 z[1516] + 83 z[1517]
   + 11 z[1518] + 18 z[1519] + 22 z[1520] + 26 z[1521] + 59 z[1522]
   + 33 z[1523] + z[1524] + 95 z[1525] + 43 z[1526] + 84 z[1527]
   + 42 z[1528] + 32 z[1529] + 89 z[1530] + 68 z[1531] + 34 z[1532]
   + 100 z[1533] + 85 z[1534] + 85 z[1535] + 22 z[1536] + 45 z[1537]
   + 92 z[1538] + 18 z[1539] + 93 z[1540] + 16 z[1541] + 57 z[1542]
   + 42 z[1543] + 55 z[1544] + 80 z[1545] + 56 z[1546] + 7 z[1547]
   + 62 z[1548] + 67 z[1549] + 24 z[1550] + 35 z[1551] + 44 z[1552]
   + 34 z[1553] + 67 z[1554] + 44 z[1555] + 29 z[1556] + 61 z[1557]
   + 27 z[1558] + 70 z[1559] + 92 z[1560] + 16 z[1561] + 89 z[1562]
   + 77 z[1563] + 67 z[1564] + 74 z[1565] + 62 z[1566] + 40 z[1567]
   + 70 z[1568] + 53 z[1569] + 57 z[1570] + 63 z[1571] + 20 z[1572]
   + 65 z[1573] + 56 z[1574] + 75 z[1575] + 44 z[1576] + 12 z[1577]
   + 81 z[1578] + 57 z[1579] + 30 z[1580] + 56 z[1581] + 91 z[1582]
   + 73 z[1583] + 89 z[1584] + 9 z[1585] + 16 z[1586] + 69 z[1587]
   + 21 z[1588] + 95 z[1589] + 90 z[1590] + 65 z[1591] + 10 z[1592]
   + 31 z[1593] + 41 z[1594] + 28 z[1595] + 4 z[1596] + 2 z[1597]
   + 67 z[1598] + 25 z[1599] + 6 z[1600] + 23 z[1601] + 87 z[1602]
   + 26 z[1603] + 39 z[1604] + 43 z[1605] + 52 z[1606] + 83 z[1607]
   + 6 z[1608] + 84 z[1609] + 39 z[1610] + 35 z[1611] + 91 z[1612]
   + 82 z[1613] + 59 z[1614] + 31 z[1615] + 90 z[1616] + 74 z[1617]
   + 100 z[1618] + 11 z[1619] + 68 z[1620] + 41 z[1621] + 75 z[1622]
   + 29 z[1623] + 71 z[1624] + 67 z[1625] + 8 z[1626] + 26 z[1627]
   + 69 z[1628] + 74 z[1629] + 51 z[1630] + 26 z[1631] + 48 z[1632]
   + 89 z[1633] + 3 z[1634] + 87 z[1635] + 83 z[1636] + 54 z[1637]
   + 21 z[1638] + 88 z[1639] + 89 z[1640] + 11 z[1641] + 74 z[1642]
   + 79 z[1643] + 92 z[1644] + 32 z[1645] + 10 z[1646] + 34 z[1647]
   + 58 z[1648] + 61 z[1649] + 44 z[1650] + 77 z[1651] + 53 z[1652]
   + 70 z[1653] + 58 z[1654] + 76 z[1655] + 36 z[1656] + 65 z[1657]
   + z[1658] + 56 z[1659] + 39 z[1660] + 3 z[1661] + 34 z[1662]
   + 38 z[1663] + 92 z[1664] + 36 z[1665] + 24 z[1666] + 26 z[1667]
   + 42 z[1668] + 96 z[1669] + 66 z[1670] + 30 z[1671] + 7 z[1672]
   + 39 z[1673] + 61 z[1674] + 50 z[1675] + 23 z[1676] + 70 z[1677]
   + 83 z[1678] + 32 z[1679] + 82 z[1680] + 78 z[1681] + 8 z[1682]
   + 34 z[1683] + 99 z[1684] + 65 z[1685] + 9 z[1686] + 35 z[1687]
   + 82 z[1688] + 62 z[1689] + 42 z[1690] + 20 z[1691] + 64 z[1692]
   + 75 z[1693] + 9 z[1694] + 7 z[1695] + 63 z[1696] + 33 z[1697]
   + 33 z[1698] + 4 z[1699] + 28 z[1700] + 98 z[1701] + 85 z[1702]
   + 86 z[1703] + 88 z[1704] + 45 z[1705] + 36 z[1706] + 62 z[1707]
   + 66 z[1708] + 18 z[1709] + 93 z[1710] + 47 z[1711] + 48 z[1712]
   + 53 z[1713] + 33 z[1714] + 46 z[1715] + 17 z[1716] + 93 z[1717]
   + 80 z[1718] + 50 z[1719] + 54 z[1720] + 74 z[1721] + 21 z[1722]
   + 18 z[1723] + 48 z[1724] + 30 z[1725] + 76 z[1726] + 62 z[1727]
   + 62 z[1728] + 8 z[1729] + 65 z[1730] + 41 z[1731] + 57 z[1732]
   + 2 z[1733] + 27 z[1734] + 45 z[1735] + 46 z[1736] + 62 z[1737]
   + 58 z[1738] + 64 z[1739] + 31 z[1740] + 51 z[1741] + 62 z[1742]
   + 78 z[1743] + 3 z[1744] + 94 z[1745] + 24 z[1746] + 71 z[1747]
   + 87 z[1748] + 55 z[1749] + 21 z[1750] + 92 z[1751] + 80 z[1752]
   + 41 z[1753] + 9 z[1754] + 80 z[1755] + 22 z[1756] + 85 z[1757]
   + 41 z[1758] + 83 z[1759] + 44 z[1760] + 6 z[1761] + 76 z[1762]
   + 53 z[1763] + 59 z[1764] + 2 z[1765] + 97 z[1766] + 4 z[1767]
   + 15 z[1768] + 6 z[1769] + 19 z[1770] + 97 z[1771] + 56 z[1772]
   + 81 z[1773] + 75 z[1774] + 10 z[1775] + 26 z[1776] + 50 z[1777]
   + 81 z[1778] + 64 z[1779] + 56 z[1780] + 53 z[1781] + 56 z[1782]
   + 36 z[1783] + 45 z[1784] + 16 z[1785] + 15 z[1786] + 67 z[1787]
   + 52 z[1788] + 55 z[1789] + z[1790] + 48 z[1791] + 12 z[1792]
   + 76 z[1793] + 100 z[1794] + 70 z[1795] + 29 z[1796] + 48 z[1797]
   + 26 z[1798] + 43 z[1799] + 53 z[1800] + 44 z[1801] + 40 z[1802]
   + 61 z[1803] + 76 z[1804] + 66 z[1805] + 70 z[1806] + 54 z[1807]
   + 67 z[1808] + 2 z[1809] + 17 z[1810] + 22 z[1811] + 54 z[1812]
   + 24 z[1813] + 57 z[1814] + 99 z[1815] + 92 z[1816] + 71 z[1817]
   + 17 z[1818] + 95 z[1819] + 78 z[1820] + 17 z[1821] + 94 z[1822]
   + 89 z[1823] + 93 z[1824] + 93 z[1825] + 11 z[1826] + 21 z[1827]
   + 92 z[1828] + 36 z[1829] + 16 z[1830] + 45 z[1831] + 79 z[1832]
   + 7 z[1833] + 57 z[1834] + 7 z[1835] + 24 z[1836] + 26 z[1837]
   + 60 z[1838] + 90 z[1839] + 28 z[1840] + 28 z[1841] + 11 z[1842]
   + 33 z[1843] + 4 z[1844] + 68 z[1845] + 83 z[1846] + 47 z[1847]
   + 90 z[1848] + 99 z[1849] + 41 z[1850] + 19 z[1851] + 68 z[1852]
   + 87 z[1853] + 8 z[1854] + 60 z[1855] + 79 z[1856] + 18 z[1857]
   + 32 z[1858] + 23 z[1859] + 53 z[1860] + 99 z[1861] + 67 z[1862]
   + 83 z[1863] + 57 z[1864] + 23 z[1865] + 41 z[1866] + 80 z[1867]
   + 100 z[1868] + 100 z[1869] + 69 z[1870] + 79 z[1871] + 80 z[1872]
   + 80 z[1873] + 12 z[1874] + 83 z[1875] + 99 z[1876] + 94 z[1877]
   + 29 z[1878] + 40 z[1879] + 45 z[1880] + 21 z[1881] + 59 z[1882]
   + 12 z[1883] + 7 z[1884] + 18 z[1885] + 23 z[1886] + 38 z[1887]
   + 35 z[1888] + 6 z[1889] + 60 z[1890] + 39 z[1891] + 57 z[1892]
   + 78 z[1893] + 73 z[1894] + 13 z[1895] + 52 z[1896] + 14 z[1897]
   + 93 z[1898] + 51 z[1899] + 65 z[1900] + 13 z[1901] + 30 z[1902]
   + 44 z[1903] + 44 z[1904] + 93 z[1905] + 26 z[1906] + 94 z[1907]
   + 38 z[1908] + 6 z[1909] + 34 z[1910] + 34 z[1911] + 27 z[1912]
   + 44 z[1913] + 45 z[1914] + 85 z[1915] + 61 z[1916] + 19 z[1917]
   + 22 z[1918] + 47 z[1919] + 25 z[1920] + 33 z[1921] + 85 z[1922]
   + 81 z[1923] + 10 z[1924] + 9 z[1925] + 45 z[1926] + 61 z[1927]
   + 74 z[1928] + 37 z[1929] + 64 z[1930] + 39 z[1931] + 2 z[1932]
   + 45 z[1933] + 82 z[1934] + 45 z[1935] + 37 z[1936] + 60 z[1937]
   + 39 z[1938] + 26 z[1939] + 65 z[1940] + 72 z[1941] + 60 z[1942]
   + 43 z[1943] + 15 z[1944] + 56 z[1945] + 28 z[1946] + 27 z[1947]
   + 75 z[1948] + 49 z[1949] + 73 z[1950] + 51 z[1951] + 82 z[1952]
   + 9 z[1953] + 31 z[1954] + 43 z[1955] + 17 z[1956] + 75 z[1957]
   + 4 z[1958] + 91 z[1959] + 64 z[1960] + 19 z[1961] + 81 z[1962]
   + 65 z[1963] + 63 z[1964] + 14 z[1965] + 61 z[1966] + 51 z[1967]
   + 73 z[1968] + 99 z[1969] + 28 z[1970] + 90 z[1971] + 22 z[1972]
   + 87 z[1973] + 32 z[1974] + 88 z[1975] + 43 z[1976] + 59 z[1977]
   + 14 z[1978] + 69 z[1979] + 60 z[1980] + 86 z[1981] + 19 z[1982]
   + 41 z[1983] + 94 z[1984] + 49 z[1985] + 35 z[1986] + 63 z[1987]
   + 75 z[1988] + 38 z[1989] + 5 z[1990] + 90 z[1991] + 8 z[1992]
   + 85 z[1993] + 6 z[1994] + 22 z[1995] + 50 z[1996] + 67 z[1997]
   + 72 z[1998] + 23 z[1999] + 65 z[2000] + 52 z[2001] + 12 z[2002]
   + 87 z[2003] + 38 z[2004] + 43 z[2005] + 74 z[2006] + 32 z[2007]
   + 54 z[2008] + 40 z[2009] + 100 z[2010] + 13 z[2011] + 25 z[2012]
   + 18 z[2013] + 5 z[2014] + 71 z[2015] + 18 z[2016] + 39 z[2017]
   + 33 z[2018] + 45 z[2019] + 29 z[2020] + 89 z[2021] + 86 z[2022]
   + 36 z[2023] + 25 z[2024] + 92 z[2025] + 58 z[2026] + 74 z[2027]
   + 58 z[2028] + 81 z[2029] + 96 z[2030] + 74 z[2031] + 32 z[2032]
   + 59 z[2033] + 12 z[2034] + 22 z[2035] + 54 z[2036] + 38 z[2037]
   + 5 z[2038] + 7 z[2039] + 77 z[2040] + 5 z[2041] + 19 z[2042] + z[2043]
   + 74 z[2044] + 23 z[2045] + 71 z[2046] + 44 z[2047] + 61 z[2048]
   + 55 z[2049] + 88 z[2050] + 89 z[2051] + 43 z[2052] + 73 z[2053]
   + 77 z[2054] + 67 z[2055] + 16 z[2056] + 34 z[2057] + 93 z[2058]
   + 73 z[2059] + 66 z[2060] + 88 z[2061] + 99 z[2062] + 98 z[2063]
   + 99 z[2064] + 10 z[2065] + 71 z[2066] + 52 z[2067] + 47 z[2068]
   + 75 z[2069] + 58 z[2070] + 23 z[2071] + 79 z[2072] + 28 z[2073]
   + 76 z[2074] + 5 z[2075] + 2 z[2076] + 98 z[2077] + 48 z[2078]
   + 62 z[2079] + 5 z[2080] + 87 z[2081] + 3 z[2082] + 99 z[2083]
   + 11 z[2084] + 79 z[2085] + 66 z[2086] + 27 z[2087] + 64 z[2088]
   + 10 z[2089] + 51 z[2090] + 29 z[2091] + 97 z[2092] + z[2093]
   + 78 z[2094] + 47 z[2095] + 11 z[2096] + 48 z[2097] + 98 z[2098]
   + 9 z[2099] + 23 z[2100] + 7 z[2101] + 84 z[2102] + 53 z[2103]
   + 86 z[2104] + 11 z[2105] + 57 z[2106] + 87 z[2107] + 8 z[2108]
   + 56 z[2109] + z[2110] + 64 z[2111] + 42 z[2112] + 55 z[2113]
   + 63 z[2114] + 5 z[2115] + 33 z[2116] + 80 z[2117] + 83 z[2118]
   + 48 z[2119] + 89 z[2120] + 33 z[2121] + 28 z[2122] + 37 z[2123]
   + 86 z[2124] + 6 z[2125] + 84 z[2126] + 96 z[2127] + 53 z[2128]
   + 33 z[2129] + 56 z[2130] + 75 z[2131] + 92 z[2132] + 91 z[2133]
   + 28 z[2134] + 77 z[2135] + z[2136] + 36 z[2137] + 64 z[2138]
   + 61 z[2139] + 92 z[2140] + 64 z[2141] + 24 z[2142] + 85 z[2143]
   + 18 z[2144] + 86 z[2145] + 89 z[2146] + 2 z[2147] + 65 z[2148]
   + 71 z[2149] + z[2150] + 5 z[2151] + 56 z[2152] + 28 z[2153]
   + 42 z[2154] + 41 z[2155] + 33 z[2156] + 25 z[2157] + 88 z[2158]
   + 38 z[2159] + 57 z[2160] + 95 z[2161] + 12 z[2162] + 48 z[2163]
   + 86 z[2164] + 91 z[2165] + 77 z[2166] + 38 z[2167] + 27 z[2168]
   + 40 z[2169] + 98 z[2170] + 18 z[2171] + 55 z[2172] + 74 z[2173]
   + 54 z[2174] + 24 z[2175] + 11 z[2176] + 43 z[2177] + 77 z[2178]
   + 28 z[2179] + 65 z[2180] + 77 z[2181] + 32 z[2182] + 72 z[2183]
   + 56 z[2184] + 73 z[2185] + 64 z[2186] + 41 z[2187] + 49 z[2188]
   + 3 z[2189] + 78 z[2190] + 6 z[2191] + 50 z[2192] + 89 z[2193]
   + 5 z[2194] + 87 z[2195] + 32 z[2196] + 33 z[2197] + 24 z[2198]
   + 58 z[2199] + 72 z[2200] + 74 z[2201] + 27 z[2202] + 78 z[2203]
   + 99 z[2204] + 80 z[2205] + 53 z[2206] + 9 z[2207] + 74 z[2208]
   + 29 z[2209] + 36 z[2210] + 91 z[2211] + 57 z[2212] + 68 z[2213]
   + 14 z[2214] + 65 z[2215] + 92 z[2216] + 78 z[2217] + 5 z[2218]
   + 41 z[2219] + 32 z[2220] + 82 z[2221] + 98 z[2222] + 81 z[2223]
   + 22 z[2224] + 54 z[2225] + 67 z[2226] + 53 z[2227] + 87 z[2228]
   + 91 z[2229] + 62 z[2230] + 10 z[2231] + 16 z[2232] + 88 z[2233]
   + 40 z[2234] + 14 z[2235] + 20 z[2236] + 92 z[2237] + 22 z[2238]
   + 93 z[2239] + 73 z[2240] + 10 z[2241] + 35 z[2242] + 81 z[2243]
   + 29 z[2244] + 49 z[2245] + 45 z[2246] + 20 z[2247] + 26 z[2248]
   + z[2249] + 12 z[2250] + 9 z[2251] + 34 z[2252] + 9 z[2253] + 90 z[2254]
   + 56 z[2255] + 63 z[2256] + 56 z[2257] + 60 z[2258] + z[2259]
   + 98 z[2260] + 22 z[2261] + 10 z[2262] + 65 z[2263] + 61 z[2264]
   + 49 z[2265] + 78 z[2266] + 80 z[2267] + 41 z[2268] + 52 z[2269]
   + 25 z[2270] + 65 z[2271] + 61 z[2272] + 59 z[2273] + 45 z[2274]
   + 89 z[2275] + 7 z[2276] + 42 z[2277] + 60 z[2278] + 84 z[2279]
   + 42 z[2280] + 72 z[2281] + 93 z[2282] + 76 z[2283] + 32 z[2284]
   + 34 z[2285] + 83 z[2286] + 46 z[2287] + 41 z[2288] + 94 z[2289]
   + 46 z[2290] + 91 z[2291] + 15 z[2292] + 56 z[2293] + 55 z[2294]
   + 28 z[2295] + 4 z[2296] + 85 z[2297] + 59 z[2298] + 96 z[2299]
   + 36 z[2300] + 83 z[2301] + 60 z[2302] + 96 z[2303] + 94 z[2304]
   + 57 z[2305] + 36 z[2306] + 52 z[2307] + 98 z[2308] + 47 z[2309]
   + 88 z[2310] + 91 z[2311] + 70 z[2312] + 80 z[2313] + 18 z[2314]
   + 2 z[2315] + 65 z[2316] + 52 z[2317] + 99 z[2318] + 57 z[2319]
   + 46 z[2320] + 45 z[2321] + 47 z[2322] + 12 z[2323] + 100 z[2324]
   + 54 z[2325] + 39 z[2326] + 55 z[2327] + 38 z[2328] + 50 z[2329]
   + 3 z[2330] + 73 z[2331] + 32 z[2332] + 14 z[2333] + 20 z[2334]
   + 25 z[2335] + 70 z[2336] + 55 z[2337] + 29 z[2338] + 19 z[2339]
   + 53 z[2340] + 16 z[2341] + 10 z[2342] + 23 z[2343] + 47 z[2344]
   + 79 z[2345] + 76 z[2346] + 11 z[2347] + 31 z[2348] + 26 z[2349]
   + 67 z[2350] + 28 z[2351] + 70 z[2352] + 66 z[2353] + 91 z[2354]
   + 21 z[2355] + 19 z[2356] + 82 z[2357] + 76 z[2358] + 56 z[2359]
   + 31 z[2360] + 78 z[2361] + 28 z[2362] + 62 z[2363] + 91 z[2364]
   + 47 z[2365] + 39 z[2366] + 13 z[2367] + 53 z[2368] + 67 z[2369]
   + 31 z[2370] + 5 z[2371] + 34 z[2372] + 92 z[2373] + 79 z[2374]
   + 80 z[2375] + 23 z[2376] + 6 z[2377] + 90 z[2378] + 5 z[2379]
   + 32 z[2380] + 8 z[2381] + 32 z[2382] + 53 z[2383] + 73 z[2384]
   + 74 z[2385] + 74 z[2386] + 91 z[2387] + 55 z[2388] + z[2389]
   + 46 z[2390] + 85 z[2391] + 78 z[2392] + 25 z[2393] + 99 z[2394]
   + 20 z[2395] + 71 z[2396] + 89 z[2397] + 84 z[2398] + 23 z[2399]
   + 7 z[2400] + 15 z[2401] + 80 z[2402] + 40 z[2403] + 58 z[2404]
   + 10 z[2405] + 19 z[2406] + 80 z[2407] + 16 z[2408] + 60 z[2409]
   + 36 z[2410] + 99 z[2411] + 67 z[2412] + 67 z[2413] + 51 z[2414]
   + 92 z[2415] + 41 z[2416] + 76 z[2417] + 34 z[2418] + 47 z[2419]
   + 76 z[2420] + 80 z[2421] + 32 z[2422] + 5 z[2423] + 56 z[2424]
   + 82 z[2425] + 25 z[2426] + 27 z[2427] + 70 z[2428] + 60 z[2429]
   + z[2430] + 76 z[2431] + 26 z[2432] + 32 z[2433] + 15 z[2434]
   + 84 z[2435] + 42 z[2436] + 85 z[2437] + 15 z[2438] + 9 z[2439]
   + 44 z[2440] + 51 z[2441] + 59 z[2442] + 62 z[2443] + 69 z[2444]
   + 61 z[2445] + 5 z[2446] + 61 z[2447] + 37 z[2448] + 39 z[2449]
   + 8 z[2450] + 12 z[2451] + 70 z[2452] + 39 z[2453] + 69 z[2454]
   + 25 z[2455] + 20 z[2456] + 45 z[2457] + 3 z[2458] + 41 z[2459]
   + 4 z[2460] + 56 z[2461] + 16 z[2462] + 30 z[2463] + 87 z[2464]
   + 82 z[2465] + 13 z[2466] + 80 z[2467] + 18 z[2468] + 79 z[2469]
   + 40 z[2470] + 13 z[2471] + 29 z[2472] + 98 z[2473] + 74 z[2474]
   + 50 z[2475] + 11 z[2476] + 79 z[2477] + 10 z[2478] + 47 z[2479]
   + 69 z[2480] + 17 z[2481] + 10 z[2482] + 38 z[2483] + 7 z[2484]
   + 78 z[2485] + 62 z[2486] + 78 z[2487] + 22 z[2488] + 17 z[2489]
   + 18 z[2490] + 78 z[2491] + 72 z[2492] + 85 z[2493] + 7 z[2494]
   + 10 z[2495] + 18 z[2496] + 71 z[2497] + 90 z[2498] + 35 z[2499]
   + 49 z[2500] + 29 z[2501] + 47 z[2502] + 30 z[2503] + 79 z[2504]
   + 73 z[2505] + 79 z[2506] + 41 z[2507] + 3 z[2508] + 88 z[2509]
   + 87 z[2510] + 71 z[2511] + 5 z[2512] + 48 z[2513] + 60 z[2514]
   + 63 z[2515] + 78 z[2516] + 21 z[2517] + 41 z[2518] + 51 z[2519]
   + 89 z[2520] + 58 z[2521] + 28 z[2522] + 60 z[2523] + 43 z[2524]
   + 86 z[2525] + 70 z[2526] + 60 z[2527] + 56 z[2528] + 11 z[2529]
   + 47 z[2530] + 57 z[2531] + 91 z[2532] + 93 z[2533] + 86 z[2534]
   + 69 z[2535] + 17 z[2536] + 64 z[2537] + 9 z[2538] + 19 z[2539]
   + 3 z[2540] + 47 z[2541] + 41 z[2542] + 59 z[2543] + 47 z[2544]
   + 100 z[2545] + 22 z[2546] + 76 z[2547] + 73 z[2548] + 62 z[2549]
   + 78 z[2550] + 61 z[2551] + 71 z[2552] + 6 z[2553] + 21 z[2554]
   + 65 z[2555] + 43 z[2556] + 42 z[2557] + 77 z[2558] + 99 z[2559]
   + 52 z[2560] + 23 z[2561] + 55 z[2562] + 94 z[2563] + 67 z[2564]
   + 92 z[2565] + 15 z[2566] + 84 z[2567] + 7 z[2568] + 75 z[2569]
   + 2 z[2570] + 9 z[2571] + 74 z[2572] + 95 z[2573] + 20 z[2574]
   + 20 z[2575] + 94 z[2576] + 41 z[2577] + 47 z[2578] + 66 z[2579]
   + 54 z[2580] + 24 z[2581] + 27 z[2582] + 76 z[2583] + 81 z[2584]
   + 99 z[2585] + 41 z[2586] + 24 z[2587] + 92 z[2588] + 17 z[2589]
   + 74 z[2590] + 95 z[2591] + 91 z[2592] + 28 z[2593] + 88 z[2594]
   + 57 z[2595] + 19 z[2596] + 54 z[2597] + 40 z[2598] + 25 z[2599]
   + 29 z[2600] + 94 z[2601] + 85 z[2602] + 2 z[2603] + 88 z[2604]
   + 4 z[2605] + 73 z[2606] + 33 z[2607] + 96 z[2608] + 19 z[2609]
   + 99 z[2610] + z[2611] + 94 z[2612] + 77 z[2613] + 77 z[2614]
   + 75 z[2615] + 27 z[2616] + 69 z[2617] + 50 z[2618] + 70 z[2619]
   + 37 z[2620] + 23 z[2621] + 64 z[2622] + 27 z[2623] + 50 z[2624]
   + 3 z[2625] + 35 z[2626] + 20 z[2627] + 57 z[2628] + 75 z[2629]
   + 96 z[2630] + 85 z[2631] + 20 z[2632] + 32 z[2633] + 38 z[2634]
   + 59 z[2635] + 36 z[2636] + 10 z[2637] + 91 z[2638] + 83 z[2639]
   + 80 z[2640] + 89 z[2641] + 84 z[2642] + 73 z[2643] + 17 z[2644]
   + 60 z[2645] + 99 z[2646] + 95 z[2647] + 80 z[2648] + 48 z[2649]
   + 64 z[2650] + 16 z[2651] + 70 z[2652] + 27 z[2653] + 94 z[2654]
   + 71 z[2655] + 82 z[2656] + 28 z[2657] + 42 z[2658] + 90 z[2659]
   + 54 z[2660] + 37 z[2661] + 26 z[2662] + 73 z[2663] + 69 z[2664]
   + 63 z[2665] + 31 z[2666] + 56 z[2667] + 72 z[2668] + 74 z[2669]
   + 38 z[2670] + 51 z[2671] + 14 z[2672] + 73 z[2673] + 75 z[2674]
   + 31 z[2675] + 32 z[2676] + 74 z[2677] + 25 z[2678] + 63 z[2679]
   + 21 z[2680] + 41 z[2681] + 78 z[2682] + 43 z[2683] + 19 z[2684]
   + 71 z[2685] + 65 z[2686] + 100 z[2687] + 99 z[2688] + 7 z[2689]
   + 89 z[2690] + 52 z[2691] + 95 z[2692] + 14 z[2693] + 77 z[2694]
   + 15 z[2695] + 76 z[2696] + 59 z[2697] + 22 z[2698] + 99 z[2699]
   + 32 z[2700] + 60 z[2701] + z[2702] + 98 z[2703] + 32 z[2704]
   + 76 z[2705] + 28 z[2706] + 16 z[2707] + 49 z[2708] + 4 z[2709]
   + 78 z[2710] + 21 z[2711] + 44 z[2712] + 8 z[2713] + 63 z[2714]
   + 63 z[2715] + 30 z[2716] + 28 z[2717] + 14 z[2718] + 28 z[2719]
   + 86 z[2720] + 3 z[2721] + 32 z[2722] + 32 z[2723] + 68 z[2724]
   + 60 z[2725] + 47 z[2726] + 96 z[2727] + 18 z[2728] + 68 z[2729]
   + 46 z[2730] + 2 z[2731] + 79 z[2732] + 47 z[2733] + 99 z[2734]
   + 63 z[2735] + 22 z[2736] + 78 z[2737] + 30 z[2738] + 70 z[2739]
   + 33 z[2740] + 59 z[2741] + 90 z[2742] + 77 z[2743] + 66 z[2744]
   + 5 z[2745] + 91 z[2746] + 96 z[2747] + 84 z[2748] + 4 z[2749]
   + 75 z[2750] + 69 z[2751] + 58 z[2752] + 58 z[2753] + 100 z[2754]
   + 78 z[2755] + 17 z[2756] + 98 z[2757] + 25 z[2758] + 87 z[2759]
   + 18 z[2760] + 70 z[2761] + 40 z[2762] + 96 z[2763] + 16 z[2764]
   + 90 z[2765] + 10 z[2766] + 37 z[2767] + 67 z[2768] + 39 z[2769]
   + 58 z[2770] + 99 z[2771] + 50 z[2772] + 100 z[2773] + 27 z[2774]
   + 15 z[2775] + 56 z[2776] + 69 z[2777] + 62 z[2778] + 39 z[2779]
   + 73 z[2780] + 89 z[2781] + 59 z[2782] + 82 z[2783] + 98 z[2784]
   + 58 z[2785] + 59 z[2786] + 15 z[2787] + 8 z[2788] + 83 z[2789]
   + 53 z[2790] + 25 z[2791] + 5 z[2792] + 92 z[2793] + 20 z[2794]
   + 20 z[2795] + 81 z[2796] + 82 z[2797] + 9 z[2798] + 99 z[2799]
   + 20 z[2800] + 66 z[2801] + 49 z[2802] + 69 z[2803] + 17 z[2804]
   + 76 z[2805] + 36 z[2806] + 72 z[2807] + 96 z[2808] + 49 z[2809]
   + 10 z[2810] + 68 z[2811] + 89 z[2812] + 68 z[2813] + 2 z[2814]
   + 87 z[2815] + 78 z[2816] + 12 z[2817] + 53 z[2818] + 85 z[2819]
   + 47 z[2820] + 5 z[2821] + 9 z[2822] + 51 z[2823] + 48 z[2824]
   + 80 z[2825] + 70 z[2826] + 80 z[2827] + 61 z[2828] + 30 z[2829]
   + 30 z[2830] + 33 z[2831] + 96 z[2832] + 78 z[2833] + 53 z[2834]
   + 64 z[2835] + 5 z[2836] + 40 z[2837] + 36 z[2838] + z[2839]
   + 89 z[2840] + 97 z[2841] + 20 z[2842] + 77 z[2843] + 17 z[2844]
   + 21 z[2845] + 15 z[2846] + 46 z[2847] + 85 z[2848] + 67 z[2849]
   + 82 z[2850] + 31 z[2851] + 23 z[2852] + 42 z[2853] + 81 z[2854]
   + 22 z[2855] + 21 z[2856] + 2 z[2857] + z[2858] + 34 z[2859]
   + 32 z[2860] + 82 z[2861] + 18 z[2862] + 79 z[2863] + 60 z[2864]
   + 70 z[2865] + 42 z[2866] + 16 z[2867] + 10 z[2868] + 29 z[2869]
   + 16 z[2870] + 50 z[2871] + 78 z[2872] + 88 z[2873] + 78 z[2874]
   + 94 z[2875] + 60 z[2876] + 93 z[2877] + 91 z[2878] + 44 z[2879]
   + 11 z[2880] + 72 z[2881] + 74 z[2882] + 86 z[2883] + 13 z[2884]
   + 6 z[2885] + 7 z[2886] + 85 z[2887] + 60 z[2888] + 60 z[2889]
   + 70 z[2890] + 43 z[2891] + 41 z[2892] + 87 z[2893] + 21 z[2894]
   + 52 z[2895] + 9 z[2896] + 14 z[2897] + 68 z[2898] + 18 z[2899]
   + 95 z[2900] + 83 z[2901] + 19 z[2902] + 72 z[2903] + 22 z[2904]
   + 96 z[2905] + 17 z[2906] + 82 z[2907] + 40 z[2908] + 7 z[2909]
   + 25 z[2910] + 51 z[2911] + 78 z[2912] + 51 z[2913] + 88 z[2914]
   + 42 z[2915] + 8 z[2916] + 94 z[2917] + 26 z[2918] + 67 z[2919]
   + 53 z[2920] + 96 z[2921] + 9 z[2922] + 46 z[2923] + 34 z[2924]
   + 81 z[2925] + 97 z[2926] + 42 z[2927] + 95 z[2928] + 64 z[2929]
   + 11 z[2930] + 89 z[2931] + 99 z[2932] + 29 z[2933] + 60 z[2934]
   + 20 z[2935] + 77 z[2936] + 28 z[2937] + z[2938] + 16 z[2939]
   + 34 z[2940] + 78 z[2941] + 18 z[2942] + 63 z[2943] + 28 z[2944]
   + 5 z[2945] + 4 z[2946] + 35 z[2947] + 51 z[2948] + 29 z[2949]
   + 54 z[2950] + 55 z[2951] + 76 z[2952] + 62 z[2953] + 100 z[2954]
   + 10 z[2955] + 43 z[2956] + 49 z[2957] + 3 z[2958] + 89 z[2959]
   + 64 z[2960] + 14 z[2961] + 77 z[2962] + 62 z[2963] + 94 z[2964]
   + 88 z[2965] + 34 z[2966] + 70 z[2967] + 15 z[2968] + 86 z[2969]
   + 38 z[2970] + 48 z[2971] + 63 z[2972] + 7 z[2973] + 62 z[2974]
   + 42 z[2975] + 12 z[2976] + 65 z[2977] + 77 z[2978] + 62 z[2979]
   + 93 z[2980] + 30 z[2981] + 16 z[2982] + 21 z[2983] + 43 z[2984]
   + 68 z[2985] + 82 z[2986] + 37 z[2987] + 16 z[2988] + 84 z[2989]
   + 25 z[2990] + 31 z[2991] + 97 z[2992] + z[2993] + 93 z[2994]
   + 43 z[2995] + 40 z[2996] + 78 z[2997] + 64 z[2998] + 54 z[2999]
   + 15 z[3000] + z[3001] + 53 z[3002] + 30 z[3003] + 8 z[3004]
   + 14 z[3005] + 71 z[3006] + 71 z[3007] + 78 z[3008] + 99 z[3009]
   + 32 z[3010] + 23 z[3011] + 80 z[3012] + 99 z[3013] + 95 z[3014]
   + 23 z[3015] + 18 z[3016] + 76 z[3017] + 59 z[3018] + 85 z[3019]
   + 59 z[3020] + 84 z[3021] + 16 z[3022] + 8 z[3023] + 36 z[3024]
   + 60 z[3025] + 50 z[3026] + 76 z[3027] + 89 z[3028] + 13 z[3029]
   + 81 z[3030] + 3 z[3031] + 66 z[3032] + 86 z[3033] + 32 z[3034]
   + 73 z[3035] + 99 z[3036] + 3 z[3037] + 43 z[3038] + 29 z[3039]
   + 53 z[3040] + 26 z[3041] + 3 z[3042] + 33 z[3043] + 76 z[3044]
   + 97 z[3045] + 7 z[3046] + 46 z[3047] + 72 z[3048] + 17 z[3049]
   + 30 z[3050] + 30 z[3051] + 52 z[3052] + 97 z[3053] + 89 z[3054]
   + 40 z[3055] + 56 z[3056] + 38 z[3057] + 15 z[3058] + 44 z[3059]
   + 3 z[3060] + 47 z[3061] + 99 z[3062] + 68 z[3063] + 32 z[3064]
   + 30 z[3065] + 92 z[3066] + 83 z[3067] + 84 z[3068] + 86 z[3069]
   + 11 z[3070] + 37 z[3071] + 11 z[3072] + 13 z[3073] + 21 z[3074]
   + 38 z[3075] + 61 z[3076] + 79 z[3077] + 83 z[3078] + 32 z[3079]
   + 47 z[3080] + 65 z[3081] + 13 z[3082] + 99 z[3083] + 61 z[3084]
   + 2 z[3085] + 38 z[3086] + 69 z[3087] + 91 z[3088] + 4 z[3089]
   + 64 z[3090] + 93 z[3091] + 2 z[3092] + 62 z[3093] + 12 z[3094]
   + 34 z[3095] + 44 z[3096] + 3 z[3097] + 68 z[3098] + 27 z[3099]
   + 88 z[3100] + 78 z[3101] + 15 z[3102] + 50 z[3103] + 42 z[3104]
   + 87 z[3105] + 40 z[3106] + 2 z[3107] + 17 z[3108] + 74 z[3109]
   + 85 z[3110] + 64 z[3111] + 38 z[3112] + 97 z[3113] + 62 z[3114]
   + 51 z[3115] + 50 z[3116] + 51 z[3117] + 71 z[3118] + 41 z[3119]
   + 6 z[3120] + 34 z[3121] + 85 z[3122] + 7 z[3123] + 96 z[3124]
   + 97 z[3125] + 92 z[3126] + 39 z[3127] + 51 z[3128] + 59 z[3129]
   + 17 z[3130] + 91 z[3131] + 88 z[3132] + 84 z[3133] + 92 z[3134]
   + 81 z[3135] + 70 z[3136] + 31 z[3137] + 82 z[3138] + 87 z[3139]
   + 57 z[3140] + 18 z[3141] + 50 z[3142] + 46 z[3143] + 67 z[3144]
   + 63 z[3145] + 96 z[3146] + 16 z[3147] + 65 z[3148] + 66 z[3149]
   + 56 z[3150] + 70 z[3151] + 52 z[3152] + 93 z[3153] + 28 z[3154]
   + 47 z[3155] + 89 z[3156] + 72 z[3157] + 37 z[3158] + 39 z[3159]
   + 82 z[3160] + 5 z[3161] + 29 z[3162] + 70 z[3163] + 88 z[3164]
   + 73 z[3165] + 50 z[3166] + 10 z[3167] + 3 z[3168] + 84 z[3169]
   + 48 z[3170] + 59 z[3171] + z[3172] + 49 z[3173] + 5 z[3174]
   + 19 z[3175] + 11 z[3176] + 52 z[3177] + 35 z[3178] + 27 z[3179]
   + 70 z[3180] + 42 z[3181] + 48 z[3182] + 21 z[3183] + 34 z[3184]
   + 75 z[3185] + 19 z[3186] + 74 z[3187] + 98 z[3188] + 55 z[3189]
   + 13 z[3190] + 80 z[3191] + 59 z[3192] + 93 z[3193] + 49 z[3194]
   + 99 z[3195] + 65 z[3196] + 50 z[3197] + 8 z[3198] + 20 z[3199]
   + 33 z[3200] + 7 z[3201] + 30 z[3202] + 86 z[3203] + 55 z[3204]
   + 34 z[3205] + 4 z[3206] + 17 z[3207] + 38 z[3208] + 90 z[3209]
   + 43 z[3210] + 7 z[3211] + 32 z[3212] + 90 z[3213] + 79 z[3214]
   + 17 z[3215] + 16 z[3216] + 97 z[3217] + 91 z[3218] + 66 z[3219]
   + 3 z[3220] + 55 z[3221] + 45 z[3222] + 13 z[3223] + 99 z[3224]
   + 93 z[3225] + 11 z[3226] + 64 z[3227] + 42 z[3228] + 70 z[3229]
   + 35 z[3230] + 27 z[3231] + 76 z[3232] + 64 z[3233] + 12 z[3234]
   + 30 z[3235] + 50 z[3236] + 67 z[3237] + 98 z[3238] + 87 z[3239]
   + 57 z[3240] + 92 z[3241] + 45 z[3242] + 40 z[3243] + 81 z[3244]
   + 75 z[3245] + 56 z[3246] + 49 z[3247] + 71 z[3248] + 98 z[3249]
   + 14 z[3250] + 25 z[3251] + 52 z[3252] + 58 z[3253] + 37 z[3254]
   + 51 z[3255] + 2 z[3256] + 100 z[3257] + 66 z[3258] + 95 z[3259]
   + 69 z[3260] + 100 z[3261] + 73 z[3262] + 97 z[3263] + 15 z[3264]
   + 84 z[3265] + 78 z[3266] + 64 z[3267] + 3 z[3268] + 76 z[3269]
   + 2 z[3270] + 59 z[3271] + 67 z[3272] + 46 z[3273] + 50 z[3274]
   + 100 z[3275] + 20 z[3276] + 5 z[3277] + 100 z[3278] + 42 z[3279]
   + 55 z[3280] + 13 z[3281] + 66 z[3282] + 6 z[3283] + 22 z[3284]
   + 55 z[3285] + 8 z[3286] + 75 z[3287] + 54 z[3288] + 73 z[3289]
   + 21 z[3290] + 22 z[3291] + 24 z[3292] + 94 z[3293] + 70 z[3294]
   + 39 z[3295] + 29 z[3296] + 48 z[3297] + 2 z[3298] + 31 z[3299]
   + 23 z[3300] + 56 z[3301] + 41 z[3302] + 41 z[3303] + 53 z[3304]
   + 90 z[3305] + 92 z[3306] + 73 z[3307] + 47 z[3308] + 91 z[3309]
   + 66 z[3310] + z[3311] + 55 z[3312] + 84 z[3313] + 58 z[3314]
   + 28 z[3315] + 38 z[3316] + 18 z[3317] + 2 z[3318] + 91 z[3319]
   + 42 z[3320] + 23 z[3321] + 64 z[3322] + 66 z[3323] + 68 z[3324]
   + 34 z[3325] + 56 z[3326] + 48 z[3327] + 81 z[3328] + 9 z[3329]
   + 79 z[3330] + 55 z[3331] + 64 z[3332] + 71 z[3333] + 47 z[3334]
   + 17 z[3335] + 13 z[3336] + 39 z[3337] + 41 z[3338] + 59 z[3339]
   + 29 z[3340] + 58 z[3341] + 11 z[3342] + 36 z[3343] + 41 z[3344]
   + 20 z[3345] + 63 z[3346] + 30 z[3347] + 37 z[3348] + 65 z[3349]
   + 20 z[3350] + 79 z[3351] + 39 z[3352] + 36 z[3353] + 96 z[3354]
   + 58 z[3355] + 69 z[3356] + 3 z[3357] + 5 z[3358] + z[3359] + 11 z[3360]
   + 35 z[3361] + 7 z[3362] + 27 z[3363] + 6 z[3364] + 53 z[3365]
   + 95 z[3366] + 18 z[3367] + 43 z[3368] + 35 z[3369] + 28 z[3370]
   + 24 z[3371] + 44 z[3372] + 90 z[3373] + 59 z[3374] + 85 z[3375]
   + 9 z[3376] + 21 z[3377] + 14 z[3378] + 98 z[3379] + 37 z[3380]
   + 86 z[3381] + 28 z[3382] + 75 z[3383] + 21 z[3384] + 23 z[3385]
   + 84 z[3386] + 41 z[3387] + 77 z[3388] + 89 z[3389] + 93 z[3390]
   + 87 z[3391] + 23 z[3392] + 99 z[3393] + 65 z[3394] + 80 z[3395]
   + 3 z[3396] + 59 z[3397] + 49 z[3398] + 98 z[3399] + 45 z[3400]
   + 76 z[3401] + 21 z[3402] + 89 z[3403] + 17 z[3404] + 79 z[3405]
   + 73 z[3406] + 78 z[3407] + 51 z[3408] + 38 z[3409] + 75 z[3410]
   + 88 z[3411] + 75 z[3412] + 2 z[3413] + 14 z[3414] + 47 z[3415]
   + 76 z[3416] + 98 z[3417] + 39 z[3418] + 52 z[3419] + 38 z[3420]
   + 31 z[3421] + 90 z[3422] + 60 z[3423] + 29 z[3424] + 55 z[3425]
   + 92 z[3426] + 84 z[3427] + 13 z[3428] + 40 z[3429] + 81 z[3430]
   + 58 z[3431] + 68 z[3432] + z[3433] + 46 z[3434] + 84 z[3435]
   + 31 z[3436] + 70 z[3437] + 13 z[3438] + 81 z[3439] + 59 z[3440]
   + 87 z[3441] + 20 z[3442] + 86 z[3443] + 40 z[3444] + 86 z[3445]
   + 32 z[3446] + 15 z[3447] + 35 z[3448] + 71 z[3449] + 18 z[3450]
   + 72 z[3451] + z[3452] + 8 z[3453] + 83 z[3454] + 82 z[3455]
   + 14 z[3456] + 74 z[3457] + 17 z[3458] + 26 z[3459] + 66 z[3460]
   + 97 z[3461] + 35 z[3462] + 33 z[3463] + 49 z[3464] + 32 z[3465]
   + 68 z[3466] + 79 z[3467] + 53 z[3468] + 81 z[3469] + 11 z[3470]
   + 12 z[3471] + 19 z[3472] + 83 z[3473] + 49 z[3474] + 59 z[3475]
   + 68 z[3476] + 80 z[3477] + 25 z[3478] + 2 z[3479] + 2 z[3480]
   + 43 z[3481] + 73 z[3482] + 55 z[3483] + 2 z[3484] + 7 z[3485]
   + 88 z[3486] + 15 z[3487] + 81 z[3488] + 4 z[3489] + 92 z[3490]
   + 46 z[3491] + 52 z[3492] + 27 z[3493] + 30 z[3494] + 100 z[3495]
   + 10 z[3496] + 97 z[3497] + 30 z[3498] + 63 z[3499] + 29 z[3500]
   + 40 z[3501] + 26 z[3502] + 48 z[3503] + 74 z[3504] + 74 z[3505]
   + 6 z[3506] + 41 z[3507] + 5 z[3508] + 30 z[3509] + 94 z[3510]
   + 59 z[3511] + 24 z[3512] + 18 z[3513] + 13 z[3514] + 25 z[3515]
   + 25 z[3516] + 52 z[3517] + 39 z[3518] + 57 z[3519] + 7 z[3520]
   + 31 z[3521] + 54 z[3522] + 58 z[3523] + 9 z[3524] + 83 z[3525]
   + 57 z[3526] + 18 z[3527] + 31 z[3528] + 86 z[3529] + 80 z[3530]
   + 60 z[3531] + 77 z[3532] + 57 z[3533] + 59 z[3534] + 51 z[3535]
   + 30 z[3536] + 64 z[3537] + 43 z[3538] + 87 z[3539] + 45 z[3540]
   + 37 z[3541] + 45 z[3542] + 69 z[3543] + 54 z[3544] + 9 z[3545]
   + 45 z[3546] + 30 z[3547] + 60 z[3548] + 84 z[3549] + 86 z[3550]
   + 66 z[3551] + 66 z[3552] + 39 z[3553] + 75 z[3554] + 74 z[3555]
   + 21 z[3556] + 31 z[3557] + 91 z[3558] + 4 z[3559] + 68 z[3560]
   + 23 z[3561] + 63 z[3562] + 44 z[3563] + 79 z[3564] + 21 z[3565]
   + 94 z[3566] + 61 z[3567] + 36 z[3568] + 89 z[3569] + 47 z[3570]
   + 32 z[3571] + 25 z[3572] + 91 z[3573] + 52 z[3574] + 30 z[3575]
   + 51 z[3576] + 97 z[3577] + 60 z[3578] + 62 z[3579] + 80 z[3580]
   + 45 z[3581] + 79 z[3582] + 97 z[3583] + 36 z[3584] + 53 z[3585]
   + 70 z[3586] + 8 z[3587] + 83 z[3588] + 12 z[3589] + 11 z[3590]
   + 50 z[3591] + 86 z[3592] + 25 z[3593] + 45 z[3594] + 17 z[3595]
   + 97 z[3596] + 39 z[3597] + 77 z[3598] + 32 z[3599] + 79 z[3600]
   + 75 z[3601] + 16 z[3602] + 3 z[3603] + 17 z[3604] + 67 z[3605]
   + 84 z[3606] + 67 z[3607] + 63 z[3608] + 43 z[3609] + 28 z[3610]
   + 94 z[3611] + 40 z[3612] + 58 z[3613] + 90 z[3614] + 75 z[3615]
   + 10 z[3616] + 11 z[3617] + 82 z[3618] + 44 z[3619] + 23 z[3620]
   + 93 z[3621] + 93 z[3622] + 60 z[3623] + 17 z[3624] + 89 z[3625]
   + 76 z[3626] + 14 z[3627] + 79 z[3628] + 4 z[3629] + 97 z[3630]
   + 57 z[3631] + 78 z[3632] + 12 z[3633] + 59 z[3634] + 94 z[3635]
   + 79 z[3636] + 43 z[3637] + 12 z[3638] + 93 z[3639] + 37 z[3640]
   + 91 z[3641] + 87 z[3642] + 76 z[3643] + 48 z[3644] + 76 z[3645]
   + 2 z[3646] + 57 z[3647] + 87 z[3648] + 36 z[3649] + 100 z[3650]
   + 61 z[3651] + 80 z[3652] + 44 z[3653] + 20 z[3654] + 48 z[3655]
   + 33 z[3656] + 48 z[3657] + 13 z[3658] + 11 z[3659] + 3 z[3660]
   + 10 z[3661] + 68 z[3662] + 81 z[3663] + 73 z[3664] + 78 z[3665]
   + 26 z[3666] + 3 z[3667] + 72 z[3668] + 38 z[3669] + 96 z[3670]
   + 9 z[3671] + 80 z[3672] + 82 z[3673] + 36 z[3674] + 28 z[3675]
   + 9 z[3676] + 38 z[3677] + 36 z[3678] + 95 z[3679] + 25 z[3680]
   + 36 z[3681] + 7 z[3682] + 4 z[3683] + 31 z[3684] + 79 z[3685]
   + 51 z[3686] + 15 z[3687] + 26 z[3688] + 64 z[3689] + 26 z[3690]
   + 28 z[3691] + 25 z[3692] + 45 z[3693] + 60 z[3694] + 49 z[3695]
   + 22 z[3696] + 38 z[3697] + 52 z[3698] + 46 z[3699] + 75 z[3700]
   + 99 z[3701] + 54 z[3702] + 54 z[3703] + 32 z[3704] + 89 z[3705]
   + 33 z[3706] + 40 z[3707] + 78 z[3708] + 69 z[3709] + 87 z[3710]
   + 2 z[3711] + 56 z[3712] + 93 z[3713] + 5 z[3714] + 86 z[3715]
   + 71 z[3716] + 8 z[3717] + 53 z[3718] + 48 z[3719] + 23 z[3720]
   + 78 z[3721] + 28 z[3722] + 47 z[3723] + 74 z[3724] + 39 z[3725]
   + 47 z[3726] + 47 z[3727] + 76 z[3728] + 98 z[3729] + 92 z[3730]
   + 50 z[3731] + 48 z[3732] + 45 z[3733] + 56 z[3734] + 79 z[3735]
   + 86 z[3736] + 40 z[3737] + 71 z[3738] + 15 z[3739] + 8 z[3740]
   + 57 z[3741] + 69 z[3742] + 15 z[3743] + 49 z[3744] + 25 z[3745]
   + 53 z[3746] + 72 z[3747] + 32 z[3748] + 5 z[3749] + 71 z[3750]
   + 54 z[3751] + 34 z[3752] + 98 z[3753] + 52 z[3754] + 7 z[3755]
   + 37 z[3756] + 99 z[3757] + 53 z[3758] + 12 z[3759] + 48 z[3760]
   + 97 z[3761] + 14 z[3762] + 96 z[3763] + 93 z[3764] + 21 z[3765]
   + 26 z[3766] + 78 z[3767] + 60 z[3768] + 96 z[3769] + 45 z[3770]
   + 20 z[3771] + 52 z[3772] + 13 z[3773] + 86 z[3774] + 53 z[3775]
   + 37 z[3776] + 38 z[3777] + 76 z[3778] + 21 z[3779] + 42 z[3780]
   + 46 z[3781] + 74 z[3782] + 75 z[3783] + 96 z[3784] + 78 z[3785]
   + 81 z[3786] + 32 z[3787] + 76 z[3788] + 86 z[3789] + 95 z[3790]
   + 23 z[3791] + 82 z[3792] + 60 z[3793] + 70 z[3794] + 74 z[3795]
   + 32 z[3796] + 96 z[3797] + 4 z[3798] + 44 z[3799] + 43 z[3800]
   + 48 z[3801] + 15 z[3802] + 95 z[3803] + 12 z[3804] + 100 z[3805]
   + 99 z[3806] + 48 z[3807] + 38 z[3808] + 74 z[3809] + 20 z[3810]
   + 79 z[3811] + 71 z[3812] + 94 z[3813] + 6 z[3814] + 66 z[3815]
   + 23 z[3816] + 38 z[3817] + 49 z[3818] + 98 z[3819] + 23 z[3820]
   + 96 z[3821] + 72 z[3822] + 56 z[3823] + 55 z[3824] + 94 z[3825]
   + 30 z[3826] + 87 z[3827] + 41 z[3828] + 85 z[3829] + 30 z[3830]
   + 83 z[3831] + 32 z[3832] + 44 z[3833] + 29 z[3834] + 95 z[3835]
   + 95 z[3836] + 27 z[3837] + 42 z[3838] + 32 z[3839] + 52 z[3840]
   + 14 z[3841] + 63 z[3842] + 23 z[3843] + 59 z[3844] + 68 z[3845]
   + 40 z[3846] + 81 z[3847] + 57 z[3848] + 89 z[3849] + 30 z[3850]
   + 32 z[3851] + 84 z[3852] + z[3853] + 87 z[3854] + 90 z[3855]
   + 46 z[3856] + 68 z[3857] + 76 z[3858] + 86 z[3859] + 52 z[3860]
   + 57 z[3861] + 21 z[3862] + 35 z[3863] + 52 z[3864] + 49 z[3865]
   + 29 z[3866] + 47 z[3867] + 28 z[3868] + 23 z[3869] + 30 z[3870]
   + 31 z[3871] + 36 z[3872] + 92 z[3873] + 5 z[3874] + 94 z[3875]
   + 11 z[3876] + 45 z[3877] + 74 z[3878] + 20 z[3879] + 33 z[3880]
   + 3 z[3881] + 51 z[3882] + 68 z[3883] + 55 z[3884] + 37 z[3885]
   + 57 z[3886] + 53 z[3887] + 57 z[3888] + 85 z[3889] + 38 z[3890]
   + 8 z[3891] + 41 z[3892] + 10 z[3893] + 43 z[3894] + 45 z[3895]
   + 59 z[3896] + 23 z[3897] + 43 z[3898] + 38 z[3899] + 45 z[3900]
   + 72 z[3901] + 20 z[3902] + 32 z[3903] + 16 z[3904] + 25 z[3905]
   + 25 z[3906] + 78 z[3907] + 69 z[3908] + 50 z[3909] + 97 z[3910]
   + 53 z[3911] + 4 z[3912] + 47 z[3913] + 20 z[3914] + 11 z[3915]
   + 36 z[3916] + 28 z[3917] + 63 z[3918] + 92 z[3919] + 12 z[3920]
   + 52 z[3921] + 99 z[3922] + 5 z[3923] + 62 z[3924] + 93 z[3925]
   + 49 z[3926] + 72 z[3927] + 16 z[3928] + 91 z[3929] + 9 z[3930]
   + 12 z[3931] + 14 z[3932] + 28 z[3933] + 44 z[3934] + 29 z[3935]
   + 4 z[3936] + 20 z[3937] + 7 z[3938] + 24 z[3939] + 22 z[3940]
   + 3 z[3941] + 76 z[3942] + 25 z[3943] + 2 z[3944] + 47 z[3945]
   + 35 z[3946] + 37 z[3947] + 75 z[3948] + 97 z[3949] + 28 z[3950]
   + 38 z[3951] + 49 z[3952] + 26 z[3953] + 42 z[3954] + 10 z[3955]
   + 71 z[3956] + 90 z[3957] + 81 z[3958] + 38 z[3959] + 32 z[3960]
   + 41 z[3961] + 49 z[3962] + 46 z[3963] + 20 z[3964] + 44 z[3965]
   + 26 z[3966] + 24 z[3967] + 64 z[3968] + 84 z[3969] + 47 z[3970]
   + 85 z[3971] + 87 z[3972] + 75 z[3973] + 61 z[3974] + 88 z[3975]
   + 73 z[3976] + 96 z[3977] + 24 z[3978] + 99 z[3979] + 44 z[3980]
   + 3 z[3981] + 37 z[3982] + 92 z[3983] + 28 z[3984] + 78 z[3985]
   + 53 z[3986] + 50 z[3987] + 20 z[3988] + 85 z[3989] + 87 z[3990]
   + 3 z[3991] + 25 z[3992] + 36 z[3993] + 100 z[3994] + 97 z[3995]
   + 31 z[3996] + 26 z[3997] + 72 z[3998] + 46 z[3999] + 9 z[4000]
   + 18 z[4001] + 82 z[4002] + 47 z[4003] + 44 z[4004] + 43 z[4005]
   + 86 z[4006] + 17 z[4007] + 38 z[4008] + 61 z[4009] + 67 z[4010]
   + 33 z[4011] + 63 z[4012] + 3 z[4013] + 25 z[4014] + 43 z[4015]
   + 33 z[4016] + 29 z[4017] + 92 z[4018] + 52 z[4019] + 14 z[4020]
   + 79 z[4021] + 6 z[4022] + 90 z[4023] + 66 z[4024] + 6 z[4025]
   + 86 z[4026] + 48 z[4027] + 83 z[4028] + 57 z[4029] + 94 z[4030]
   + 43 z[4031] + 27 z[4032] + 75 z[4033] + 90 z[4034] + 22 z[4035]
   + 17 z[4036] + 27 z[4037] + 90 z[4038] + 6 z[4039] + 88 z[4040]
   + 57 z[4041] + 39 z[4042] + 50 z[4043] + 59 z[4044] + 15 z[4045]
   + 44 z[4046] + 91 z[4047] + 43 z[4048] + 36 z[4049] + 94 z[4050]
   + 8 z[4051] + 66 z[4052] + 100 z[4053] + 98 z[4054] + 83 z[4055]
   + 57 z[4056] + 35 z[4057] + 30 z[4058] + 39 z[4059] + 44 z[4060]
   + 23 z[4061] + 81 z[4062] + 22 z[4063] + 50 z[4064] + 22 z[4065]
   + 43 z[4066] + 66 z[4067] + z[4068] + 85 z[4069] + 24 z[4070]
   + 88 z[4071] + 41 z[4072] + 62 z[4073] + 89 z[4074] + 51 z[4075]
   + 76 z[4076] + 85 z[4077] + 94 z[4078] + 70 z[4079] + 20 z[4080]
   + 87 z[4081] + 78 z[4082] + 37 z[4083] + 38 z[4084] + 27 z[4085]
   + 71 z[4086] + 94 z[4087] + 61 z[4088] + 100 z[4089] + 84 z[4090]
   + 56 z[4091] + 75 z[4092] + 17 z[4093] + 77 z[4094] + 76 z[4095]
   + 90 z[4096] + 72 z[4097] + 41 z[4098] + 90 z[4099] + 56 z[4100]
   + 64 z[4101] + 29 z[4102] + 48 z[4103] + 77 z[4104] + 18 z[4105]
   + 98 z[4106] + 4 z[4107] + 2 z[4108] + 91 z[4109] + 74 z[4110]
   + 73 z[4111] + 30 z[4112] + 3 z[4113] + 61 z[4114] + 67 z[4115]
   + 29 z[4116] + 31 z[4117] + 13 z[4118] + 89 z[4119] + 82 z[4120]
   + 96 z[4121] + 97 z[4122] + 8 z[4123] + 12 z[4124] + 73 z[4125]
   + 83 z[4126] + 2 z[4127] + 44 z[4128] + 76 z[4129] + 43 z[4130]
   + 51 z[4131] + 91 z[4132] + 72 z[4133] + 98 z[4134] + 20 z[4135]
   + 41 z[4136] + 96 z[4137] + 23 z[4138] + 42 z[4139] + 38 z[4140]
   + 96 z[4141] + 66 z[4142] + 67 z[4143] + 98 z[4144] + 78 z[4145]
   + 86 z[4146] + 78 z[4147] + 8 z[4148] + 98 z[4149] + 19 z[4150]
   + 41 z[4151] + 45 z[4152] + 15 z[4153] + z[4154] + 9 z[4155]
   + 87 z[4156] + 35 z[4157] + 62 z[4158] + 83 z[4159] + 10 z[4160]
   + 4 z[4161] + 33 z[4162] + 53 z[4163] + 27 z[4164] + 31 z[4165]
   + 72 z[4166] + 67 z[4167] + 26 z[4168] + 94 z[4169] + 60 z[4170]
   + 15 z[4171] + 42 z[4172] + 25 z[4173] + 82 z[4174] + 91 z[4175]
   + 54 z[4176] + 67 z[4177] + 69 z[4178] + 61 z[4179] + 16 z[4180]
   + 87 z[4181] + 54 z[4182] + 12 z[4183] + z[4184] + 6 z[4185]
   + 72 z[4186] + 39 z[4187] + 40 z[4188] + 33 z[4189] + 21 z[4190]
   + 2 z[4191] + 89 z[4192] + 54 z[4193] + 6 z[4194] + 15 z[4195]
   + 36 z[4196] + 77 z[4197] + 82 z[4198] + 13 z[4199] + 22 z[4200]
   + 41 z[4201] + 27 z[4202] + 63 z[4203] + 18 z[4204] + 8 z[4205]
   + 6 z[4206] + 71 z[4207] + 26 z[4208] + 74 z[4209] + 84 z[4210]
   + 93 z[4211] + 12 z[4212] + 89 z[4213] + 5 z[4214] + 12 z[4215]
   + 94 z[4216] + 76 z[4217] + 50 z[4218] + 33 z[4219] + 61 z[4220]
   + 23 z[4221] + 86 z[4222] + z[4223] + 76 z[4224] + 91 z[4225]
   + 15 z[4226] + 63 z[4227] + 19 z[4228] + 48 z[4229] + 75 z[4230]
   + 41 z[4231] + 41 z[4232] + z[4233] + 55 z[4234] + 10 z[4235]
   + 61 z[4236] + 60 z[4237] + 80 z[4238] + 38 z[4239] + 85 z[4240]
   + 15 z[4241] + 31 z[4242] + 96 z[4243] + 3 z[4244] + 87 z[4245]
   + 59 z[4246] + 48 z[4247] + 14 z[4248] + 61 z[4249] + 33 z[4250]
   + 26 z[4251] + 83 z[4252] + 18 z[4253] + 26 z[4254] + 10 z[4255]
   + 61 z[4256] + 93 z[4257] + 72 z[4258] + 79 z[4259] + 92 z[4260]
   + 46 z[4261] + 19 z[4262] + 32 z[4263] + 98 z[4264] + 26 z[4265]
   + 93 z[4266] + 10 z[4267] + 37 z[4268] + 25 z[4269] + 48 z[4270]
   + 22 z[4271] + 39 z[4272] + 30 z[4273] + 69 z[4274] + 94 z[4275]
   + 68 z[4276] + 28 z[4277] + 93 z[4278] + 81 z[4279] + 88 z[4280]
   + 25 z[4281] + 7 z[4282] + 70 z[4283] + 95 z[4284] + 84 z[4285]
   + 31 z[4286] + 55 z[4287] + 76 z[4288] + 2 z[4289] + 33 z[4290]
   + 20 z[4291] + 99 z[4292] + 4 z[4293] + 3 z[4294] + 48 z[4295]
   + 29 z[4296] + 96 z[4297] + 58 z[4298] + 17 z[4299] + 20 z[4300]
   + 57 z[4301] + 38 z[4302] + 10 z[4303] + 86 z[4304] + 59 z[4305]
   + 55 z[4306] + 5 z[4307] + 86 z[4308] + 48 z[4309] + 85 z[4310]
   + 25 z[4311] + 72 z[4312] + 43 z[4313] + 46 z[4314] + 18 z[4315]
   + 79 z[4316] + 76 z[4317] + 72 z[4318] + 54 z[4319] + 77 z[4320]
   + 57 z[4321] + 25 z[4322] + 27 z[4323] + 12 z[4324] + 28 z[4325]
   + 74 z[4326] + 92 z[4327] + 23 z[4328] + 83 z[4329] + 8 z[4330]
   + 94 z[4331] + 39 z[4332] + 46 z[4333] + 3 z[4334] + 76 z[4335]
   + 56 z[4336] + 10 z[4337] + 80 z[4338] + 41 z[4339] + 57 z[4340]
   + 17 z[4341] + 65 z[4342] + 80 z[4343] + 11 z[4344] + 10 z[4345]
   + 98 z[4346] + 89 z[4347] + 37 z[4348] + 21 z[4349] + 95 z[4350]
   + 65 z[4351] + 77 z[4352] + 19 z[4353] + 91 z[4354] + 88 z[4355]
   + 46 z[4356] + 16 z[4357] + 79 z[4358] + 20 z[4359] + 99 z[4360]
   + 39 z[4361] + 65 z[4362] + 89 z[4363] + 36 z[4364] + 20 z[4365]
   + 17 z[4366] + 91 z[4367] + 29 z[4368] + 48 z[4369] + 31 z[4370]
   + 85 z[4371] + 64 z[4372] + 47 z[4373] + 16 z[4374] + 27 z[4375]
   + 8 z[4376] + 13 z[4377] + 15 z[4378] + 44 z[4379] + 86 z[4380]
   + 9 z[4381] + 8 z[4382] + 62 z[4383] + 80 z[4384] + 50 z[4385]
   + 2 z[4386] + 77 z[4387] + 65 z[4388] + 32 z[4389] + 49 z[4390]
   + 63 z[4391] + 70 z[4392] + 13 z[4393] + 4 z[4394] + 5 z[4395]
   + 32 z[4396] + 20 z[4397] + 47 z[4398] + 12 z[4399] + 19 z[4400]
   + 77 z[4401] + 48 z[4402] + 35 z[4403] + 75 z[4404] + 64 z[4405]
   + 61 z[4406] + 82 z[4407] + 28 z[4408] + 75 z[4409] + 77 z[4410]
   + 13 z[4411] + 36 z[4412] + 36 z[4413] + 27 z[4414] + 15 z[4415]
   + 85 z[4416] + 28 z[4417] + 43 z[4418] + 50 z[4419] + 11 z[4420]
   + 91 z[4421] + 64 z[4422] + 33 z[4423] + 4 z[4424] + 67 z[4425]
   + 89 z[4426] + 87 z[4427] + 38 z[4428] + 36 z[4429] + 99 z[4430]
   + 57 z[4431] + 64 z[4432] + 98 z[4433] + 91 z[4434] + 39 z[4435]
   + 61 z[4436] + 51 z[4437] + 72 z[4438] + 89 z[4439] + 77 z[4440]
   + z[4441] + z[4442] + 64 z[4443] + 36 z[4444] + 27 z[4445] + 30 z[4446]
   + 21 z[4447] + 6 z[4448] + 73 z[4449] + 70 z[4450] + 69 z[4451]
   + 63 z[4452] + 85 z[4453] + 53 z[4454] + 18 z[4455] + 52 z[4456]
   + 41 z[4457] + 57 z[4458] + 41 z[4459] + 28 z[4460] + 7 z[4461]
   + 97 z[4462] + 92 z[4463] + 4 z[4464] + 39 z[4465] + 82 z[4466]
   + 65 z[4467] + 41 z[4468] + 5 z[4469] + 5 z[4470] + 18 z[4471]
   + 5 z[4472] + 5 z[4473] + 81 z[4474] + 41 z[4475] + 84 z[4476]
   + 11 z[4477] + 61 z[4478] + 41 z[4479] + 35 z[4480] + 82 z[4481]
   + 9 z[4482] + 97 z[4483] + 18 z[4484] + 61 z[4485] + 67 z[4486]
   + 69 z[4487] + 54 z[4488] + 75 z[4489] + 62 z[4490] + 81 z[4491]
   + 81 z[4492] + 10 z[4493] + 24 z[4494] + 36 z[4495] + 49 z[4496]
   + 57 z[4497] + 52 z[4498] + 89 z[4499] + 62 z[4500] + 56 z[4501]
   + 58 z[4502] + 66 z[4503] + 13 z[4504] + 91 z[4505] + 58 z[4506]
   + 96 z[4507] + z[4508] + 18 z[4509] + 36 z[4510] + 35 z[4511]
   + 51 z[4512] + 97 z[4513] + 83 z[4514] + 69 z[4515] + 57 z[4516]
   + z[4517] + 89 z[4518] + 62 z[4519] + 75 z[4520] + 50 z[4521]
   + 43 z[4522] + 7 z[4523] + 12 z[4524] + 18 z[4525] + 95 z[4526]
   + 60 z[4527] + 75 z[4528] + 46 z[4529] + 100 z[4530] + 88 z[4531]
   + 2 z[4532] + 58 z[4533] + 53 z[4534] + 14 z[4535] + 48 z[4536]
   + 63 z[4537] + 61 z[4538] + 100 z[4539] + 32 z[4540] + 96 z[4541]
   + 86 z[4542] + 83 z[4543] + 44 z[4544] + 20 z[4545] + 3 z[4546]
   + z[4547] + 21 z[4548] + 43 z[4549] + 62 z[4550] + 47 z[4551]
   + 45 z[4552] + 56 z[4553] + 6 z[4554] + 56 z[4555] + 26 z[4556]
   + 100 z[4557] + 15 z[4558] + 52 z[4559] + 45 z[4560] + 14 z[4561]
   + 39 z[4562] + 98 z[4563] + 23 z[4564] + 43 z[4565] + 63 z[4566]
   + 70 z[4567] + 5 z[4568] + 23 z[4569] + 69 z[4570] + 37 z[4571]
   + 71 z[4572] + 54 z[4573] + 71 z[4574] + 14 z[4575] + 74 z[4576]
   + 25 z[4577] + 66 z[4578] + 46 z[4579] + 67 z[4580] + 80 z[4581]
   + 44 z[4582] + 11 z[4583] + 87 z[4584] + 49 z[4585] + 18 z[4586]
   + 12 z[4587] + 48 z[4588] + 32 z[4589] + 15 z[4590] + 45 z[4591]
   + 98 z[4592] + 53 z[4593] + 42 z[4594] + 20 z[4595] + 96 z[4596]
   + 57 z[4597] + 42 z[4598] + 52 z[4599] + 79 z[4600] + 62 z[4601]
   + 40 z[4602] + z[4603] + 16 z[4604] + 10 z[4605] + 15 z[4606]
   + 41 z[4607] + 34 z[4608] + 32 z[4609] + 38 z[4610] + 53 z[4611]
   + 11 z[4612] + 81 z[4613] + 63 z[4614] + 50 z[4615] + 30 z[4616]
   + 81 z[4617] + 13 z[4618] + 29 z[4619] + 64 z[4620] + 28 z[4621]
   + 25 z[4622] + 13 z[4623] + 80 z[4624] + 19 z[4625] + 85 z[4626]
   + 27 z[4627] + 75 z[4628] + 26 z[4629] + 31 z[4630] + 53 z[4631]
   + 87 z[4632] + 70 z[4633] + 6 z[4634] + 54 z[4635] + 80 z[4636]
   + 72 z[4637] + 46 z[4638] + 65 z[4639] + 3 z[4640] + 83 z[4641]
   + 17 z[4642] + 66 z[4643] + 64 z[4644] + 32 z[4645] + 15 z[4646]
   + 45 z[4647] + 64 z[4648] + 27 z[4649] + 25 z[4650] + 79 z[4651]
   + 54 z[4652] + 50 z[4653] + 44 z[4654] + 86 z[4655] + 68 z[4656]
   + 28 z[4657] + 64 z[4658] + 94 z[4659] + 5 z[4660] + 94 z[4661]
   + 46 z[4662] + 43 z[4663] + 64 z[4664] + 3 z[4665] + 97 z[4666]
   + 95 z[4667] + 74 z[4668] + 94 z[4669] + 59 z[4670] + 77 z[4671]
   + 77 z[4672] + 28 z[4673] + 94 z[4674] + 92 z[4675] + 11 z[4676]
   + 8 z[4677] + 88 z[4678] + 74 z[4679] + 86 z[4680] + 12 z[4681]
   + 4 z[4682] + 92 z[4683] + 13 z[4684] + 47 z[4685] + 29 z[4686]
   + 32 z[4687] + 74 z[4688] + 92 z[4689] + 25 z[4690] + 30 z[4691]
   + 86 z[4692] + 23 z[4693] + 73 z[4694] + 49 z[4695] + 25 z[4696]
   + 21 z[4697] + 95 z[4698] + 99 z[4699] + 14 z[4700] + 53 z[4701]
   + 27 z[4702] + 42 z[4703] + 32 z[4704] + 20 z[4705] + 85 z[4706]
   + 42 z[4707] + 79 z[4708] + 72 z[4709] + 67 z[4710] + 16 z[4711]
   + 36 z[4712] + 71 z[4713] + 59 z[4714] + 48 z[4715] + 17 z[4716]
   + 87 z[4717] + 32 z[4718] + 91 z[4719] + 79 z[4720] + 56 z[4721]
   + 20 z[4722] + 16 z[4723] + 78 z[4724] + 44 z[4725] + 16 z[4726]
   + 55 z[4727] + 64 z[4728] + 10 z[4729] + 5 z[4730] + 30 z[4731]
   + 14 z[4732] + 31 z[4733] + 71 z[4734] + 46 z[4735] + 2 z[4736]
   + 56 z[4737] + 87 z[4738] + 32 z[4739] + 79 z[4740] + 54 z[4741]
   + 47 z[4742] + 14 z[4743] + 24 z[4744] + 58 z[4745] + 14 z[4746]
   + 92 z[4747] + 44 z[4748] + 45 z[4749] + 82 z[4750] + 74 z[4751]
   + 100 z[4752] + 54 z[4753] + 89 z[4754] + 30 z[4755] + 97 z[4756]
   + 4 z[4757] + 84 z[4758] + 61 z[4759] + 13 z[4760] + 40 z[4761]
   + 42 z[4762] + 27 z[4763] + 70 z[4764] + 12 z[4765] + 24 z[4766]
   + 23 z[4767] + 19 z[4768] + 62 z[4769] + 54 z[4770] + 98 z[4771]
   + 67 z[4772] + 52 z[4773] + 11 z[4774] + 42 z[4775] + 61 z[4776]
   + 24 z[4777] + 34 z[4778] + 5 z[4779] + 68 z[4780] + 15 z[4781]
   + 78 z[4782] + 20 z[4783] + 20 z[4784] + 19 z[4785] + 49 z[4786]
   + 69 z[4787] + 22 z[4788] + 84 z[4789] + 81 z[4790] + 87 z[4791]
   + 23 z[4792] + 22 z[4793] + 65 z[4794] + 44 z[4795] + 33 z[4796]
   + 88 z[4797] + 18 z[4798] + 52 z[4799] + 49 z[4800] + 23 z[4801]
   + 49 z[4802] + 16 z[4803] + 74 z[4804] + 59 z[4805] + 57 z[4806]
   + 35 z[4807] + 35 z[4808] + 90 z[4809] + 91 z[4810] + 54 z[4811]
   + 57 z[4812] + 20 z[4813] + 73 z[4814] + 28 z[4815] + 38 z[4816]
   + 73 z[4817] + 96 z[4818] + 12 z[4819] + 8 z[4820] + 76 z[4821]
   + 98 z[4822] + 82 z[4823] + 97 z[4824] + 14 z[4825] + 77 z[4826]
   + 30 z[4827] + z[4828] + 94 z[4829] + 33 z[4830] + 49 z[4831]
   + 16 z[4832] + 81 z[4833] + 16 z[4834] + 42 z[4835] + 91 z[4836]
   + 25 z[4837] + 28 z[4838] + 77 z[4839] + 14 z[4840] + 18 z[4841]
   + 31 z[4842] + 22 z[4843] + 89 z[4844] + 55 z[4845] + 50 z[4846]
   + 27 z[4847] + 28 z[4848] + 45 z[4849] + 90 z[4850] + 87 z[4851]
   + 21 z[4852] + 39 z[4853] + 69 z[4854] + 69 z[4855] + 52 z[4856]
   + 45 z[4857] + 98 z[4858] + 52 z[4859] + 91 z[4860] + 82 z[4861]
   + 52 z[4862] + 6 z[4863] + 62 z[4864] + 20 z[4865] + 99 z[4866]
   + 5 z[4867] + 44 z[4868] + 26 z[4869] + 81 z[4870] + 9 z[4871]
   + 95 z[4872] + 63 z[4873] + 31 z[4874] + 84 z[4875] + 18 z[4876]
   + 32 z[4877] + 62 z[4878] + 97 z[4879] + 76 z[4880] + 51 z[4881]
   + 83 z[4882] + 48 z[4883] + 89 z[4884] + 3 z[4885] + 17 z[4886]
   + 40 z[4887] + 100 z[4888] + 66 z[4889] + 43 z[4890] + 90 z[4891]
   + 48 z[4892] + 46 z[4893] + 47 z[4894] + 61 z[4895] + 65 z[4896]
   + 46 z[4897] + 17 z[4898] + 8 z[4899] + 71 z[4900] + 50 z[4901]
   + 17 z[4902] + 66 z[4903] + 12 z[4904] + 99 z[4905] + 49 z[4906]
   + 29 z[4907] + 30 z[4908] + 62 z[4909] + 25 z[4910] + 57 z[4911]
   + 12 z[4912] + 60 z[4913] + 57 z[4914] + 52 z[4915] + 62 z[4916]
   + 25 z[4917] + 43 z[4918] + 61 z[4919] + 42 z[4920] + 85 z[4921]
   + 2 z[4922] + 41 z[4923] + 82 z[4924] + 49 z[4925] + 2 z[4926]
   + 47 z[4927] + 46 z[4928] + 70 z[4929] + 6 z[4930] + 16 z[4931]
   + 19 z[4932] + 22 z[4933] + 33 z[4934] + 31 z[4935] + 72 z[4936]
   + 33 z[4937] + 11 z[4938] + 53 z[4939] + 94 z[4940] + 88 z[4941]
   + 10 z[4942] + 57 z[4943] + 99 z[4944] + 18 z[4945] + 8 z[4946]
   + 60 z[4947] + 42 z[4948] + 50 z[4949] + 73 z[4950] + 35 z[4951]
   + 86 z[4952] + 26 z[4953] + 76 z[4954] + 68 z[4955] + 26 z[4956]
   + 29 z[4957] + 14 z[4958] + 71 z[4959] + 98 z[4960] + 19 z[4961]
   + 39 z[4962] + 69 z[4963] + 93 z[4964] + 23 z[4965] + 51 z[4966]
   + 16 z[4967] + 56 z[4968] + 61 z[4969] + 69 z[4970] + z[4971]
   + 100 z[4972] + 78 z[4973] + 58 z[4974] + 98 z[4975] + 47 z[4976]
   + 65 z[4977] + 10 z[4978] + 40 z[4979] + 67 z[4980] + 82 z[4981]
   + 74 z[4982] + 52 z[4983] + 59 z[4984] + z[4985] + 19 z[4986]
   + 85 z[4987] + 29 z[4988] + 84 z[4989] + 7 z[4990] + 79 z[4991]
   + 55 z[4992] + 45 z[4993] + 99 z[4994] + 99 z[4995] + 20 z[4996]
   + 49 z[4997] + 14 z[4998] + 27 z[4999] >= 126006.5
Bounds
Binaries
 y[0] y[1] y[2] y[3] y[4] y[5] y[6] y[7] y[8] y[9] y[10] y[11] y[12] y[13]
 y[14] y[15] y[16] y[17] y[18] y[19] y[20] y[21] y[22] y[23] y[24] y[25]
 y[26] y[27] y[28] y[29] y[30] y[31] y[32] y[33] y[34] y[35] y[36] y[37]
 y[38] y[39] y[40] y[41] y[42] y[43] y[44] y[45] y[46] y[47] y[48] y[49]
 y[50] y[51] y[52] y[53] y[54] y[55] y[56] y[57] y[58] y[59] y[60] y[61]
 y[62] y[63] y[64] y[65] y[66] y[67] y[68] y[69] y[70] y[71] y[72] y[73]
 y[74] y[75] y[76] y[77] y[78] y[79] y[80] y[81] y[82] y[83] y[84] y[85]
 y[86] y[87] y[88] y[89] y[90] y[91] y[92] y[93] y[94] y[95] y[96] y[97]
 y[98] y[99] z[0] z[1] z[2] z[3] z[4] z[5] z[6] z[7] z[8] z[9] z[10] z[11]
 z[12] z[13] z[14] z[15] z[16] z[17] z[18] z[19] z[20] z[21] z[22] z[23]
 z[24] z[25] z[26] z[27] z[28] z[29] z[30] z[31] z[32] z[33] z[34] z[35]
 z[36] z[37] z[38] z[39] z[40] z[41] z[42] z[43] z[44] z[45] z[46] z[47]
 z[48] z[49] z[50] z[51] z[52] z[53] z[54] z[55] z[56] z[57] z[58] z[59]
 z[60] z[61] z[62] z[63] z[64] z[65] z[66] z[67] z[68] z[69] z[70] z[71]
 z[72] z[73] z[74] z[75] z[76] z[77] z[78] z[79] z[80] z[81] z[82] z[83]
 z[84] z[85] z[86] z[87] z[88] z[89] z[90] z[91] z[92] z[93] z[94] z[95]
 z[96] z[97] z[98] z[99] z[100] z[101] z[102] z[103] z[104] z[105] z[106]
 z[107] z[108] z[109] z[110] z[111] z[112] z[113] z[114] z[115] z[116]
 z[117] z[118] z[119] z[120] z[121] z[122] z[123] z[124] z[125] z[126]
 z[127] z[128] z[129] z[130] z[131] z[132] z[133] z[134] z[135] z[136]
 z[137] z[138] z[139] z[140] z[141] z[142] z[143] z[144] z[145] z[146]
 z[147] z[148] z[149] z[150] z[151] z[152] z[153] z[154] z[155] z[156]
 z[157] z[158] z[159] z[160] z[161] z[162] z[163] z[164] z[165] z[166]
 z[167] z[168] z[169] z[170] z[171] z[172] z[173] z[174] z[175] z[176]
 z[177] z[178] z[179] z[180] z[181] z[182] z[183] z[184] z[185] z[186]
 z[187] z[188] z[189] z[190] z[191] z[192] z[193] z[194] z[195] z[196]
 z[197] z[198] z[199] z[200] z[201] z[202] z[203] z[204] z[205] z[206]
 z[207] z[208] z[209] z[210] z[211] z[212] z[213] z[214] z[215] z[216]
 z[217] z[218] z[219] z[220] z[221] z[222] z[223] z[224] z[225] z[226]
 z[227] z[228] z[229] z[230] z[231] z[232] z[233] z[234] z[235] z[236]
 z[237] z[238] z[239] z[240] z[241] z[242] z[243] z[244] z[245] z[246]
 z[247] z[248] z[249] z[250] z[251] z[252] z[253] z[254] z[255] z[256]
 z[257] z[258] z[259] z[260] z[261] z[262] z[263] z[264] z[265] z[266]
 z[267] z[268] z[269] z[270] z[271] z[272] z[273] z[274] z[275] z[276]
 z[277] z[278] z[279] z[280] z[281] z[282] z[283] z[284] z[285] z[286]
 z[287] z[288] z[289] z[290] z[291] z[292] z[293] z[294] z[295] z[296]
 z[297] z[298] z[299] z[300] z[301] z[302] z[303] z[304] z[305] z[306]
 z[307] z[308] z[309] z[310] z[311] z[312] z[313] z[314] z[315] z[316]
 z[317] z[318] z[319] z[320] z[321] z[322] z[323] z[324] z[325] z[326]
 z[327] z[328] z[329] z[330] z[331] z[332] z[333] z[334] z[335] z[336]
 z[337] z[338] z[339] z[340] z[341] z[342] z[343] z[344] z[345] z[346]
 z[347] z[348] z[349] z[350] z[351] z[352] z[353] z[354] z[355] z[356]
 z[357] z[358] z[359] z[360] z[361] z[362] z[363] z[364] z[365] z[366]
 z[367] z[368] z[369] z[370] z[371] z[372] z[373] z[374] z[375] z[376]
 z[377] z[378] z[379] z[380] z[381] z[382] z[383] z[384] z[385] z[386]
 z[387] z[388] z[389] z[390] z[391] z[392] z[393] z[394] z[395] z[396]
 z[397] z[398] z[399] z[400] z[401] z[402] z[403] z[404] z[405] z[406]
 z[407] z[408] z[409] z[410] z[411] z[412] z[413] z[414] z[415] z[416]
 z[417] z[418] z[419] z[420] z[421] z[422] z[423] z[424] z[425] z[426]
 z[427] z[428] z[429] z[430] z[431] z[432] z[433] z[434] z[435] z[436]
 z[437] z[438] z[439] z[440] z[441] z[442] z[443] z[444] z[445] z[446]
 z[447] z[448] z[449] z[450] z[451] z[452] z[453] z[454] z[455] z[456]
 z[457] z[458] z[459] z[460] z[461] z[462] z[463] z[464] z[465] z[466]
 z[467] z[468] z[469] z[470] z[471] z[472] z[473] z[474] z[475] z[476]
 z[477] z[478] z[479] z[480] z[481] z[482] z[483] z[484] z[485] z[486]
 z[487] z[488] z[489] z[490] z[491] z[492] z[493] z[494] z[495] z[496]
 z[497] z[498] z[499] z[500] z[501] z[502] z[503] z[504] z[505] z[506]
 z[507] z[508] z[509] z[510] z[511] z[512] z[513] z[514] z[515] z[516]
 z[517] z[518] z[519] z[520] z[521] z[522] z[523] z[524] z[525] z[526]
 z[527] z[528] z[529] z[530] z[531] z[532] z[533] z[534] z[535] z[536]
 z[537] z[538] z[539] z[540] z[541] z[542] z[543] z[544] z[545] z[546]
 z[547] z[548] z[549] z[550] z[551] z[552] z[553] z[554] z[555] z[556]
 z[557] z[558] z[559] z[560] z[561] z[562] z[563] z[564] z[565] z[566]
 z[567] z[568] z[569] z[570] z[571] z[572] z[573] z[574] z[575] z[576]
 z[577] z[578] z[579] z[580] z[581] z[582] z[583] z[584] z[585] z[586]
 z[587] z[588] z[589] z[590] z[591] z[592] z[593] z[594] z[595] z[596]
 z[597] z[598] z[599] z[600] z[601] z[602] z[603] z[604] z[605] z[606]
 z[607] z[608] z[609] z[610] z[611] z[612] z[613] z[614] z[615] z[616]
 z[617] z[618] z[619] z[620] z[621] z[622] z[623] z[624] z[625] z[626]
 z[627] z[628] z[629] z[630] z[631] z[632] z[633] z[634] z[635] z[636]
 z[637] z[638] z[639] z[640] z[641] z[642] z[643] z[644] z[645] z[646]
 z[647] z[648] z[649] z[650] z[651] z[652] z[653] z[654] z[655] z[656]
 z[657] z[658] z[659] z[660] z[661] z[662] z[663] z[664] z[665] z[666]
 z[667] z[668] z[669] z[670] z[671] z[672] z[673] z[674] z[675] z[676]
 z[677] z[678] z[679] z[680] z[681] z[682] z[683] z[684] z[685] z[686]
 z[687] z[688] z[689] z[690] z[691] z[692] z[693] z[694] z[695] z[696]
 z[697] z[698] z[699] z[700] z[701] z[702] z[703] z[704] z[705] z[706]
 z[707] z[708] z[709] z[710] z[711] z[712] z[713] z[714] z[715] z[716]
 z[717] z[718] z[719] z[720] z[721] z[722] z[723] z[724] z[725] z[726]
 z[727] z[728] z[729] z[730] z[731] z[732] z[733] z[734] z[735] z[736]
 z[737] z[738] z[739] z[740] z[741] z[742] z[743] z[744] z[745] z[746]
 z[747] z[748] z[749] z[750] z[751] z[752] z[753] z[754] z[755] z[756]
 z[757] z[758] z[759] z[760] z[761] z[762] z[763] z[764] z[765] z[766]
 z[767] z[768] z[769] z[770] z[771] z[772] z[773] z[774] z[775] z[776]
 z[777] z[778] z[779] z[780] z[781] z[782] z[783] z[784] z[785] z[786]
 z[787] z[788] z[789] z[790] z[791] z[792] z[793] z[794] z[795] z[796]
 z[797] z[798] z[799] z[800] z[801] z[802] z[803] z[804] z[805] z[806]
 z[807] z[808] z[809] z[810] z[811] z[812] z[813] z[814] z[815] z[816]
 z[817] z[818] z[819] z[820] z[821] z[822] z[823] z[824] z[825] z[826]
 z[827] z[828] z[829] z[830] z[831] z[832] z[833] z[834] z[835] z[836]
 z[837] z[838] z[839] z[840] z[841] z[842] z[843] z[844] z[845] z[846]
 z[847] z[848] z[849] z[850] z[851] z[852] z[853] z[854] z[855] z[856]
 z[857] z[858] z[859] z[860] z[861] z[862] z[863] z[864] z[865] z[866]
 z[867] z[868] z[869] z[870] z[871] z[872] z[873] z[874] z[875] z[876]
 z[877] z[878] z[879] z[880] z[881] z[882] z[883] z[884] z[885] z[886]
 z[887] z[888] z[889] z[890] z[891] z[892] z[893] z[894] z[895] z[896]
 z[897] z[898] z[899] z[900] z[901] z[902] z[903] z[904] z[905] z[906]
 z[907] z[908] z[909] z[910] z[911] z[912] z[913] z[914] z[915] z[916]
 z[917] z[918] z[919] z[920] z[921] z[922] z[923] z[924] z[925] z[926]
 z[927] z[928] z[929] z[930] z[931] z[932] z[933] z[934] z[935] z[936]
 z[937] z[938] z[939] z[940] z[941] z[942] z[943] z[944] z[945] z[946]
 z[947] z[948] z[949] z[950] z[951] z[952] z[953] z[954] z[955] z[956]
 z[957] z[958] z[959] z[960] z[961] z[962] z[963] z[964] z[965] z[966]
 z[967] z[968] z[969] z[970] z[971] z[972] z[973] z[974] z[975] z[976]
 z[977] z[978] z[979] z[980] z[981] z[982] z[983] z[984] z[985] z[986]
 z[987] z[988] z[989] z[990] z[991] z[992] z[993] z[994] z[995] z[996]
 z[997] z[998] z[999] z[1000] z[1001] z[1002] z[1003] z[1004] z[1005]
 z[1006] z[1007] z[1008] z[1009] z[1010] z[1011] z[1012] z[1013] z[1014]
 z[1015] z[1016] z[1017] z[1018] z[1019] z[1020] z[1021] z[1022] z[1023]
 z[1024] z[1025] z[1026] z[1027] z[1028] z[1029] z[1030] z[1031] z[1032]
 z[1033] z[1034] z[1035] z[1036] z[1037] z[1038] z[1039] z[1040] z[1041]
 z[1042] z[1043] z[1044] z[1045] z[1046] z[1047] z[1048] z[1049] z[1050]
 z[1051] z[1052] z[1053] z[1054] z[1055] z[1056] z[1057] z[1058] z[1059]
 z[1060] z[1061] z[1062] z[1063] z[1064] z[1065] z[1066] z[1067] z[1068]
 z[1069] z[1070] z[1071] z[1072] z[1073] z[1074] z[1075] z[1076] z[1077]
 z[1078] z[1079] z[1080] z[1081] z[1082] z[1083] z[1084] z[1085] z[1086]
 z[1087] z[1088] z[1089] z[1090] z[1091] z[1092] z[1093] z[1094] z[1095]
 z[1096] z[1097] z[1098] z[1099] z[1100] z[1101] z[1102] z[1103] z[1104]
 z[1105] z[1106] z[1107] z[1108] z[1109] z[1110] z[1111] z[1112] z[1113]
 z[1114] z[1115] z[1116] z[1117] z[1118] z[1119] z[1120] z[1121] z[1122]
 z[1123] z[1124] z[1125] z[1126] z[1127] z[1128] z[1129] z[1130] z[1131]
 z[1132] z[1133] z[1134] z[1135] z[1136] z[1137] z[1138] z[1139] z[1140]
 z[1141] z[1142] z[1143] z[1144] z[1145] z[1146] z[1147] z[1148] z[1149]
 z[1150] z[1151] z[1152] z[1153] z[1154] z[1155] z[1156] z[1157] z[1158]
 z[1159] z[1160] z[1161] z[1162] z[1163] z[1164] z[1165] z[1166] z[1167]
 z[1168] z[1169] z[1170] z[1171] z[1172] z[1173] z[1174] z[1175] z[1176]
 z[1177] z[1178] z[1179] z[1180] z[1181] z[1182] z[1183] z[1184] z[1185]
 z[1186] z[1187] z[1188] z[1189] z[1190] z[1191] z[1192] z[1193] z[1194]
 z[1195] z[1196] z[1197] z[1198] z[1199] z[1200] z[1201] z[1202] z[1203]
 z[1204] z[1205] z[1206] z[1207] z[1208] z[1209] z[1210] z[1211] z[1212]
 z[1213] z[1214] z[1215] z[1216] z[1217] z[1218] z[1219] z[1220] z[1221]
 z[1222] z[1223] z[1224] z[1225] z[1226] z[1227] z[1228] z[1229] z[1230]
 z[1231] z[1232] z[1233] z[1234] z[1235] z[1236] z[1237] z[1238] z[1239]
 z[1240] z[1241] z[1242] z[1243] z[1244] z[1245] z[1246] z[1247] z[1248]
 z[1249] z[1250] z[1251] z[1252] z[1253] z[1254] z[1255] z[1256] z[1257]
 z[1258] z[1259] z[1260] z[1261] z[1262] z[1263] z[1264] z[1265] z[1266]
 z[1267] z[1268] z[1269] z[1270] z[1271] z[1272] z[1273] z[1274] z[1275]
 z[1276] z[1277] z[1278] z[1279] z[1280] z[1281] z[1282] z[1283] z[1284]
 z[1285] z[1286] z[1287] z[1288] z[1289] z[1290] z[1291] z[1292] z[1293]
 z[1294] z[1295] z[1296] z[1297] z[1298] z[1299] z[1300] z[1301] z[1302]
 z[1303] z[1304] z[1305] z[1306] z[1307] z[1308] z[1309] z[1310] z[1311]
 z[1312] z[1313] z[1314] z[1315] z[1316] z[1317] z[1318] z[1319] z[1320]
 z[1321] z[1322] z[1323] z[1324] z[1325] z[1326] z[1327] z[1328] z[1329]
 z[1330] z[1331] z[1332] z[1333] z[1334] z[1335] z[1336] z[1337] z[1338]
 z[1339] z[1340] z[1341] z[1342] z[1343] z[1344] z[1345] z[1346] z[1347]
 z[1348] z[1349] z[1350] z[1351] z[1352] z[1353] z[1354] z[1355] z[1356]
 z[1357] z[1358] z[1359] z[1360] z[1361] z[1362] z[1363] z[1364] z[1365]
 z[1366] z[1367] z[1368] z[1369] z[1370] z[1371] z[1372] z[1373] z[1374]
 z[1375] z[1376] z[1377] z[1378] z[1379] z[1380] z[1381] z[1382] z[1383]
 z[1384] z[1385] z[1386] z[1387] z[1388] z[1389] z[1390] z[1391] z[1392]
 z[1393] z[1394] z[1395] z[1396] z[1397] z[1398] z[1399] z[1400] z[1401]
 z[1402] z[1403] z[1404] z[1405] z[1406] z[1407] z[1408] z[1409] z[1410]
 z[1411] z[1412] z[1413] z[1414] z[1415] z[1416] z[1417] z[1418] z[1419]
 z[1420] z[1421] z[1422] z[1423] z[1424] z[1425] z[1426] z[1427] z[1428]
 z[1429] z[1430] z[1431] z[1432] z[1433] z[1434] z[1435] z[1436] z[1437]
 z[1438] z[1439] z[1440] z[1441] z[1442] z[1443] z[1444] z[1445] z[1446]
 z[1447] z[1448] z[1449] z[1450] z[1451] z[1452] z[1453] z[1454] z[1455]
 z[1456] z[1457] z[1458] z[1459] z[1460] z[1461] z[1462] z[1463] z[1464]
 z[1465] z[1466] z[1467] z[1468] z[1469] z[1470] z[1471] z[1472] z[1473]
 z[1474] z[1475] z[1476] z[1477] z[1478] z[1479] z[1480] z[1481] z[1482]
 z[1483] z[1484] z[1485] z[1486] z[1487] z[1488] z[1489] z[1490] z[1491]
 z[1492] z[1493] z[1494] z[1495] z[1496] z[1497] z[1498] z[1499] z[1500]
 z[1501] z[1502] z[1503] z[1504] z[1505] z[1506] z[1507] z[1508] z[1509]
 z[1510] z[1511] z[1512] z[1513] z[1514] z[1515] z[1516] z[1517] z[1518]
 z[1519] z[1520] z[1521] z[1522] z[1523] z[1524] z[1525] z[1526] z[1527]
 z[1528] z[1529] z[1530] z[1531] z[1532] z[1533] z[1534] z[1535] z[1536]
 z[1537] z[1538] z[1539] z[1540] z[1541] z[1542] z[1543] z[1544] z[1545]
 z[1546] z[1547] z[1548] z[1549] z[1550] z[1551] z[1552] z[1553] z[1554]
 z[1555] z[1556] z[1557] z[1558] z[1559] z[1560] z[1561] z[1562] z[1563]
 z[1564] z[1565] z[1566] z[1567] z[1568] z[1569] z[1570] z[1571] z[1572]
 z[1573] z[1574] z[1575] z[1576] z[1577] z[1578] z[1579] z[1580] z[1581]
 z[1582] z[1583] z[1584] z[1585] z[1586] z[1587] z[1588] z[1589] z[1590]
 z[1591] z[1592] z[1593] z[1594] z[1595] z[1596] z[1597] z[1598] z[1599]
 z[1600] z[1601] z[1602] z[1603] z[1604] z[1605] z[1606] z[1607] z[1608]
 z[1609] z[1610] z[1611] z[1612] z[1613] z[1614] z[1615] z[1616] z[1617]
 z[1618] z[1619] z[1620] z[1621] z[1622] z[1623] z[1624] z[1625] z[1626]
 z[1627] z[1628] z[1629] z[1630] z[1631] z[1632] z[1633] z[1634] z[1635]
 z[1636] z[1637] z[1638] z[1639] z[1640] z[1641] z[1642] z[1643] z[1644]
 z[1645] z[1646] z[1647] z[1648] z[1649] z[1650] z[1651] z[1652] z[1653]
 z[1654] z[1655] z[1656] z[1657] z[1658] z[1659] z[1660] z[1661] z[1662]
 z[1663] z[1664] z[1665] z[1666] z[1667] z[1668] z[1669] z[1670] z[1671]
 z[1672] z[1673] z[1674] z[1675] z[1676] z[1677] z[1678] z[1679] z[1680]
 z[1681] z[1682] z[1683] z[1684] z[1685] z[1686] z[1687] z[1688] z[1689]
 z[1690] z[1691] z[1692] z[1693] z[1694] z[1695] z[1696] z[1697] z[1698]
 z[1699] z[1700] z[1701] z[1702] z[1703] z[1704] z[1705] z[1706] z[1707]
 z[1708] z[1709] z[1710] z[1711] z[1712] z[1713] z[1714] z[1715] z[1716]
 z[1717] z[1718] z[1719] z[1720] z[1721] z[1722] z[1723] z[1724] z[1725]
 z[1726] z[1727] z[1728] z[1729] z[1730] z[1731] z[1732] z[1733] z[1734]
 z[1735] z[1736] z[1737] z[1738] z[1739] z[1740] z[1741] z[1742] z[1743]
 z[1744] z[1745] z[1746] z[1747] z[1748] z[1749] z[1750] z[1751] z[1752]
 z[1753] z[1754] z[1755] z[1756] z[1757] z[1758] z[1759] z[1760] z[1761]
 z[1762] z[1763] z[1764] z[1765] z[1766] z[1767] z[1768] z[1769] z[1770]
 z[1771] z[1772] z[1773] z[1774] z[1775] z[1776] z[1777] z[1778] z[1779]
 z[1780] z[1781] z[1782] z[1783] z[1784] z[1785] z[1786] z[1787] z[1788]
 z[1789] z[1790] z[1791] z[1792] z[1793] z[1794] z[1795] z[1796] z[1797]
 z[1798] z[1799] z[1800] z[1801] z[1802] z[1803] z[1804] z[1805] z[1806]
 z[1807] z[1808] z[1809] z[1810] z[1811] z[1812] z[1813] z[1814] z[1815]
 z[1816] z[1817] z[1818] z[1819] z[1820] z[1821] z[1822] z[1823] z[1824]
 z[1825] z[1826] z[1827] z[1828] z[1829] z[1830] z[1831] z[1832] z[1833]
 z[1834] z[1835] z[1836] z[1837] z[1838] z[1839] z[1840] z[1841] z[1842]
 z[1843] z[1844] z[1845] z[1846] z[1847] z[1848] z[1849] z[1850] z[1851]
 z[1852] z[1853] z[1854] z[1855] z[1856] z[1857] z[1858] z[1859] z[1860]
 z[1861] z[1862] z[1863] z[1864] z[1865] z[1866] z[1867] z[1868] z[1869]
 z[1870] z[1871] z[1872] z[1873] z[1874] z[1875] z[1876] z[1877] z[1878]
 z[1879] z[1880] z[1881] z[1882] z[1883] z[1884] z[1885] z[1886] z[1887]
 z[1888] z[1889] z[1890] z[1891] z[1892] z[1893] z[1894] z[1895] z[1896]
 z[1897] z[1898] z[1899] z[1900] z[1901] z[1902] z[1903] z[1904] z[1905]
 z[1906] z[1907] z[1908] z[1909] z[1910] z[1911] z[1912] z[1913] z[1914]
 z[1915] z[1916] z[1917] z[1918] z[1919] z[1920] z[1921] z[1922] z[1923]
 z[1924] z[1925] z[1926] z[1927] z[1928] z[1929] z[1930] z[1931] z[1932]
 z[1933] z[1934] z[1935] z[1936] z[1937] z[1938] z[1939] z[1940] z[1941]
 z[1942] z[1943] z[1944] z[1945] z[1946] z[1947] z[1948] z[1949] z[1950]
 z[1951] z[1952] z[1953] z[1954] z[1955] z[1956] z[1957] z[1958] z[1959]
 z[1960] z[1961] z[1962] z[1963] z[1964] z[1965] z[1966] z[1967] z[1968]
 z[1969] z[1970] z[1971] z[1972] z[1973] z[1974] z[1975] z[1976] z[1977]
 z[1978] z[1979] z[1980] z[1981] z[1982] z[1983] z[1984] z[1985] z[1986]
 z[1987] z[1988] z[1989] z[1990] z[1991] z[1992] z[1993] z[1994] z[1995]
 z[1996] z[1997] z[1998] z[1999] z[2000] z[2001] z[2002] z[2003] z[2004]
 z[2005] z[2006] z[2007] z[2008] z[2009] z[2010] z[2011] z[2012] z[2013]
 z[2014] z[2015] z[2016] z[2017] z[2018] z[2019] z[2020] z[2021] z[2022]
 z[2023] z[2024] z[2025] z[2026] z[2027] z[2028] z[2029] z[2030] z[2031]
 z[2032] z[2033] z[2034] z[2035] z[2036] z[2037] z[2038] z[2039] z[2040]
 z[2041] z[2042] z[2043] z[2044] z[2045] z[2046] z[2047] z[2048] z[2049]
 z[2050] z[2051] z[2052] z[2053] z[2054] z[2055] z[2056] z[2057] z[2058]
 z[2059] z[2060] z[2061] z[2062] z[2063] z[2064] z[2065] z[2066] z[2067]
 z[2068] z[2069] z[2070] z[2071] z[2072] z[2073] z[2074] z[2075] z[2076]
 z[2077] z[2078] z[2079] z[2080] z[2081] z[2082] z[2083] z[2084] z[2085]
 z[2086] z[2087] z[2088] z[2089] z[2090] z[2091] z[2092] z[2093] z[2094]
 z[2095] z[2096] z[2097] z[2098] z[2099] z[2100] z[2101] z[2102] z[2103]
 z[2104] z[2105] z[2106] z[2107] z[2108] z[2109] z[2110] z[2111] z[2112]
 z[2113] z[2114] z[2115] z[2116] z[2117] z[2118] z[2119] z[2120] z[2121]
 z[2122] z[2123] z[2124] z[2125] z[2126] z[2127] z[2128] z[2129] z[2130]
 z[2131] z[2132] z[2133] z[2134] z[2135] z[2136] z[2137] z[2138] z[2139]
 z[2140] z[2141] z[2142] z[2143] z[2144] z[2145] z[2146] z[2147] z[2148]
 z[2149] z[2150] z[2151] z[2152] z[2153] z[2154] z[2155] z[2156] z[2157]
 z[2158] z[2159] z[2160] z[2161] z[2162] z[2163] z[2164] z[2165] z[2166]
 z[2167] z[2168] z[2169] z[2170] z[2171] z[2172] z[2173] z[2174] z[2175]
 z[2176] z[2177] z[2178] z[2179] z[2180] z[2181] z[2182] z[2183] z[2184]
 z[2185] z[2186] z[2187] z[2188] z[2189] z[2190] z[2191] z[2192] z[2193]
 z[2194] z[2195] z[2196] z[2197] z[2198] z[2199] z[2200] z[2201] z[2202]
 z[2203] z[2204] z[2205] z[2206] z[2207] z[2208] z[2209] z[2210] z[2211]
 z[2212] z[2213] z[2214] z[2215] z[2216] z[2217] z[2218] z[2219] z[2220]
 z[2221] z[2222] z[2223] z[2224] z[2225] z[2226] z[2227] z[2228] z[2229]
 z[2230] z[2231] z[2232] z[2233] z[2234] z[2235] z[2236] z[2237] z[2238]
 z[2239] z[2240] z[2241] z[2242] z[2243] z[2244] z[2245] z[2246] z[2247]
 z[2248] z[2249] z[2250] z[2251] z[2252] z[2253] z[2254] z[2255] z[2256]
 z[2257] z[2258] z[2259] z[2260] z[2261] z[2262] z[2263] z[2264] z[2265]
 z[2266] z[2267] z[2268] z[2269] z[2270] z[2271] z[2272] z[2273] z[2274]
 z[2275] z[2276] z[2277] z[2278] z[2279] z[2280] z[2281] z[2282] z[2283]
 z[2284] z[2285] z[2286] z[2287] z[2288] z[2289] z[2290] z[2291] z[2292]
 z[2293] z[2294] z[2295] z[2296] z[2297] z[2298] z[2299] z[2300] z[2301]
 z[2302] z[2303] z[2304] z[2305] z[2306] z[2307] z[2308] z[2309] z[2310]
 z[2311] z[2312] z[2313] z[2314] z[2315] z[2316] z[2317] z[2318] z[2319]
 z[2320] z[2321] z[2322] z[2323] z[2324] z[2325] z[2326] z[2327] z[2328]
 z[2329] z[2330] z[2331] z[2332] z[2333] z[2334] z[2335] z[2336] z[2337]
 z[2338] z[2339] z[2340] z[2341] z[2342] z[2343] z[2344] z[2345] z[2346]
 z[2347] z[2348] z[2349] z[2350] z[2351] z[2352] z[2353] z[2354] z[2355]
 z[2356] z[2357] z[2358] z[2359] z[2360] z[2361] z[2362] z[2363] z[2364]
 z[2365] z[2366] z[2367] z[2368] z[2369] z[2370] z[2371] z[2372] z[2373]
 z[2374] z[2375] z[2376] z[2377] z[2378] z[2379] z[2380] z[2381] z[2382]
 z[2383] z[2384] z[2385] z[2386] z[2387] z[2388] z[2389] z[2390] z[2391]
 z[2392] z[2393] z[2394] z[2395] z[2396] z[2397] z[2398] z[2399] z[2400]
 z[2401] z[2402] z[2403] z[2404] z[2405] z[2406] z[2407] z[2408] z[2409]
 z[2410] z[2411] z[2412] z[2413] z[2414] z[2415] z[2416] z[2417] z[2418]
 z[2419] z[2420] z[2421] z[2422] z[2423] z[2424] z[2425] z[2426] z[2427]
 z[2428] z[2429] z[2430] z[2431] z[2432] z[2433] z[2434] z[2435] z[2436]
 z[2437] z[2438] z[2439] z[2440] z[2441] z[2442] z[2443] z[2444] z[2445]
 z[2446] z[2447] z[2448] z[2449] z[2450] z[2451] z[2452] z[2453] z[2454]
 z[2455] z[2456] z[2457] z[2458] z[2459] z[2460] z[2461] z[2462] z[2463]
 z[2464] z[2465] z[2466] z[2467] z[2468] z[2469] z[2470] z[2471] z[2472]
 z[2473] z[2474] z[2475] z[2476] z[2477] z[2478] z[2479] z[2480] z[2481]
 z[2482] z[2483] z[2484] z[2485] z[2486] z[2487] z[2488] z[2489] z[2490]
 z[2491] z[2492] z[2493] z[2494] z[2495] z[2496] z[2497] z[2498] z[2499]
 z[2500] z[2501] z[2502] z[2503] z[2504] z[2505] z[2506] z[2507] z[2508]
 z[2509] z[2510] z[2511] z[2512] z[2513] z[2514] z[2515] z[2516] z[2517]
 z[2518] z[2519] z[2520] z[2521] z[2522] z[2523] z[2524] z[2525] z[2526]
 z[2527] z[2528] z[2529] z[2530] z[2531] z[2532] z[2533] z[2534] z[2535]
 z[2536] z[2537] z[2538] z[2539] z[2540] z[2541] z[2542] z[2543] z[2544]
 z[2545] z[2546] z[2547] z[2548] z[2549] z[2550] z[2551] z[2552] z[2553]
 z[2554] z[2555] z[2556] z[2557] z[2558] z[2559] z[2560] z[2561] z[2562]
 z[2563] z[2564] z[2565] z[2566] z[2567] z[2568] z[2569] z[2570] z[2571]
 z[2572] z[2573] z[2574] z[2575] z[2576] z[2577] z[2578] z[2579] z[2580]
 z[2581] z[2582] z[2583] z[2584] z[2585] z[2586] z[2587] z[2588] z[2589]
 z[2590] z[2591] z[2592] z[2593] z[2594] z[2595] z[2596] z[2597] z[2598]
 z[2599] z[2600] z[2601] z[2602] z[2603] z[2604] z[2605] z[2606] z[2607]
 z[2608] z[2609] z[2610] z[2611] z[2612] z[2613] z[2614] z[2615] z[2616]
 z[2617] z[2618] z[2619] z[2620] z[2621] z[2622] z[2623] z[2624] z[2625]
 z[2626] z[2627] z[2628] z[2629] z[2630] z[2631] z[2632] z[2633] z[2634]
 z[2635] z[2636] z[2637] z[2638] z[2639] z[2640] z[2641] z[2642] z[2643]
 z[2644] z[2645] z[2646] z[2647] z[2648] z[2649] z[2650] z[2651] z[2652]
 z[2653] z[2654] z[2655] z[2656] z[2657] z[2658] z[2659] z[2660] z[2661]
 z[2662] z[2663] z[2664] z[2665] z[2666] z[2667] z[2668] z[2669] z[2670]
 z[2671] z[2672] z[2673] z[2674] z[2675] z[2676] z[2677] z[2678] z[2679]
 z[2680] z[2681] z[2682] z[2683] z[2684] z[2685] z[2686] z[2687] z[2688]
 z[2689] z[2690] z[2691] z[2692] z[2693] z[2694] z[2695] z[2696] z[2697]
 z[2698] z[2699] z[2700] z[2701] z[2702] z[2703] z[2704] z[2705] z[2706]
 z[2707] z[2708] z[2709] z[2710] z[2711] z[2712] z[2713] z[2714] z[2715]
 z[2716] z[2717] z[2718] z[2719] z[2720] z[2721] z[2722] z[2723] z[2724]
 z[2725] z[2726] z[2727] z[2728] z[2729] z[2730] z[2731] z[2732] z[2733]
 z[2734] z[2735] z[2736] z[2737] z[2738] z[2739] z[2740] z[2741] z[2742]
 z[2743] z[2744] z[2745] z[2746] z[2747] z[2748] z[2749] z[2750] z[2751]
 z[2752] z[2753] z[2754] z[2755] z[2756] z[2757] z[2758] z[2759] z[2760]
 z[2761] z[2762] z[2763] z[2764] z[2765] z[2766] z[2767] z[2768] z[2769]
 z[2770] z[2771] z[2772] z[2773] z[2774] z[2775] z[2776] z[2777] z[2778]
 z[2779] z[2780] z[2781] z[2782] z[2783] z[2784] z[2785] z[2786] z[2787]
 z[2788] z[2789] z[2790] z[2791] z[2792] z[2793] z[2794] z[2795] z[2796]
 z[2797] z[2798] z[2799] z[2800] z[2801] z[2802] z[2803] z[2804] z[2805]
 z[2806] z[2807] z[2808] z[2809] z[2810] z[2811] z[2812] z[2813] z[2814]
 z[2815] z[2816] z[2817] z[2818] z[2819] z[2820] z[2821] z[2822] z[2823]
 z[2824] z[2825] z[2826] z[2827] z[2828] z[2829] z[2830] z[2831] z[2832]
 z[2833] z[2834] z[2835] z[2836] z[2837] z[2838] z[2839] z[2840] z[2841]
 z[2842] z[2843] z[2844] z[2845] z[2846] z[2847] z[2848] z[2849] z[2850]
 z[2851] z[2852] z[2853] z[2854] z[2855] z[2856] z[2857] z[2858] z[2859]
 z[2860] z[2861] z[2862] z[2863] z[2864] z[2865] z[2866] z[2867] z[2868]
 z[2869] z[2870] z[2871] z[2872] z[2873] z[2874] z[2875] z[2876] z[2877]
 z[2878] z[2879] z[2880] z[2881] z[2882] z[2883] z[2884] z[2885] z[2886]
 z[2887] z[2888] z[2889] z[2890] z[2891] z[2892] z[2893] z[2894] z[2895]
 z[2896] z[2897] z[2898] z[2899] z[2900] z[2901] z[2902] z[2903] z[2904]
 z[2905] z[2906] z[2907] z[2908] z[2909] z[2910] z[2911] z[2912] z[2913]
 z[2914] z[2915] z[2916] z[2917] z[2918] z[2919] z[2920] z[2921] z[2922]
 z[2923] z[2924] z[2925] z[2926] z[2927] z[2928] z[2929] z[2930] z[2931]
 z[2932] z[2933] z[2934] z[2935] z[2936] z[2937] z[2938] z[2939] z[2940]
 z[2941] z[2942] z[2943] z[2944] z[2945] z[2946] z[2947] z[2948] z[2949]
 z[2950] z[2951] z[2952] z[2953] z[2954] z[2955] z[2956] z[2957] z[2958]
 z[2959] z[2960] z[2961] z[2962] z[2963] z[2964] z[2965] z[2966] z[2967]
 z[2968] z[2969] z[2970] z[2971] z[2972] z[2973] z[2974] z[2975] z[2976]
 z[2977] z[2978] z[2979] z[2980] z[2981] z[2982] z[2983] z[2984] z[2985]
 z[2986] z[2987] z[2988] z[2989] z[2990] z[2991] z[2992] z[2993] z[2994]
 z[2995] z[2996] z[2997] z[2998] z[2999] z[3000] z[3001] z[3002] z[3003]
 z[3004] z[3005] z[3006] z[3007] z[3008] z[3009] z[3010] z[3011] z[3012]
 z[3013] z[3014] z[3015] z[3016] z[3017] z[3018] z[3019] z[3020] z[3021]
 z[3022] z[3023] z[3024] z[3025] z[3026] z[3027] z[3028] z[3029] z[3030]
 z[3031] z[3032] z[3033] z[3034] z[3035] z[3036] z[3037] z[3038] z[3039]
 z[3040] z[3041] z[3042] z[3043] z[3044] z[3045] z[3046] z[3047] z[3048]
 z[3049] z[3050] z[3051] z[3052] z[3053] z[3054] z[3055] z[3056] z[3057]
 z[3058] z[3059] z[3060] z[3061] z[3062] z[3063] z[3064] z[3065] z[3066]
 z[3067] z[3068] z[3069] z[3070] z[3071] z[3072] z[3073] z[3074] z[3075]
 z[3076] z[3077] z[3078] z[3079] z[3080] z[3081] z[3082] z[3083] z[3084]
 z[3085] z[3086] z[3087] z[3088] z[3089] z[3090] z[3091] z[3092] z[3093]
 z[3094] z[3095] z[3096] z[3097] z[3098] z[3099] z[3100] z[3101] z[3102]
 z[3103] z[3104] z[3105] z[3106] z[3107] z[3108] z[3109] z[3110] z[3111]
 z[3112] z[3113] z[3114] z[3115] z[3116] z[3117] z[3118] z[3119] z[3120]
 z[3121] z[3122] z[3123] z[3124] z[3125] z[3126] z[3127] z[3128] z[3129]
 z[3130] z[3131] z[3132] z[3133] z[3134] z[3135] z[3136] z[3137] z[3138]
 z[3139] z[3140] z[3141] z[3142] z[3143] z[3144] z[3145] z[3146] z[3147]
 z[3148] z[3149] z[3150] z[3151] z[3152] z[3153] z[3154] z[3155] z[3156]
 z[3157] z[3158] z[3159] z[3160] z[3161] z[3162] z[3163] z[3164] z[3165]
 z[3166] z[3167] z[3168] z[3169] z[3170] z[3171] z[3172] z[3173] z[3174]
 z[3175] z[3176] z[3177] z[3178] z[3179] z[3180] z[3181] z[3182] z[3183]
 z[3184] z[3185] z[3186] z[3187] z[3188] z[3189] z[3190] z[3191] z[3192]
 z[3193] z[3194] z[3195] z[3196] z[3197] z[3198] z[3199] z[3200] z[3201]
 z[3202] z[3203] z[3204] z[3205] z[3206] z[3207] z[3208] z[3209] z[3210]
 z[3211] z[3212] z[3213] z[3214] z[3215] z[3216] z[3217] z[3218] z[3219]
 z[3220] z[3221] z[3222] z[3223] z[3224] z[3225] z[3226] z[3227] z[3228]
 z[3229] z[3230] z[3231] z[3232] z[3233] z[3234] z[3235] z[3236] z[3237]
 z[3238] z[3239] z[3240] z[3241] z[3242] z[3243] z[3244] z[3245] z[3246]
 z[3247] z[3248] z[3249] z[3250] z[3251] z[3252] z[3253] z[3254] z[3255]
 z[3256] z[3257] z[3258] z[3259] z[3260] z[3261] z[3262] z[3263] z[3264]
 z[3265] z[3266] z[3267] z[3268] z[3269] z[3270] z[3271] z[3272] z[3273]
 z[3274] z[3275] z[3276] z[3277] z[3278] z[3279] z[3280] z[3281] z[3282]
 z[3283] z[3284] z[3285] z[3286] z[3287] z[3288] z[3289] z[3290] z[3291]
 z[3292] z[3293] z[3294] z[3295] z[3296] z[3297] z[3298] z[3299] z[3300]
 z[3301] z[3302] z[3303] z[3304] z[3305] z[3306] z[3307] z[3308] z[3309]
 z[3310] z[3311] z[3312] z[3313] z[3314] z[3315] z[3316] z[3317] z[3318]
 z[3319] z[3320] z[3321] z[3322] z[3323] z[3324] z[3325] z[3326] z[3327]
 z[3328] z[3329] z[3330] z[3331] z[3332] z[3333] z[3334] z[3335] z[3336]
 z[3337] z[3338] z[3339] z[3340] z[3341] z[3342] z[3343] z[3344] z[3345]
 z[3346] z[3347] z[3348] z[3349] z[3350] z[3351] z[3352] z[3353] z[3354]
 z[3355] z[3356] z[3357] z[3358] z[3359] z[3360] z[3361] z[3362] z[3363]
 z[3364] z[3365] z[3366] z[3367] z[3368] z[3369] z[3370] z[3371] z[3372]
 z[3373] z[3374] z[3375] z[3376] z[3377] z[3378] z[3379] z[3380] z[3381]
 z[3382] z[3383] z[3384] z[3385] z[3386] z[3387] z[3388] z[3389] z[3390]
 z[3391] z[3392] z[3393] z[3394] z[3395] z[3396] z[3397] z[3398] z[3399]
 z[3400] z[3401] z[3402] z[3403] z[3404] z[3405] z[3406] z[3407] z[3408]
 z[3409] z[3410] z[3411] z[3412] z[3413] z[3414] z[3415] z[3416] z[3417]
 z[3418] z[3419] z[3420] z[3421] z[3422] z[3423] z[3424] z[3425] z[3426]
 z[3427] z[3428] z[3429] z[3430] z[3431] z[3432] z[3433] z[3434] z[3435]
 z[3436] z[3437] z[3438] z[3439] z[3440] z[3441] z[3442] z[3443] z[3444]
 z[3445] z[3446] z[3447] z[3448] z[3449] z[3450] z[3451] z[3452] z[3453]
 z[3454] z[3455] z[3456] z[3457] z[3458] z[3459] z[3460] z[3461] z[3462]
 z[3463] z[3464] z[3465] z[3466] z[3467] z[3468] z[3469] z[3470] z[3471]
 z[3472] z[3473] z[3474] z[3475] z[3476] z[3477] z[3478] z[3479] z[3480]
 z[3481] z[3482] z[3483] z[3484] z[3485] z[3486] z[3487] z[3488] z[3489]
 z[3490] z[3491] z[3492] z[3493] z[3494] z[3495] z[3496] z[3497] z[3498]
 z[3499] z[3500] z[3501] z[3502] z[3503] z[3504] z[3505] z[3506] z[3507]
 z[3508] z[3509] z[3510] z[3511] z[3512] z[3513] z[3514] z[3515] z[3516]
 z[3517] z[3518] z[3519] z[3520] z[3521] z[3522] z[3523] z[3524] z[3525]
 z[3526] z[3527] z[3528] z[3529] z[3530] z[3531] z[3532] z[3533] z[3534]
 z[3535] z[3536] z[3537] z[3538] z[3539] z[3540] z[3541] z[3542] z[3543]
 z[3544] z[3545] z[3546] z[3547] z[3548] z[3549] z[3550] z[3551] z[3552]
 z[3553] z[3554] z[3555] z[3556] z[3557] z[3558] z[3559] z[3560] z[3561]
 z[3562] z[3563] z[3564] z[3565] z[3566] z[3567] z[3568] z[3569] z[3570]
 z[3571] z[3572] z[3573] z[3574] z[3575] z[3576] z[3577] z[3578] z[3579]
 z[3580] z[3581] z[3582] z[3583] z[3584] z[3585] z[3586] z[3587] z[3588]
 z[3589] z[3590] z[3591] z[3592] z[3593] z[3594] z[3595] z[3596] z[3597]
 z[3598] z[3599] z[3600] z[3601] z[3602] z[3603] z[3604] z[3605] z[3606]
 z[3607] z[3608] z[3609] z[3610] z[3611] z[3612] z[3613] z[3614] z[3615]
 z[3616] z[3617] z[3618] z[3619] z[3620] z[3621] z[3622] z[3623] z[3624]
 z[3625] z[3626] z[3627] z[3628] z[3629] z[3630] z[3631] z[3632] z[3633]
 z[3634] z[3635] z[3636] z[3637] z[3638] z[3639] z[3640] z[3641] z[3642]
 z[3643] z[3644] z[3645] z[3646] z[3647] z[3648] z[3649] z[3650] z[3651]
 z[3652] z[3653] z[3654] z[3655] z[3656] z[3657] z[3658] z[3659] z[3660]
 z[3661] z[3662] z[3663] z[3664] z[3665] z[3666] z[3667] z[3668] z[3669]
 z[3670] z[3671] z[3672] z[3673] z[3674] z[3675] z[3676] z[3677] z[3678]
 z[3679] z[3680] z[3681] z[3682] z[3683] z[3684] z[3685] z[3686] z[3687]
 z[3688] z[3689] z[3690] z[3691] z[3692] z[3693] z[3694] z[3695] z[3696]
 z[3697] z[3698] z[3699] z[3700] z[3701] z[3702] z[3703] z[3704] z[3705]
 z[3706] z[3707] z[3708] z[3709] z[3710] z[3711] z[3712] z[3713] z[3714]
 z[3715] z[3716] z[3717] z[3718] z[3719] z[3720] z[3721] z[3722] z[3723]
 z[3724] z[3725] z[3726] z[3727] z[3728] z[3729] z[3730] z[3731] z[3732]
 z[3733] z[3734] z[3735] z[3736] z[3737] z[3738] z[3739] z[3740] z[3741]
 z[3742] z[3743] z[3744] z[3745] z[3746] z[3747] z[3748] z[3749] z[3750]
 z[3751] z[3752] z[3753] z[3754] z[3755] z[3756] z[3757] z[3758] z[3759]
 z[3760] z[3761] z[3762] z[3763] z[3764] z[3765] z[3766] z[3767] z[3768]
 z[3769] z[3770] z[3771] z[3772] z[3773] z[3774] z[3775] z[3776] z[3777]
 z[3778] z[3779] z[3780] z[3781] z[3782] z[3783] z[3784] z[3785] z[3786]
 z[3787] z[3788] z[3789] z[3790] z[3791] z[3792] z[3793] z[3794] z[3795]
 z[3796] z[3797] z[3798] z[3799] z[3800] z[3801] z[3802] z[3803] z[3804]
 z[3805] z[3806] z[3807] z[3808] z[3809] z[3810] z[3811] z[3812] z[3813]
 z[3814] z[3815] z[3816] z[3817] z[3818] z[3819] z[3820] z[3821] z[3822]
 z[3823] z[3824] z[3825] z[3826] z[3827] z[3828] z[3829] z[3830] z[3831]
 z[3832] z[3833] z[3834] z[3835] z[3836] z[3837] z[3838] z[3839] z[3840]
 z[3841] z[3842] z[3843] z[3844] z[3845] z[3846] z[3847] z[3848] z[3849]
 z[3850] z[3851] z[3852] z[3853] z[3854] z[3855] z[3856] z[3857] z[3858]
 z[3859] z[3860] z[3861] z[3862] z[3863] z[3864] z[3865] z[3866] z[3867]
 z[3868] z[3869] z[3870] z[3871] z[3872] z[3873] z[3874] z[3875] z[3876]
 z[3877] z[3878] z[3879] z[3880] z[3881] z[3882] z[3883] z[3884] z[3885]
 z[3886] z[3887] z[3888] z[3889] z[3890] z[3891] z[3892] z[3893] z[3894]
 z[3895] z[3896] z[3897] z[3898] z[3899] z[3900] z[3901] z[3902] z[3903]
 z[3904] z[3905] z[3906] z[3907] z[3908] z[3909] z[3910] z[3911] z[3912]
 z[3913] z[3914] z[3915] z[3916] z[3917] z[3918] z[3919] z[3920] z[3921]
 z[3922] z[3923] z[3924] z[3925] z[3926] z[3927] z[3928] z[3929] z[3930]
 z[3931] z[3932] z[3933] z[3934] z[3935] z[3936] z[3937] z[3938] z[3939]
 z[3940] z[3941] z[3942] z[3943] z[3944] z[3945] z[3946] z[3947] z[3948]
 z[3949] z[3950] z[3951] z[3952] z[3953] z[3954] z[3955] z[3956] z[3957]
 z[3958] z[3959] z[3960] z[3961] z[3962] z[3963] z[3964] z[3965] z[3966]
 z[3967] z[3968] z[3969] z[3970] z[3971] z[3972] z[3973] z[3974] z[3975]
 z[3976] z[3977] z[3978] z[3979] z[3980] z[3981] z[3982] z[3983] z[3984]
 z[3985] z[3986] z[3987] z[3988] z[3989] z[3990] z[3991] z[3992] z[3993]
 z[3994] z[3995] z[3996] z[3997] z[3998] z[3999] z[4000] z[4001] z[4002]
 z[4003] z[4004] z[4005] z[4006] z[4007] z[4008] z[4009] z[4010] z[4011]
 z[4012] z[4013] z[4014] z[4015] z[4016] z[4017] z[4018] z[4019] z[4020]
 z[4021] z[4022] z[4023] z[4024] z[4025] z[4026] z[4027] z[4028] z[4029]
 z[4030] z[4031] z[4032] z[4033] z[4034] z[4035] z[4036] z[4037] z[4038]
 z[4039] z[4040] z[4041] z[4042] z[4043] z[4044] z[4045] z[4046] z[4047]
 z[4048] z[4049] z[4050] z[4051] z[4052] z[4053] z[4054] z[4055] z[4056]
 z[4057] z[4058] z[4059] z[4060] z[4061] z[4062] z[4063] z[4064] z[4065]
 z[4066] z[4067] z[4068] z[4069] z[4070] z[4071] z[4072] z[4073] z[4074]
 z[4075] z[4076] z[4077] z[4078] z[4079] z[4080] z[4081] z[4082] z[4083]
 z[4084] z[4085] z[4086] z[4087] z[4088] z[4089] z[4090] z[4091] z[4092]
 z[4093] z[4094] z[4095] z[4096] z[4097] z[4098] z[4099] z[4100] z[4101]
 z[4102] z[4103] z[4104] z[4105] z[4106] z[4107] z[4108] z[4109] z[4110]
 z[4111] z[4112] z[4113] z[4114] z[4115] z[4116] z[4117] z[4118] z[4119]
 z[4120] z[4121] z[4122] z[4123] z[4124] z[4125] z[4126] z[4127] z[4128]
 z[4129] z[4130] z[4131] z[4132] z[4133] z[4134] z[4135] z[4136] z[4137]
 z[4138] z[4139] z[4140] z[4141] z[4142] z[4143] z[4144] z[4145] z[4146]
 z[4147] z[4148] z[4149] z[4150] z[4151] z[4152] z[4153] z[4154] z[4155]
 z[4156] z[4157] z[4158] z[4159] z[4160] z[4161] z[4162] z[4163] z[4164]
 z[4165] z[4166] z[4167] z[4168] z[4169] z[4170] z[4171] z[4172] z[4173]
 z[4174] z[4175] z[4176] z[4177] z[4178] z[4179] z[4180] z[4181] z[4182]
 z[4183] z[4184] z[4185] z[4186] z[4187] z[4188] z[4189] z[4190] z[4191]
 z[4192] z[4193] z[4194] z[4195] z[4196] z[4197] z[4198] z[4199] z[4200]
 z[4201] z[4202] z[4203] z[4204] z[4205] z[4206] z[4207] z[4208] z[4209]
 z[4210] z[4211] z[4212] z[4213] z[4214] z[4215] z[4216] z[4217] z[4218]
 z[4219] z[4220] z[4221] z[4222] z[4223] z[4224] z[4225] z[4226] z[4227]
 z[4228] z[4229] z[4230] z[4231] z[4232] z[4233] z[4234] z[4235] z[4236]
 z[4237] z[4238] z[4239] z[4240] z[4241] z[4242] z[4243] z[4244] z[4245]
 z[4246] z[4247] z[4248] z[4249] z[4250] z[4251] z[4252] z[4253] z[4254]
 z[4255] z[4256] z[4257] z[4258] z[4259] z[4260] z[4261] z[4262] z[4263]
 z[4264] z[4265] z[4266] z[4267] z[4268] z[4269] z[4270] z[4271] z[4272]
 z[4273] z[4274] z[4275] z[4276] z[4277] z[4278] z[4279] z[4280] z[4281]
 z[4282] z[4283] z[4284] z[4285] z[4286] z[4287] z[4288] z[4289] z[4290]
 z[4291] z[4292] z[4293] z[4294] z[4295] z[4296] z[4297] z[4298] z[4299]
 z[4300] z[4301] z[4302] z[4303] z[4304] z[4305] z[4306] z[4307] z[4308]
 z[4309] z[4310] z[4311] z[4312] z[4313] z[4314] z[4315] z[4316] z[4317]
 z[4318] z[4319] z[4320] z[4321] z[4322] z[4323] z[4324] z[4325] z[4326]
 z[4327] z[4328] z[4329] z[4330] z[4331] z[4332] z[4333] z[4334] z[4335]
 z[4336] z[4337] z[4338] z[4339] z[4340] z[4341] z[4342] z[4343] z[4344]
 z[4345] z[4346] z[4347] z[4348] z[4349] z[4350] z[4351] z[4352] z[4353]
 z[4354] z[4355] z[4356] z[4357] z[4358] z[4359] z[4360] z[4361] z[4362]
 z[4363] z[4364] z[4365] z[4366] z[4367] z[4368] z[4369] z[4370] z[4371]
 z[4372] z[4373] z[4374] z[4375] z[4376] z[4377] z[4378] z[4379] z[4380]
 z[4381] z[4382] z[4383] z[4384] z[4385] z[4386] z[4387] z[4388] z[4389]
 z[4390] z[4391] z[4392] z[4393] z[4394] z[4395] z[4396] z[4397] z[4398]
 z[4399] z[4400] z[4401] z[4402] z[4403] z[4404] z[4405] z[4406] z[4407]
 z[4408] z[4409] z[4410] z[4411] z[4412] z[4413] z[4414] z[4415] z[4416]
 z[4417] z[4418] z[4419] z[4420] z[4421] z[4422] z[4423] z[4424] z[4425]
 z[4426] z[4427] z[4428] z[4429] z[4430] z[4431] z[4432] z[4433] z[4434]
 z[4435] z[4436] z[4437] z[4438] z[4439] z[4440] z[4441] z[4442] z[4443]
 z[4444] z[4445] z[4446] z[4447] z[4448] z[4449] z[4450] z[4451] z[4452]
 z[4453] z[4454] z[4455] z[4456] z[4457] z[4458] z[4459] z[4460] z[4461]
 z[4462] z[4463] z[4464] z[4465] z[4466] z[4467] z[4468] z[4469] z[4470]
 z[4471] z[4472] z[4473] z[4474] z[4475] z[4476] z[4477] z[4478] z[4479]
 z[4480] z[4481] z[4482] z[4483] z[4484] z[4485] z[4486] z[4487] z[4488]
 z[4489] z[4490] z[4491] z[4492] z[4493] z[4494] z[4495] z[4496] z[4497]
 z[4498] z[4499] z[4500] z[4501] z[4502] z[4503] z[4504] z[4505] z[4506]
 z[4507] z[4508] z[4509] z[4510] z[4511] z[4512] z[4513] z[4514] z[4515]
 z[4516] z[4517] z[4518] z[4519] z[4520] z[4521] z[4522] z[4523] z[4524]
 z[4525] z[4526] z[4527] z[4528] z[4529] z[4530] z[4531] z[4532] z[4533]
 z[4534] z[4535] z[4536] z[4537] z[4538] z[4539] z[4540] z[4541] z[4542]
 z[4543] z[4544] z[4545] z[4546] z[4547] z[4548] z[4549] z[4550] z[4551]
 z[4552] z[4553] z[4554] z[4555] z[4556] z[4557] z[4558] z[4559] z[4560]
 z[4561] z[4562] z[4563] z[4564] z[4565] z[4566] z[4567] z[4568] z[4569]
 z[4570] z[4571] z[4572] z[4573] z[4574] z[4575] z[4576] z[4577] z[4578]
 z[4579] z[4580] z[4581] z[4582] z[4583] z[4584] z[4585] z[4586] z[4587]
 z[4588] z[4589] z[4590] z[4591] z[4592] z[4593] z[4594] z[4595] z[4596]
 z[4597] z[4598] z[4599] z[4600] z[4601] z[4602] z[4603] z[4604] z[4605]
 z[4606] z[4607] z[4608] z[4609] z[4610] z[4611] z[4612] z[4613] z[4614]
 z[4615] z[4616] z[4617] z[4618] z[4619] z[4620] z[4621] z[4622] z[4623]
 z[4624] z[4625] z[4626] z[4627] z[4628] z[4629] z[4630] z[4631] z[4632]
 z[4633] z[4634] z[4635] z[4636] z[4637] z[4638] z[4639] z[4640] z[4641]
 z[4642] z[4643] z[4644] z[4645] z[4646] z[4647] z[4648] z[4649] z[4650]
 z[4651] z[4652] z[4653] z[4654] z[4655] z[4656] z[4657] z[4658] z[4659]
 z[4660] z[4661] z[4662] z[4663] z[4664] z[4665] z[4666] z[4667] z[4668]
 z[4669] z[4670] z[4671] z[4672] z[4673] z[4674] z[4675] z[4676] z[4677]
 z[4678] z[4679] z[4680] z[4681] z[4682] z[4683] z[4684] z[4685] z[4686]
 z[4687] z[4688] z[4689] z[4690] z[4691] z[4692] z[4693] z[4694] z[4695]
 z[4696] z[4697] z[4698] z[4699] z[4700] z[4701] z[4702] z[4703] z[4704]
 z[4705] z[4706] z[4707] z[4708] z[4709] z[4710] z[4711] z[4712] z[4713]
 z[4714] z[4715] z[4716] z[4717] z[4718] z[4719] z[4720] z[4721] z[4722]
 z[4723] z[4724] z[4725] z[4726] z[4727] z[4728] z[4729] z[4730] z[4731]
 z[4732] z[4733] z[4734] z[4735] z[4736] z[4737] z[4738] z[4739] z[4740]
 z[4741] z[4742] z[4743] z[4744] z[4745] z[4746] z[4747] z[4748] z[4749]
 z[4750] z[4751] z[4752] z[4753] z[4754] z[4755] z[4756] z[4757] z[4758]
 z[4759] z[4760] z[4761] z[4762] z[4763] z[4764] z[4765] z[4766] z[4767]
 z[4768] z[4769] z[4770] z[4771] z[4772] z[4773] z[4774] z[4775] z[4776]
 z[4777] z[4778] z[4779] z[4780] z[4781] z[4782] z[4783] z[4784] z[4785]
 z[4786] z[4787] z[4788] z[4789] z[4790] z[4791] z[4792] z[4793] z[4794]
 z[4795] z[4796] z[4797] z[4798] z[4799] z[4800] z[4801] z[4802] z[4803]
 z[4804] z[4805] z[4806] z[4807] z[4808] z[4809] z[4810] z[4811] z[4812]
 z[4813] z[4814] z[4815] z[4816] z[4817] z[4818] z[4819] z[4820] z[4821]
 z[4822] z[4823] z[4824] z[4825] z[4826] z[4827] z[4828] z[4829] z[4830]
 z[4831] z[4832] z[4833] z[4834] z[4835] z[4836] z[4837] z[4838] z[4839]
 z[4840] z[4841] z[4842] z[4843] z[4844] z[4845] z[4846] z[4847] z[4848]
 z[4849] z[4850] z[4851] z[4852] z[4853] z[4854] z[4855] z[4856] z[4857]
 z[4858] z[4859] z[4860] z[4861] z[4862] z[4863] z[4864] z[4865] z[4866]
 z[4867] z[4868] z[4869] z[4870] z[4871] z[4872] z[4873] z[4874] z[4875]
 z[4876] z[4877] z[4878] z[4879] z[4880] z[4881] z[4882] z[4883] z[4884]
 z[4885] z[4886] z[4887] z[4888] z[4889] z[4890] z[4891] z[4892] z[4893]
 z[4894] z[4895] z[4896] z[4897] z[4898] z[4899] z[4900] z[4901] z[4902]
 z[4903] z[4904] z[4905] z[4906] z[4907] z[4908] z[4909] z[4910] z[4911]
 z[4912] z[4913] z[4914] z[4915] z[4916] z[4917] z[4918] z[4919] z[4920]
 z[4921] z[4922] z[4923] z[4924] z[4925] z[4926] z[4927] z[4928] z[4929]
 z[4930] z[4931] z[4932] z[4933] z[4934] z[4935] z[4936] z[4937] z[4938]
 z[4939] z[4940] z[4941] z[4942] z[4943] z[4944] z[4945] z[4946] z[4947]
 z[4948] z[4949] z[4950] z[4951] z[4952] z[4953] z[4954] z[4955] z[4956]
 z[4957] z[4958] z[4959] z[4960] z[4961] z[4962] z[4963] z[4964] z[4965]
 z[4966] z[4967] z[4968] z[4969] z[4970] z[4971] z[4972] z[4973] z[4974]
 z[4975] z[4976] z[4977] z[4978] z[4979] z[4980] z[4981] z[4982] z[4983]
 z[4984] z[4985] z[4986] z[4987] z[4988] z[4989] z[4990] z[4991] z[4992]
 z[4993] z[4994] z[4995] z[4996] z[4997] z[4998] z[4999]
End
