\ Model PLCP_GUROBI_GRID_PSCLP_n100_m1000_d1_100_f10_100_s2
\ LP format - for model browsing. Use MPS format to capture full model detail.
\ Signature: 0xcf23672d8c73a57d
Minimize
  22 y[0] + 66 y[1] + 100 y[2] + 55 y[3] + 18 y[4] + 71 y[5] + 89 y[6]
   + 35 y[7] + 86 y[8] + 39 y[9] + 85 y[10] + 29 y[11] + 40 y[12]
   + 14 y[13] + 39 y[14] + 19 y[15] + 41 y[16] + 40 y[17] + 41 y[18]
   + 26 y[19] + 55 y[20] + 58 y[21] + 22 y[22] + 81 y[23] + 53 y[24]
   + 21 y[25] + 49 y[26] + 47 y[27] + 22 y[28] + 46 y[29] + 16 y[30]
   + 34 y[31] + 66 y[32] + 70 y[33] + 42 y[34] + 74 y[35] + 40 y[36]
   + 84 y[37] + 62 y[38] + 79 y[39] + 22 y[40] + 46 y[41] + 98 y[42]
   + 15 y[43] + 13 y[44] + 91 y[45] + 24 y[46] + 98 y[47] + 30 y[48]
   + 55 y[49] + 23 y[50] + 38 y[51] + 67 y[52] + 89 y[53] + 19 y[54]
   + 19 y[55] + 64 y[56] + 21 y[57] + 56 y[58] + 76 y[59] + 20 y[60]
   + 26 y[61] + 63 y[62] + 76 y[63] + 86 y[64] + 58 y[65] + 49 y[66]
   + 79 y[67] + 42 y[68] + 11 y[69] + 21 y[70] + 17 y[71] + 10 y[72]
   + 18 y[73] + 23 y[74] + 68 y[75] + 99 y[76] + 91 y[77] + 65 y[78]
   + 83 y[79] + 46 y[80] + 42 y[81] + 20 y[82] + 66 y[83] + 84 y[84]
   + 83 y[85] + 38 y[86] + 47 y[87] + 94 y[88] + 47 y[89] + 22 y[90]
   + 68 y[91] + 63 y[92] + 38 y[93] + 43 y[94] + 11 y[95] + 50 y[96]
   + 46 y[97] + 44 y[98] + 82 y[99]
Subject To
 R0: y[0] + y[15] + y[16] + y[23] + y[24] + y[27] + y[41] + y[42] + y[71]
   + y[80] + y[82] + y[94] - z[0] >= 0
 R1: y[5] + y[7] + y[9] + y[11] + y[13] + y[17] + y[51] + y[53] + y[54]
   + y[55] + y[64] + y[68] + y[77] + y[95] + y[97] + y[99] - z[1] >= 0
 R2: y[5] + y[7] + y[9] + y[11] + y[13] + y[17] + y[51] + y[53] + y[64]
   + y[68] + y[97] - z[2] >= 0
 R3: y[20] + y[35] + y[36] + y[39] + y[57] + y[98] - z[3] >= 0
 R4: y[0] + y[4] + y[10] + y[15] + y[28] + y[30] + y[31] + y[43] + y[47]
   + y[67] + y[70] + y[80] + y[82] + y[89] + y[94] - z[4] >= 0
 R5: y[16] + y[23] + y[24] + y[25] + y[27] + y[33] + y[37] + y[42] + y[59]
   + y[63] + y[71] + y[73] + y[76] + y[80] + y[94] - z[5] >= 0
 R6: y[6] + y[20] + y[40] + y[48] + y[57] + y[60] + y[72] + y[79] + y[86]
   + y[88] + y[91] + y[92] + y[96] - z[6] >= 0
 R7: y[0] + y[4] + y[15] + y[16] + y[23] + y[27] + y[28] + y[30] + y[33]
   + y[42] + y[43] + y[63] + y[71] + y[80] + y[82] + y[94] - z[7] >= 0
 R8: y[8] + y[12] + y[19] + y[22] + y[26] + y[34] + y[38] + y[45] + y[46]
   + y[47] + y[58] + y[61] + y[67] + y[70] + y[74] + y[75] + y[87] - z[8]
   >= 0
 R9: y[6] + y[48] + y[86] + y[91] + y[92] - z[9] >= 0
 R10: y[9] + y[13] + y[31] + y[40] + y[54] + y[55] + y[60] + y[79] + y[99]
   - z[10] >= 0
 R11: y[6] + y[48] + y[57] + y[72] + y[86] + y[91] + y[92] - z[11] >= 0
 R12: y[9] + y[13] + y[31] + y[40] + y[54] + y[55] + y[60] + y[79] + y[99]
   - z[12] >= 0
 R13: y[18] + y[19] + y[26] + y[29] + y[34] + y[44] + y[50] + y[52] + y[58]
   + y[62] + y[69] + y[74] + y[75] + y[85] + y[90] + y[93] - z[13] >= 0
 R14: y[0] + y[4] + y[15] + y[27] + y[28] + y[30] + y[43] + y[47] + y[67]
   + y[70] + y[80] + y[82] + y[94] - z[14] >= 0
 R15: y[21] + y[84] + y[98] - z[15] >= 0
 R16: y[0] + y[12] + y[15] + y[27] + y[30] + y[47] + y[67] + y[70] + y[82]
   + y[94] - z[16] >= 0
 R17: y[4] + y[10] + y[27] + y[28] + y[30] + y[31] + y[33] + y[43] + y[59]
   + y[63] + y[80] + y[89] + y[94] - z[17] >= 0
 R18: y[29] + y[34] + y[50] + y[52] + y[62] + y[74] + y[75] + y[90] - z[18]
   >= 0
 R19: y[7] + y[16] + y[23] + y[25] + y[27] + y[33] + y[37] + y[42] + y[53]
   + y[59] + y[63] + y[73] + y[76] + y[80] + y[95] - z[19] >= 0
 R20: y[0] + y[4] + y[12] + y[15] + y[28] + y[30] + y[43] + y[47] + y[67]
   + y[70] + y[80] + y[82] + y[94] - z[20] >= 0
 R21: y[8] + y[12] + y[22] + y[34] + y[38] + y[45] + y[46] + y[58] + y[61]
   + y[74] + y[75] + y[87] - z[21] >= 0
 R22: y[17] + y[64] + y[66] + y[77] + y[97] - z[22] >= 0
 R23: y[9] + y[11] + y[13] + y[40] + y[54] + y[55] + y[60] + y[79] + y[99]
   - z[23] >= 0
 R24: y[11] + y[17] + y[64] + y[66] + y[77] + y[97] - z[24] >= 0
 R25: y[2] + y[18] + y[19] + y[26] + y[32] + y[35] + y[44] + y[49] + y[50]
   + y[56] + y[69] + y[78] + y[81] + y[83] + y[84] + y[85] + y[90] + y[93]
   - z[25] >= 0
 R26: y[12] + y[19] + y[26] + y[32] + y[38] + y[44] + y[47] + y[49] + y[56]
   + y[67] + y[69] + y[78] + y[81] + y[83] + y[87] - z[26] >= 0
 R27: y[3] + y[40] + y[54] + y[60] + y[66] + y[77] + y[99] - z[27] >= 0
 R28: y[29] + y[50] + y[52] + y[62] + y[74] + y[75] + y[90] + y[93] - z[28]
   >= 0
 R29: y[16] + y[23] + y[25] + y[27] + y[28] + y[30] + y[33] + y[37] + y[42]
   + y[43] + y[59] + y[63] + y[71] + y[73] + y[76] + y[80] + y[94] - z[29]
   >= 0
 R30: y[0] + y[4] + y[12] + y[15] + y[30] + y[47] + y[67] + y[70] + y[82]
   + y[94] - z[30] >= 0
 R31: y[1] + y[14] + y[65] + y[98] - z[31] >= 0
 R32: y[0] + y[4] + y[15] + y[16] + y[27] + y[28] + y[30] + y[33] + y[43]
   + y[80] + y[82] + y[94] - z[32] >= 0
 R33: y[0] + y[4] + y[15] + y[16] + y[23] + y[27] + y[28] + y[30] + y[33]
   + y[43] + y[80] + y[82] + y[94] - z[33] >= 0
 R34: y[4] + y[10] + y[15] + y[27] + y[28] + y[30] + y[31] + y[33] + y[43]
   + y[80] + y[82] + y[89] + y[94] - z[34] >= 0
 R35: y[6] + y[20] + y[48] + y[57] + y[72] + y[86] + y[91] + y[92] - z[35]
   >= 0
 R36: y[2] + y[10] + y[31] + y[32] + y[35] + y[44] + y[49] + y[56] + y[69]
   + y[78] + y[81] + y[83] + y[88] + y[89] + y[96] - z[36] >= 0
 R37: y[20] + y[21] + y[36] + y[39] + y[84] + y[98] - z[37] >= 0
 R38: y[0] + y[4] + y[12] + y[15] + y[30] + y[47] + y[67] + y[70] + y[80]
   + y[82] + y[94] - z[38] >= 0
 R39: y[4] + y[10] + y[28] + y[30] + y[31] + y[33] + y[43] + y[55] + y[59]
   + y[63] + y[79] + y[80] + y[89] - z[39] >= 0
 R40: y[0] + y[16] + y[41] + y[71] + y[82] - z[40] >= 0
 R41: y[1] + y[14] + y[39] + y[65] + y[98] - z[41] >= 0
 R42: y[0] + y[4] + y[10] + y[15] + y[27] + y[28] + y[30] + y[33] + y[43]
   + y[80] + y[82] + y[89] + y[94] - z[42] >= 0
 R43: y[18] + y[19] + y[26] + y[44] + y[49] + y[50] + y[56] + y[69] + y[74]
   + y[75] + y[78] + y[81] + y[83] + y[84] + y[85] + y[90] + y[93] - z[43]
   >= 0
 R44: y[3] + y[40] + y[48] + y[60] + y[72] + y[86] + y[91] - z[44] >= 0
 R45: y[1] + y[6] + y[14] + y[20] + y[48] + y[57] + y[65] + y[86] + y[91]
   + y[92] - z[45] >= 0
 R46: y[5] + y[7] + y[9] + y[11] + y[13] + y[17] + y[51] + y[53] + y[59]
   + y[64] + y[68] + y[95] - z[46] >= 0
 R47: y[2] + y[18] + y[19] + y[26] + y[32] + y[35] + y[44] + y[49] + y[50]
   + y[56] + y[69] + y[78] + y[81] + y[83] + y[84] + y[85] + y[90] + y[93]
   - z[47] >= 0
 R48: y[34] + y[52] + y[58] + y[62] - z[48] >= 0
 R49: y[18] + y[19] + y[26] + y[32] + y[38] + y[44] + y[47] + y[49] + y[56]
   + y[67] + y[69] + y[78] + y[81] + y[83] + y[85] + y[90] + y[93] - z[49]
   >= 0
 R50: y[0] + y[4] + y[10] + y[15] + y[27] + y[28] + y[30] + y[31] + y[33]
   + y[43] + y[63] + y[80] + y[82] + y[89] + y[94] - z[50] >= 0
 R51: y[3] + y[11] + y[54] + y[66] + y[77] + y[97] - z[51] >= 0
 R52: y[8] + y[19] + y[22] + y[26] + y[29] + y[34] + y[38] + y[44] + y[45]
   + y[50] + y[52] + y[58] + y[62] + y[74] + y[75] + y[87] + y[90] - z[52]
   >= 0
 R53: y[12] + y[19] + y[26] + y[38] + y[44] + y[45] + y[47] + y[49] + y[56]
   + y[67] + y[69] + y[70] + y[78] + y[81] + y[83] + y[87] - z[53] >= 0
 R54: y[0] + y[15] - z[54] >= 0
 R55: y[2] + y[18] + y[21] + y[35] + y[36] + y[39] + y[49] + y[56] + y[69]
   + y[78] + y[81] + y[83] + y[84] + y[85] + y[93] - z[55] >= 0
 R56: y[5] + y[7] + y[9] + y[11] + y[13] + y[17] + y[51] + y[53] + y[64]
   + y[68] + y[95] + y[97] - z[56] >= 0
 R57: y[4] + y[10] + y[27] + y[28] + y[30] + y[31] + y[33] + y[43] + y[55]
   + y[59] + y[63] + y[80] + y[89] + y[94] - z[57] >= 0
 R58: y[24] + y[41] + y[71] - z[58] >= 0
 R59: y[2] + y[18] + y[21] + y[35] + y[36] + y[39] + y[44] + y[49] + y[50]
   + y[56] + y[69] + y[78] + y[81] + y[83] + y[84] + y[85] + y[93] - z[59]
   >= 0
 R60: y[5] + y[7] + y[13] + y[23] + y[25] + y[37] + y[42] + y[51] + y[53]
   + y[59] + y[63] + y[68] + y[76] + y[95] - z[60] >= 0
 R61: y[0] + y[4] + y[12] + y[15] + y[30] + y[47] + y[67] + y[70] + y[82]
   + y[94] - z[61] >= 0
 R62: y[0] + y[15] + y[16] + y[24] + y[27] + y[41] + y[71] + y[80] + y[82]
   + y[94] - z[62] >= 0
 R63: y[8] + y[12] + y[19] + y[22] + y[26] + y[38] + y[45] + y[46] + y[47]
   + y[61] + y[67] + y[70] + y[87] - z[63] >= 0
 R64: y[0] + y[15] + y[16] + y[23] + y[24] + y[25] + y[27] + y[30] + y[37]
   + y[41] + y[42] + y[71] + y[73] + y[80] + y[82] + y[94] - z[64] >= 0
 R65: y[2] + y[4] + y[10] + y[31] + y[32] + y[43] + y[49] + y[55] + y[78]
   + y[79] + y[81] + y[83] + y[88] + y[89] + y[96] - z[65] >= 0
 R66: y[2] + y[20] + y[35] + y[36] + y[39] + y[48] + y[57] + y[72] + y[86]
   + y[88] + y[91] + y[92] + y[96] - z[66] >= 0
 R67: y[2] + y[4] + y[10] + y[31] + y[32] + y[35] + y[43] + y[49] + y[56]
   + y[78] + y[81] + y[83] + y[89] + y[96] - z[67] >= 0
 R68: y[18] + y[19] + y[26] + y[29] + y[34] + y[38] + y[44] + y[50] + y[52]
   + y[58] + y[62] + y[74] + y[75] + y[87] + y[90] + y[93] - z[68] >= 0
 R69: y[8] + y[12] + y[18] + y[19] + y[22] + y[26] + y[38] + y[44] + y[45]
   + y[46] + y[47] + y[50] + y[58] + y[62] + y[67] + y[69] + y[74] + y[75]
   + y[87] + y[90] + y[93] - z[69] >= 0
 R70: y[7] + y[9] + y[13] + y[25] + y[33] + y[37] + y[51] + y[53] + y[55]
   + y[59] + y[63] + y[68] + y[76] + y[95] - z[70] >= 0
 R71: y[12] + y[18] + y[19] + y[26] + y[38] + y[44] + y[45] + y[46] + y[47]
   + y[49] + y[50] + y[56] + y[58] + y[62] + y[67] + y[69] + y[74] + y[75]
   + y[78] + y[83] + y[85] + y[87] + y[90] + y[93] - z[71] >= 0
 R72: y[0] + y[15] + y[41] + y[82] - z[72] >= 0
 R73: y[18] + y[19] + y[26] + y[38] + y[44] + y[47] + y[49] + y[50] + y[56]
   + y[67] + y[69] + y[74] + y[75] + y[78] + y[81] + y[83] + y[85] + y[90]
   + y[93] - z[73] >= 0
 R74: y[7] + y[13] + y[23] + y[25] + y[33] + y[37] + y[42] + y[51] + y[53]
   + y[59] + y[63] + y[68] + y[76] + y[95] - z[74] >= 0
 R75: y[18] + y[19] + y[26] + y[29] + y[34] + y[38] + y[44] + y[50] + y[52]
   + y[58] + y[62] + y[69] + y[74] + y[75] + y[90] + y[93] - z[75] >= 0
 R76: y[16] + y[23] + y[24] + y[25] + y[27] + y[37] + y[41] + y[42] + y[71]
   + y[73] + y[76] - z[76] >= 0
 R77: y[0] + y[4] + y[10] + y[15] + y[16] + y[27] + y[28] + y[30] + y[33]
   + y[43] + y[80] + y[82] + y[94] - z[77] >= 0
 R78: y[3] + y[40] + y[48] + y[54] + y[60] + y[72] + y[77] + y[86] + y[99]
   - z[78] >= 0
 R79: y[10] + y[28] + y[31] + y[32] + y[33] + y[43] + y[55] + y[63] + y[79]
   + y[89] + y[99] - z[79] >= 0
 R80: y[3] + y[9] + y[11] + y[13] + y[17] + y[40] + y[54] + y[60] + y[64]
   + y[66] + y[77] + y[97] - z[80] >= 0
 R81: y[5] + y[7] + y[9] + y[11] + y[13] + y[17] + y[51] + y[53] + y[54]
   + y[64] + y[66] + y[68] + y[77] + y[97] - z[81] >= 0
 R82: y[2] + y[20] + y[32] + y[35] + y[36] + y[39] + y[48] + y[57] + y[72]
   + y[79] + y[81] + y[86] + y[88] + y[96] - z[82] >= 0
 R83: y[4] + y[10] + y[16] + y[23] + y[25] + y[27] + y[28] + y[30] + y[31]
   + y[33] + y[37] + y[43] + y[59] + y[63] + y[80] + y[89] + y[94] - z[83]
   >= 0
 R84: y[8] + y[22] + y[34] + y[52] + y[58] + y[62] + y[74] + y[75] - z[84]
   >= 0
 R85: y[8] + y[12] + y[22] + y[38] + y[45] + y[46] + y[47] + y[58] + y[61]
   + y[67] + y[70] + y[87] - z[85] >= 0
 R86: y[4] + y[19] + y[26] + y[32] + y[38] + y[44] + y[47] + y[49] + y[56]
   + y[67] + y[78] + y[81] + y[83] - z[86] >= 0
 R87: y[3] + y[11] + y[40] + y[54] + y[60] + y[66] + y[77] + y[97] + y[99]
   - z[87] >= 0
 R88: y[3] + y[40] + y[54] + y[60] + y[66] + y[77] - z[88] >= 0
 R89: y[10] + y[13] + y[25] + y[28] + y[31] + y[33] + y[37] + y[43] + y[53]
   + y[55] + y[59] + y[63] + y[68] + y[80] + y[89] - z[89] >= 0
 R90: y[8] + y[12] + y[15] + y[22] + y[38] + y[45] + y[46] + y[47] + y[61]
   + y[67] + y[70] + y[87] - z[90] >= 0
 R91: y[2] + y[20] + y[32] + y[35] + y[36] + y[39] + y[49] + y[56] + y[69]
   + y[78] + y[81] + y[83] + y[85] + y[88] + y[96] - z[91] >= 0
 R92: y[0] + y[15] + y[70] + y[82] + y[94] - z[92] >= 0
 R93: y[1] + y[6] + y[20] + y[35] + y[36] + y[39] + y[57] + y[88] + y[92]
   + y[98] - z[93] >= 0
 R94: y[29] + y[50] + y[52] + y[62] + y[74] + y[75] + y[90] + y[93] - z[94]
   >= 0
 R95: y[0] + y[15] + y[27] + y[30] + y[70] + y[80] + y[82] + y[94] - z[95]
   >= 0
 R96: y[7] + y[16] + y[23] + y[25] + y[33] + y[37] + y[42] + y[51] + y[53]
   + y[59] + y[63] + y[73] + y[76] + y[95] - z[96] >= 0
 R97: y[39] + y[98] - z[97] >= 0
 R98: y[0] + y[16] + y[23] + y[24] + y[25] + y[27] + y[37] + y[41] + y[42]
   + y[71] + y[73] + y[80] + y[82] + y[94] - z[98] >= 0
 R99: y[11] + y[17] + y[64] + y[66] + y[77] + y[97] - z[99] >= 0
 R100: y[9] + y[11] + y[13] + y[40] + y[53] + y[54] + y[55] + y[59] + y[60]
   + y[68] + y[79] + y[99] - z[100] >= 0
 R101: y[1] + y[14] + y[65] + y[98] - z[101] >= 0
 R102: y[16] + y[23] + y[24] + y[25] + y[37] + y[42] + y[71] + y[73]
   + y[76] - z[102] >= 0
 R103: y[18] + y[19] + y[21] + y[26] + y[44] + y[49] + y[50] + y[56]
   + y[69] + y[74] + y[75] + y[78] + y[81] + y[83] + y[84] + y[85] + y[90]
   + y[93] - z[103] >= 0
 R104: y[0] + y[41] - z[104] >= 0
 R105: y[1] + y[14] + y[20] + y[36] + y[39] + y[57] + y[65] + y[98]
   - z[105] >= 0
 R106: y[5] + y[7] + y[9] + y[13] + y[17] + y[25] + y[37] + y[51] + y[53]
   + y[59] + y[63] + y[68] + y[76] + y[95] - z[106] >= 0
 R107: y[4] + y[10] + y[27] + y[28] + y[30] + y[31] + y[33] + y[43] + y[59]
   + y[63] + y[80] + y[82] + y[89] + y[94] - z[107] >= 0
 R108: y[8] + y[12] + y[19] + y[22] + y[26] + y[38] + y[44] + y[45] + y[46]
   + y[47] + y[58] + y[61] + y[67] + y[70] + y[74] + y[75] + y[87] - z[108]
   >= 0
 R109: y[5] + y[7] + y[9] + y[11] + y[13] + y[17] + y[51] + y[53] + y[55]
   + y[59] + y[63] + y[68] + y[95] - z[109] >= 0
 R110: y[4] + y[10] + y[28] + y[30] + y[31] + y[33] + y[43] + y[55] + y[59]
   + y[63] + y[79] + y[80] + y[89] - z[110] >= 0
 R111: y[18] + y[19] + y[21] + y[44] + y[49] + y[50] + y[56] + y[69]
   + y[78] + y[81] + y[83] + y[84] + y[85] + y[90] + y[93] - z[111] >= 0
 R112: y[1] + y[14] + y[39] + y[65] + y[98] - z[112] >= 0
 R113: y[16] + y[24] + y[41] + y[71] - z[113] >= 0
 R114: y[16] + y[23] + y[24] + y[41] + y[42] + y[71] + y[73] - z[114] >= 0
 R115: y[16] + y[23] + y[24] + y[25] + y[27] + y[37] + y[42] + y[71]
   + y[73] + y[76] - z[115] >= 0
 R116: y[34] + y[52] + y[58] + y[62] + y[74] + y[75] - z[116] >= 0
 R117: y[3] + y[9] + y[11] + y[17] + y[54] + y[64] + y[66] + y[77] + y[97]
   - z[117] >= 0
 R118: y[3] + y[11] + y[40] + y[54] + y[60] + y[66] + y[77] + y[99]
   - z[118] >= 0
 R119: y[10] + y[28] + y[31] + y[33] + y[43] + y[55] + y[59] + y[63]
   + y[79] + y[80] + y[89] - z[119] >= 0
 R120: y[18] + y[19] + y[29] + y[34] + y[44] + y[50] + y[52] + y[62]
   + y[69] + y[74] + y[75] + y[90] + y[93] - z[120] >= 0
 R121: y[0] + y[15] + y[41] + y[82] - z[121] >= 0
 R122: y[2] + y[20] + y[21] + y[35] + y[36] + y[39] + y[57] + y[84] + y[85]
   + y[88] + y[98] - z[122] >= 0
 R123: y[4] + y[10] + y[28] + y[30] + y[31] + y[32] + y[33] + y[43] + y[49]
   + y[78] + y[79] + y[81] + y[89] - z[123] >= 0
 R124: y[2] + y[20] + y[32] + y[35] + y[36] + y[39] + y[49] + y[56] + y[57]
   + y[78] + y[81] + y[83] + y[88] + y[96] + y[98] - z[124] >= 0
 R125: y[16] + y[41] + y[71] - z[125] >= 0
 R126: y[3] + y[11] + y[17] + y[54] + y[64] + y[66] + y[77] + y[97]
   - z[126] >= 0
 R127: y[8] + y[12] + y[15] + y[22] + y[38] + y[45] + y[46] + y[47] + y[61]
   + y[67] + y[70] + y[87] - z[127] >= 0
 R128: y[2] + y[20] + y[32] + y[35] + y[36] + y[39] + y[49] + y[56] + y[69]
   + y[78] + y[81] + y[83] + y[85] + y[88] + y[96] - z[128] >= 0
 R129: y[5] + y[7] + y[9] + y[11] + y[13] + y[17] + y[51] + y[53] + y[54]
   + y[55] + y[64] + y[68] + y[95] + y[97] - z[129] >= 0
 R130: y[8] + y[12] + y[19] + y[22] + y[26] + y[34] + y[38] + y[44] + y[45]
   + y[46] + y[47] + y[58] + y[62] + y[67] + y[74] + y[75] + y[87] + y[90]
   - z[130] >= 0
 R131: y[5] + y[7] + y[9] + y[13] + y[17] + y[51] + y[53] + y[68] + y[76]
   + y[95] - z[131] >= 0
 R132: y[0] + y[15] + y[16] + y[24] + y[27] + y[41] + y[71] + y[82] + y[94]
   - z[132] >= 0
 R133: y[2] + y[4] + y[10] + y[31] + y[32] + y[35] + y[49] + y[56] + y[78]
   + y[81] + y[83] + y[88] + y[89] + y[96] - z[133] >= 0
 R134: y[5] + y[9] + y[11] + y[13] + y[17] + y[64] + y[66] + y[68] + y[77]
   + y[97] - z[134] >= 0
 R135: y[11] + y[17] + y[64] + y[66] + y[77] + y[97] - z[135] >= 0
 R136: y[16] + y[23] + y[24] + y[25] + y[27] + y[37] + y[42] + y[63]
   + y[71] + y[73] + y[76] - z[136] >= 0
 R137: y[5] + y[11] + y[17] + y[64] + y[66] + y[97] - z[137] >= 0
 R138: y[18] + y[21] + y[50] + y[69] + y[84] + y[85] + y[90] + y[93]
   - z[138] >= 0
 R139: y[31] + y[40] + y[55] + y[60] + y[72] + y[79] + y[99] - z[139] >= 0
 R140: y[5] + y[7] + y[13] + y[23] + y[25] + y[37] + y[42] + y[51] + y[53]
   + y[59] + y[63] + y[68] + y[76] + y[95] - z[140] >= 0
 R141: y[8] + y[12] + y[19] + y[22] + y[26] + y[34] + y[38] + y[44] + y[45]
   + y[46] + y[47] + y[58] + y[61] + y[62] + y[67] + y[70] + y[74] + y[75]
   + y[87] + y[90] - z[141] >= 0
 R142: y[0] + y[4] + y[12] + y[15] + y[30] + y[38] + y[47] + y[67] + y[70]
   + y[82] + y[87] + y[94] - z[142] >= 0
 R143: y[0] + y[15] + y[16] + y[23] + y[24] + y[27] + y[30] + y[41] + y[71]
   + y[80] + y[82] + y[94] - z[143] >= 0
 R144: y[18] + y[19] + y[26] + y[44] + y[49] + y[50] + y[56] + y[62]
   + y[69] + y[74] + y[75] + y[78] + y[83] + y[84] + y[85] + y[90] + y[93]
   - z[144] >= 0
 R145: y[18] + y[21] + y[36] + y[39] + y[50] + y[69] + y[84] + y[85]
   + y[93] + y[98] - z[145] >= 0
 R146: y[3] + y[40] + y[48] + y[60] + y[72] + y[86] + y[91] + y[99]
   - z[146] >= 0
 R147: y[5] + y[7] + y[9] + y[11] + y[13] + y[17] + y[51] + y[53] + y[55]
   + y[59] + y[68] + y[95] - z[147] >= 0
 R148: y[5] + y[7] + y[9] + y[11] + y[13] + y[17] + y[51] + y[53] + y[64]
   + y[68] + y[95] - z[148] >= 0
 R149: y[0] + y[15] + y[16] + y[24] + y[27] + y[41] + y[71] + y[82] + y[94]
   - z[149] >= 0
 R150: y[12] + y[15] + y[19] + y[26] + y[38] + y[45] + y[46] + y[47]
   + y[61] + y[67] + y[70] + y[87] - z[150] >= 0
 R151: y[5] + y[7] + y[9] + y[11] + y[13] + y[17] + y[51] + y[53] + y[59]
   + y[63] + y[68] + y[76] + y[95] - z[151] >= 0
 R152: y[8] + y[12] + y[15] + y[22] + y[26] + y[38] + y[45] + y[46] + y[47]
   + y[61] + y[67] + y[70] + y[87] - z[152] >= 0
 R153: y[2] + y[4] + y[10] + y[31] + y[32] + y[35] + y[43] + y[49] + y[56]
   + y[78] + y[81] + y[83] + y[88] + y[89] + y[96] - z[153] >= 0
 R154: y[6] + y[40] + y[48] + y[60] + y[72] + y[86] + y[91] + y[92]
   - z[154] >= 0
 R155: y[5] + y[7] + y[9] + y[13] + y[25] + y[37] + y[51] + y[53] + y[55]
   + y[59] + y[63] + y[68] + y[76] + y[95] - z[155] >= 0
 R156: y[3] + y[40] + y[48] + y[54] + y[60] + y[72] + y[79] + y[86] + y[99]
   - z[156] >= 0
 R157: y[1] + y[6] + y[14] + y[20] + y[48] + y[57] + y[65] + y[86] + y[91]
   + y[92] - z[157] >= 0
 R158: y[11] + y[17] + y[64] + y[66] + y[77] + y[97] - z[158] >= 0
 R159: y[5] + y[9] + y[11] + y[13] + y[17] + y[51] + y[53] + y[54] + y[64]
   + y[66] + y[68] + y[77] + y[97] - z[159] >= 0
 R160: y[0] + y[15] + y[41] + y[82] - z[160] >= 0
 R161: y[3] + y[9] + y[40] + y[54] + y[55] + y[60] + y[72] + y[79] + y[99]
   - z[161] >= 0
 R162: y[18] + y[21] + y[50] + y[69] + y[84] + y[85] + y[93] - z[162] >= 0
 R163: y[3] + y[40] + y[48] + y[54] + y[60] + y[86] - z[163] >= 0
 R164: y[7] + y[9] + y[13] + y[33] + y[51] + y[53] + y[55] + y[59] + y[63]
   + y[68] + y[95] - z[164] >= 0
 R165: y[5] + y[7] + y[9] + y[11] + y[13] + y[17] + y[51] + y[53] + y[54]
   + y[64] + y[68] + y[77] + y[95] + y[97] - z[165] >= 0
 R166: y[18] + y[19] + y[26] + y[29] + y[38] + y[44] + y[45] + y[50]
   + y[52] + y[58] + y[62] + y[67] + y[69] + y[74] + y[75] + y[85] + y[87]
   + y[90] + y[93] - z[166] >= 0
 R167: y[0] + y[4] + y[10] + y[15] + y[27] + y[28] + y[30] + y[31] + y[33]
   + y[43] + y[47] + y[80] + y[82] + y[89] + y[94] - z[167] >= 0
 R168: y[3] + y[40] + y[54] + y[60] + y[66] + y[77] + y[99] - z[168] >= 0
 R169: y[1] + y[6] + y[14] + y[20] + y[39] + y[57] + y[65] + y[91] + y[92]
   + y[98] - z[169] >= 0
 R170: y[1] + y[6] + y[14] + y[65] + y[92] + y[98] - z[170] >= 0
 R171: y[4] + y[10] + y[15] + y[28] + y[30] + y[31] + y[32] + y[33] + y[43]
   + y[47] + y[49] + y[78] + y[80] + y[82] + y[83] + y[89] + y[94] - z[171]
   >= 0
 R172: y[18] + y[19] + y[26] + y[29] + y[38] + y[44] + y[45] + y[47]
   + y[50] + y[52] + y[58] + y[62] + y[67] + y[69] + y[74] + y[75] + y[85]
   + y[87] + y[90] + y[93] - z[172] >= 0
 R173: y[3] + y[9] + y[11] + y[17] + y[40] + y[54] + y[55] + y[60] + y[66]
   + y[77] + y[99] - z[173] >= 0
 R174: y[16] + y[23] + y[24] + y[25] + y[27] + y[28] + y[30] + y[33]
   + y[37] + y[42] + y[43] + y[59] + y[63] + y[71] + y[73] + y[76] + y[80]
   + y[94] - z[174] >= 0
 R175: y[2] + y[18] + y[19] + y[32] + y[35] + y[44] + y[49] + y[56] + y[69]
   + y[78] + y[81] + y[83] + y[84] + y[85] + y[93] - z[175] >= 0
 R176: y[0] + y[15] + y[61] + y[70] + y[82] - z[176] >= 0
 R177: y[0] + y[16] + y[23] + y[24] + y[25] + y[27] + y[28] + y[30] + y[33]
   + y[37] + y[42] + y[43] + y[59] + y[63] + y[71] + y[73] + y[76] + y[80]
   + y[82] + y[94] - z[177] >= 0
 R178: y[2] + y[31] + y[32] + y[35] + y[49] + y[72] + y[79] + y[81] + y[88]
   + y[89] + y[96] - z[178] >= 0
 R179: y[3] + y[9] + y[11] + y[13] + y[40] + y[54] + y[55] + y[60] + y[79]
   + y[99] - z[179] >= 0
 R180: y[4] + y[10] + y[16] + y[23] + y[25] + y[27] + y[28] + y[30] + y[33]
   + y[37] + y[42] + y[43] + y[59] + y[63] + y[76] + y[80] + y[94] - z[180]
   >= 0
 R181: y[8] + y[12] + y[22] + y[38] + y[45] + y[46] + y[47] + y[61] + y[67]
   + y[70] + y[87] - z[181] >= 0
 R182: y[6] + y[48] + y[57] + y[72] + y[86] + y[91] + y[92] - z[182] >= 0
 R183: y[3] + y[40] + y[54] + y[60] + y[66] + y[77] + y[99] - z[183] >= 0
 R184: y[19] + y[29] + y[34] + y[50] + y[52] + y[58] + y[62] + y[74]
   + y[75] + y[90] - z[184] >= 0
 R185: y[1] + y[6] + y[14] + y[20] + y[36] + y[39] + y[57] + y[65] + y[91]
   + y[92] + y[98] - z[185] >= 0
 R186: y[16] + y[23] + y[24] + y[25] + y[27] + y[37] + y[42] + y[71]
   + y[73] + y[76] - z[186] >= 0
 R187: y[3] + y[5] + y[9] + y[11] + y[13] + y[17] + y[51] + y[54] + y[64]
   + y[66] + y[68] + y[77] + y[97] - z[187] >= 0
 R188: y[4] + y[10] + y[28] + y[30] + y[31] + y[32] + y[43] + y[47] + y[49]
   + y[56] + y[78] + y[81] + y[83] + y[89] - z[188] >= 0
 R189: y[2] + y[20] + y[32] + y[35] + y[36] + y[39] + y[57] + y[72] + y[81]
   + y[88] + y[96] + y[98] - z[189] >= 0
 R190: y[18] + y[19] + y[21] + y[26] + y[44] + y[49] + y[50] + y[56]
   + y[69] + y[74] + y[75] + y[78] + y[81] + y[83] + y[84] + y[85] + y[90]
   + y[93] - z[190] >= 0
 R191: y[0] + y[16] + y[23] + y[24] + y[27] + y[41] + y[42] + y[71] + y[73]
   - z[191] >= 0
 R192: y[0] + y[4] + y[10] + y[15] + y[27] + y[28] + y[30] + y[31] + y[33]
   + y[43] + y[47] + y[70] + y[80] + y[82] + y[89] + y[94] - z[192] >= 0
 R193: y[40] + y[48] + y[60] + y[72] + y[86] + y[91] - z[193] >= 0
 R194: y[1] + y[14] + y[57] + y[65] + y[92] + y[98] - z[194] >= 0
 R195: y[8] + y[12] + y[19] + y[22] + y[26] + y[34] + y[38] + y[44] + y[45]
   + y[46] + y[47] + y[58] + y[61] + y[62] + y[67] + y[70] + y[74] + y[75]
   + y[87] + y[90] - z[195] >= 0
 R196: y[0] + y[4] + y[15] + y[16] + y[23] + y[27] + y[28] + y[30] + y[33]
   + y[43] + y[80] + y[82] + y[94] - z[196] >= 0
 R197: y[3] + y[9] + y[11] + y[17] + y[54] + y[64] + y[66] + y[77] + y[97]
   - z[197] >= 0
 R198: y[7] + y[13] + y[23] + y[25] + y[28] + y[33] + y[37] + y[42] + y[43]
   + y[51] + y[53] + y[55] + y[59] + y[63] + y[68] + y[76] + y[80] + y[95]
   - z[198] >= 0
 R199: y[8] + y[22] + y[29] + y[34] + y[52] + y[58] + y[62] + y[74] + y[75]
   + y[90] - z[199] >= 0
 R200: y[2] + y[20] + y[32] + y[35] + y[36] + y[39] + y[48] + y[57] + y[72]
   + y[86] + y[88] + y[92] + y[96] - z[200] >= 0
 R201: y[1] + y[20] + y[35] + y[36] + y[39] + y[57] + y[98] - z[201] >= 0
 R202: y[1] + y[14] + y[65] - z[202] >= 0
 R203: y[2] + y[4] + y[10] + y[31] + y[32] + y[35] + y[49] + y[56] + y[78]
   + y[81] + y[83] + y[88] + y[89] + y[96] - z[203] >= 0
 R204: y[0] + y[4] + y[10] + y[15] + y[27] + y[28] + y[30] + y[33] + y[43]
   + y[70] + y[80] + y[82] + y[94] - z[204] >= 0
 R205: y[0] + y[16] + y[24] + y[27] + y[41] + y[71] + y[82] + y[94]
   - z[205] >= 0
 R206: y[12] + y[19] + y[26] + y[38] + y[44] + y[45] + y[46] + y[47]
   + y[49] + y[56] + y[67] + y[70] + y[78] + y[83] + y[87] - z[206] >= 0
 R207: y[0] + y[15] + y[41] + y[82] - z[207] >= 0
 R208: y[40] + y[48] + y[57] + y[60] + y[72] + y[79] + y[86] + y[88]
   + y[91] + y[92] + y[96] + y[99] - z[208] >= 0
 R209: y[7] + y[23] + y[25] + y[37] + y[42] + y[51] + y[53] + y[59] + y[63]
   + y[73] + y[76] + y[95] - z[209] >= 0
 R210: y[2] + y[6] + y[20] + y[35] + y[36] + y[39] + y[48] + y[57] + y[72]
   + y[86] + y[88] + y[91] + y[92] + y[96] - z[210] >= 0
 R211: y[6] + y[48] + y[57] + y[72] + y[86] + y[91] + y[92] - z[211] >= 0
 R212: y[1] + y[14] + y[65] + y[98] - z[212] >= 0
 R213: y[18] + y[19] + y[26] + y[29] + y[34] + y[38] + y[44] + y[50]
   + y[52] + y[58] + y[62] + y[69] + y[74] + y[75] + y[87] + y[90] + y[93]
   - z[213] >= 0
 R214: y[9] + y[11] + y[13] + y[40] + y[54] + y[55] + y[59] + y[60] + y[68]
   + y[79] + y[99] - z[214] >= 0
 R215: y[3] + y[11] + y[40] + y[54] + y[60] + y[66] + y[77] + y[97] + y[99]
   - z[215] >= 0
 R216: y[0] + y[15] + y[70] + y[82] + y[94] - z[216] >= 0
 R217: y[19] + y[26] + y[32] + y[44] + y[47] + y[49] + y[56] + y[67]
   + y[69] + y[78] + y[81] + y[83] + y[85] + y[89] - z[217] >= 0
 R218: y[16] + y[23] + y[24] + y[27] + y[41] + y[42] + y[71] + y[73]
   - z[218] >= 0
 R219: y[18] + y[21] + y[44] + y[50] + y[56] + y[69] + y[83] + y[84]
   + y[85] + y[90] + y[93] - z[219] >= 0
 R220: y[3] + y[40] + y[54] + y[60] + y[77] - z[220] >= 0
 R221: y[8] + y[12] + y[22] + y[38] + y[45] + y[46] + y[47] + y[61] + y[67]
   + y[70] + y[87] - z[221] >= 0
 R222: y[3] + y[9] + y[11] + y[17] + y[40] + y[54] + y[60] + y[64] + y[66]
   + y[77] + y[97] + y[99] - z[222] >= 0
 R223: y[5] + y[7] + y[9] + y[11] + y[13] + y[17] + y[51] + y[53] + y[54]
   + y[64] + y[68] + y[77] + y[95] + y[97] - z[223] >= 0
 R224: y[8] + y[12] + y[19] + y[22] + y[26] + y[34] + y[38] + y[45] + y[46]
   + y[47] + y[58] + y[61] + y[67] + y[70] + y[74] + y[75] + y[87] - z[224]
   >= 0
 R225: y[0] + y[4] + y[10] + y[15] + y[16] + y[23] + y[25] + y[27] + y[28]
   + y[30] + y[33] + y[37] + y[42] + y[43] + y[59] + y[63] + y[80] + y[82]
   + y[89] + y[94] - z[225] >= 0
 R226: y[1] + y[6] + y[14] + y[20] + y[39] + y[57] + y[65] + y[91] + y[92]
   + y[98] - z[226] >= 0
 R227: y[3] + y[9] + y[11] + y[40] + y[54] + y[55] + y[60] + y[66] + y[77]
   + y[79] + y[99] - z[227] >= 0
 R228: y[8] + y[12] + y[19] + y[22] + y[26] + y[38] + y[45] + y[46] + y[47]
   + y[58] + y[61] + y[67] + y[70] + y[74] + y[87] - z[228] >= 0
 R229: y[11] + y[17] + y[64] + y[66] + y[77] + y[97] - z[229] >= 0
 R230: y[18] + y[19] + y[26] + y[29] + y[38] + y[44] + y[50] + y[56]
   + y[62] + y[69] + y[74] + y[75] + y[84] + y[85] + y[90] + y[93] - z[230]
   >= 0
 R231: y[18] + y[19] + y[26] + y[29] + y[34] + y[38] + y[44] + y[50]
   + y[52] + y[58] + y[62] + y[69] + y[74] + y[75] + y[90] + y[93] - z[231]
   >= 0
 R232: y[4] + y[10] + y[28] + y[30] + y[31] + y[32] + y[33] + y[43] + y[55]
   + y[59] + y[63] + y[80] + y[89] - z[232] >= 0
 R233: y[2] + y[4] + y[10] + y[31] + y[32] + y[35] + y[49] + y[56] + y[78]
   + y[81] + y[83] + y[88] + y[89] + y[96] - z[233] >= 0
 R234: y[2] + y[18] + y[19] + y[26] + y[32] + y[35] + y[44] + y[49] + y[56]
   + y[69] + y[78] + y[81] + y[83] + y[85] - z[234] >= 0
 R235: y[29] + y[34] + y[52] + y[58] + y[62] + y[74] + y[75] - z[235] >= 0
 R236: y[4] + y[10] + y[28] + y[30] + y[31] + y[32] + y[33] + y[43] + y[63]
   + y[80] + y[89] - z[236] >= 0
 R237: y[5] + y[7] + y[9] + y[11] + y[13] + y[17] + y[51] + y[53] + y[59]
   + y[64] + y[68] + y[95] - z[237] >= 0
 R238: y[0] + y[15] + y[16] + y[27] + y[30] + y[70] + y[80] + y[82] + y[94]
   - z[238] >= 0
 R239: y[12] + y[15] + y[45] + y[46] + y[61] + y[67] + y[70] - z[239] >= 0
 R240: y[9] + y[11] + y[13] + y[40] + y[53] + y[54] + y[55] + y[59] + y[60]
   + y[68] + y[79] + y[99] - z[240] >= 0
 R241: y[0] + y[12] + y[15] + y[67] + y[70] + y[82] + y[94] - z[241] >= 0
 R242: y[2] + y[20] + y[32] + y[35] + y[36] + y[48] + y[57] + y[72] + y[79]
   + y[86] + y[88] + y[96] - z[242] >= 0
 R243: y[18] + y[29] + y[34] + y[50] + y[52] + y[62] + y[74] + y[75]
   + y[90] + y[93] - z[243] >= 0
 R244: y[1] + y[6] + y[14] + y[57] + y[65] + y[91] + y[92] - z[244] >= 0
 R245: y[5] + y[7] + y[9] + y[11] + y[13] + y[17] + y[51] + y[53] + y[55]
   + y[59] + y[63] + y[68] + y[95] - z[245] >= 0
 R246: y[0] + y[41] - z[246] >= 0
 R247: y[2] + y[20] + y[35] + y[36] + y[39] + y[57] + y[84] + y[88] + y[98]
   - z[247] >= 0
 R248: y[4] + y[10] + y[28] + y[30] + y[31] + y[32] + y[33] + y[43] + y[47]
   + y[49] + y[78] + y[80] + y[81] + y[83] + y[89] - z[248] >= 0
 R249: y[16] + y[24] + y[41] + y[71] - z[249] >= 0
 R250: y[1] + y[6] + y[14] + y[65] + y[91] + y[92] - z[250] >= 0
 R251: y[0] + y[15] + y[16] + y[23] + y[24] + y[27] + y[30] + y[41] + y[42]
   + y[71] + y[73] + y[80] + y[82] + y[94] - z[251] >= 0
 R252: y[0] + y[4] + y[10] + y[15] + y[27] + y[28] + y[30] + y[43] + y[47]
   + y[67] + y[70] + y[80] + y[82] + y[94] - z[252] >= 0
 R253: y[1] + y[20] + y[36] + y[39] + y[57] + y[65] + y[98] - z[253] >= 0
 R254: y[0] + y[4] + y[10] + y[15] + y[27] + y[28] + y[30] + y[31] + y[33]
   + y[43] + y[47] + y[80] + y[82] + y[89] + y[94] - z[254] >= 0
 R255: y[2] + y[20] + y[35] + y[36] + y[39] + y[57] + y[88] + y[92] + y[96]
   + y[98] - z[255] >= 0
 R256: y[16] + y[23] + y[24] + y[41] + y[42] + y[71] + y[73] - z[256] >= 0
 R257: y[2] + y[20] + y[35] + y[36] + y[39] + y[56] + y[57] + y[81] + y[84]
   + y[85] + y[88] + y[96] + y[98] - z[257] >= 0
 R258: y[1] + y[20] + y[36] + y[39] + y[57] + y[92] + y[98] - z[258] >= 0
 R259: y[2] + y[20] + y[35] + y[36] + y[39] + y[57] + y[88] + y[98]
   - z[259] >= 0
 R260: y[6] + y[14] + y[48] + y[57] + y[86] + y[91] + y[92] - z[260] >= 0
 R261: y[3] + y[11] + y[40] + y[54] + y[60] + y[66] + y[77] + y[99]
   - z[261] >= 0
 R262: y[29] + y[34] + y[52] + y[58] + y[62] + y[74] + y[75] + y[90]
   - z[262] >= 0
 R263: y[2] + y[4] + y[10] + y[31] + y[32] + y[35] + y[49] + y[56] + y[78]
   + y[81] + y[83] + y[89] - z[263] >= 0
 R264: y[2] + y[31] + y[32] + y[35] + y[55] + y[72] + y[79] + y[81] + y[88]
   + y[89] + y[96] + y[99] - z[264] >= 0
 R265: y[4] + y[10] + y[19] + y[26] + y[32] + y[38] + y[44] + y[47] + y[49]
   + y[56] + y[67] + y[78] + y[81] + y[83] + y[89] - z[265] >= 0
 R266: y[2] + y[20] + y[35] + y[36] + y[39] + y[48] + y[57] + y[72] + y[79]
   + y[86] + y[88] + y[91] + y[92] + y[96] - z[266] >= 0
 R267: y[8] + y[12] + y[22] + y[38] + y[45] + y[46] + y[47] + y[61] + y[67]
   + y[70] + y[87] - z[267] >= 0
 R268: y[18] + y[21] + y[50] + y[69] + y[84] + y[85] + y[93] - z[268] >= 0
 R269: y[18] + y[19] + y[21] + y[26] + y[44] + y[49] + y[50] + y[56]
   + y[69] + y[78] + y[81] + y[83] + y[84] + y[85] + y[90] + y[93] - z[269]
   >= 0
 R270: y[2] + y[18] + y[20] + y[21] + y[32] + y[35] + y[36] + y[39] + y[49]
   + y[56] + y[69] + y[78] + y[81] + y[83] + y[84] + y[85] + y[88] + y[93]
   + y[98] - z[270] >= 0
 R271: y[5] + y[7] + y[9] + y[11] + y[13] + y[17] + y[51] + y[53] + y[54]
   + y[64] + y[66] + y[68] + y[77] + y[97] - z[271] >= 0
 R272: y[1] + y[6] + y[14] + y[20] + y[39] + y[48] + y[57] + y[72] + y[86]
   + y[91] + y[92] - z[272] >= 0
 R273: y[10] + y[28] + y[31] + y[32] + y[33] + y[43] + y[55] + y[79]
   + y[89] + y[96] + y[99] - z[273] >= 0
 R274: y[12] + y[19] + y[26] + y[38] + y[44] + y[45] + y[46] + y[47]
   + y[49] + y[56] + y[67] + y[70] + y[78] + y[83] + y[87] - z[274] >= 0
 R275: y[0] + y[4] + y[15] + y[16] + y[23] + y[27] + y[28] + y[30] + y[33]
   + y[42] + y[43] + y[63] + y[80] + y[82] + y[94] - z[275] >= 0
 R276: y[7] + y[9] + y[13] + y[25] + y[28] + y[33] + y[37] + y[43] + y[51]
   + y[53] + y[55] + y[59] + y[63] + y[68] + y[76] + y[95] - z[276] >= 0
 R277: y[0] + y[15] + y[16] + y[27] + y[30] + y[41] + y[71] + y[80] + y[82]
   + y[94] - z[277] >= 0
 R278: y[6] + y[20] + y[35] + y[36] + y[39] + y[48] + y[57] + y[72] + y[86]
   + y[88] + y[91] + y[92] + y[96] - z[278] >= 0
 R279: y[8] + y[12] + y[19] + y[22] + y[26] + y[38] + y[44] + y[45] + y[46]
   + y[47] + y[58] + y[61] + y[67] + y[70] + y[74] + y[87] - z[279] >= 0
 R280: y[0] + y[4] + y[12] + y[15] + y[30] + y[47] + y[67] + y[70] + y[80]
   + y[82] + y[94] - z[280] >= 0
 R281: y[8] + y[12] + y[22] + y[38] + y[45] + y[46] + y[47] + y[61] + y[67]
   + y[70] + y[87] - z[281] >= 0
 R282: y[29] + y[34] + y[52] + y[58] + y[62] + y[74] + y[75] - z[282] >= 0
 R283: y[11] + y[17] + y[64] + y[66] + y[77] + y[97] - z[283] >= 0
 R284: y[40] + y[48] + y[60] + y[72] + y[79] + y[86] + y[91] + y[99]
   - z[284] >= 0
 R285: y[0] + y[4] + y[10] + y[15] + y[16] + y[27] + y[28] + y[30] + y[33]
   + y[43] + y[80] + y[82] + y[89] + y[94] - z[285] >= 0
 R286: y[4] + y[10] + y[27] + y[28] + y[30] + y[31] + y[33] + y[43] + y[63]
   + y[80] + y[89] + y[94] - z[286] >= 0
 R287: y[0] + y[16] + y[24] + y[41] + y[71] - z[287] >= 0
 R288: y[10] + y[13] + y[28] + y[31] + y[33] + y[43] + y[55] + y[59]
   + y[63] + y[79] + y[80] + y[89] - z[288] >= 0
 R289: y[6] + y[20] + y[48] + y[57] + y[72] + y[86] + y[91] + y[92]
   - z[289] >= 0
 R290: y[1] + y[6] + y[14] + y[20] + y[57] + y[65] + y[91] + y[92] - z[290]
   >= 0
 R291: y[41] - z[291] >= 0
 R292: y[4] + y[10] + y[28] + y[30] + y[31] + y[32] + y[33] + y[43] + y[49]
   + y[78] + y[80] + y[81] + y[83] + y[89] - z[292] >= 0
 R293: y[0] + y[15] + y[16] + y[24] + y[27] + y[41] + y[71] + y[82] + y[94]
   - z[293] >= 0
 R294: y[3] + y[9] + y[11] + y[13] + y[17] + y[40] + y[54] + y[55] + y[60]
   + y[64] + y[66] + y[68] + y[77] + y[97] + y[99] - z[294] >= 0
 R295: y[9] + y[13] + y[31] + y[33] + y[55] + y[59] + y[63] + y[68] + y[79]
   + y[99] - z[295] >= 0
 R296: y[5] + y[7] + y[9] + y[11] + y[13] + y[17] + y[51] + y[53] + y[64]
   + y[68] + y[97] - z[296] >= 0
 R297: y[6] + y[20] + y[48] + y[57] + y[86] + y[91] + y[92] - z[297] >= 0
 R298: y[1] + y[14] + y[20] + y[36] + y[39] + y[57] + y[65] + y[92] + y[98]
   - z[298] >= 0
 R299: y[18] + y[19] + y[21] + y[29] + y[44] + y[50] + y[56] + y[62]
   + y[69] + y[74] + y[75] + y[84] + y[85] + y[90] + y[93] - z[299] >= 0
 R300: y[8] + y[12] + y[19] + y[22] + y[26] + y[38] + y[44] + y[45] + y[46]
   + y[47] + y[58] + y[61] + y[67] + y[70] + y[87] - z[300] >= 0
 R301: y[6] + y[48] + y[86] + y[91] + y[92] - z[301] >= 0
 R302: y[6] + y[20] + y[35] + y[48] + y[57] + y[72] + y[79] + y[86] + y[88]
   + y[91] + y[92] + y[96] - z[302] >= 0
 R303: y[3] + y[5] + y[9] + y[11] + y[13] + y[17] + y[54] + y[64] + y[66]
   + y[77] + y[97] - z[303] >= 0
 R304: y[3] + y[9] + y[11] + y[13] + y[40] + y[54] + y[55] + y[60] + y[77]
   + y[79] + y[99] - z[304] >= 0
 R305: y[8] + y[12] + y[19] + y[22] + y[26] + y[34] + y[38] + y[44] + y[45]
   + y[46] + y[52] + y[58] + y[61] + y[62] + y[67] + y[74] + y[75] + y[87]
   + y[90] - z[305] >= 0
 R306: y[6] + y[14] + y[48] + y[57] + y[65] + y[86] + y[91] + y[92]
   - z[306] >= 0
 R307: y[0] + y[16] + y[23] + y[24] + y[27] + y[41] + y[42] + y[71] + y[73]
   - z[307] >= 0
 R308: y[0] + y[4] + y[10] + y[15] + y[27] + y[28] + y[30] + y[31] + y[33]
   + y[43] + y[80] + y[82] + y[89] + y[94] - z[308] >= 0
 R309: y[10] + y[13] + y[28] + y[31] + y[33] + y[43] + y[55] + y[59]
   + y[63] + y[79] + y[89] + y[99] - z[309] >= 0
 R310: y[5] + y[7] + y[9] + y[11] + y[13] + y[17] + y[25] + y[37] + y[51]
   + y[53] + y[59] + y[63] + y[68] + y[76] + y[95] - z[310] >= 0
 R311: y[0] + y[15] + y[16] + y[27] + y[41] + y[71] + y[82] + y[94]
   - z[311] >= 0
 R312: y[3] + y[40] + y[48] + y[54] + y[60] + y[72] + y[79] + y[86] + y[99]
   - z[312] >= 0
 R313: y[16] + y[23] + y[24] + y[25] + y[27] + y[37] + y[42] + y[71]
   + y[73] + y[76] - z[313] >= 0
 R314: y[6] + y[20] + y[48] + y[57] + y[72] + y[86] + y[91] + y[92]
   - z[314] >= 0
 R315: y[12] + y[19] + y[26] + y[38] + y[44] + y[45] + y[46] + y[47]
   + y[56] + y[58] + y[67] + y[69] + y[70] + y[74] + y[75] + y[78] + y[83]
   + y[87] + y[90] + y[93] - z[315] >= 0
 R316: y[16] + y[23] + y[24] + y[25] + y[27] + y[37] + y[42] + y[59]
   + y[63] + y[71] + y[73] + y[76] - z[316] >= 0
 R317: y[7] + y[9] + y[11] + y[13] + y[51] + y[53] + y[55] + y[59] + y[63]
   + y[68] + y[79] + y[95] + y[99] - z[317] >= 0
 R318: y[16] + y[23] + y[24] + y[25] + y[27] + y[28] + y[30] + y[33]
   + y[37] + y[42] + y[43] + y[59] + y[63] + y[71] + y[73] + y[76] + y[80]
   + y[94] - z[318] >= 0
 R319: y[2] + y[4] + y[10] + y[28] + y[31] + y[32] + y[43] + y[49] + y[56]
   + y[78] + y[81] + y[83] + y[89] + y[96] - z[319] >= 0
 R320: y[0] + y[16] + y[23] + y[24] + y[25] + y[27] + y[37] + y[42] + y[63]
   + y[71] + y[73] + y[76] + y[80] + y[94] - z[320] >= 0
 R321: y[6] + y[20] + y[40] + y[48] + y[57] + y[72] + y[86] + y[88] + y[91]
   + y[92] + y[96] - z[321] >= 0
 R322: y[9] + y[11] + y[13] + y[17] + y[40] + y[51] + y[53] + y[54] + y[55]
   + y[59] + y[60] + y[68] + y[79] + y[99] - z[322] >= 0
 R323: y[5] + y[7] + y[9] + y[13] + y[17] + y[25] + y[37] + y[51] + y[53]
   + y[59] + y[68] + y[76] + y[95] - z[323] >= 0
 R324: y[18] + y[21] + y[29] + y[50] + y[62] + y[69] + y[75] + y[84]
   + y[85] + y[90] + y[93] - z[324] >= 0
 R325: y[0] + y[15] + y[16] + y[27] + y[41] + y[71] + y[82] + y[94]
   - z[325] >= 0
 R326: y[18] + y[21] + y[29] + y[50] + y[69] + y[84] + y[85] + y[90]
   + y[93] - z[326] >= 0
 R327: y[16] + y[23] + y[25] + y[27] + y[28] + y[30] + y[33] + y[37]
   + y[42] + y[43] + y[59] + y[63] + y[73] + y[76] + y[80] + y[82] + y[94]
   - z[327] >= 0
 R328: y[0] + y[4] + y[15] + y[16] + y[27] + y[28] + y[30] + y[33] + y[43]
   + y[80] + y[82] + y[94] - z[328] >= 0
 R329: y[6] + y[20] + y[48] + y[57] + y[72] + y[86] + y[91] + y[92]
   - z[329] >= 0
 R330: y[16] + y[23] + y[24] + y[25] + y[27] + y[33] + y[37] + y[42]
   + y[59] + y[63] + y[71] + y[73] + y[76] + y[80] - z[330] >= 0
 R331: y[0] + y[15] + y[16] + y[23] + y[24] + y[27] + y[41] + y[42] + y[71]
   + y[73] + y[82] + y[94] - z[331] >= 0
 R332: y[18] + y[19] + y[26] + y[32] + y[44] + y[49] + y[50] + y[56]
   + y[69] + y[74] + y[75] + y[78] + y[81] + y[83] + y[84] + y[85] + y[90]
   + y[93] - z[332] >= 0
 R333: y[1] + y[6] + y[14] + y[20] + y[57] + y[65] + y[91] + y[92] + y[98]
   - z[333] >= 0
 R334: y[18] + y[19] + y[26] + y[32] + y[44] + y[47] + y[49] + y[50]
   + y[56] + y[69] + y[74] + y[75] + y[78] + y[81] + y[83] + y[84] + y[85]
   + y[90] + y[93] - z[334] >= 0
 R335: y[3] + y[40] + y[54] + y[55] + y[60] + y[72] + y[77] + y[79] + y[99]
   - z[335] >= 0
 R336: y[6] + y[48] + y[57] + y[86] + y[91] + y[92] - z[336] >= 0
 R337: y[6] + y[20] + y[48] + y[57] + y[72] + y[86] + y[91] + y[92]
   - z[337] >= 0
 R338: y[2] + y[20] + y[35] + y[36] + y[39] + y[48] + y[57] + y[72] + y[86]
   + y[88] + y[91] + y[92] + y[96] - z[338] >= 0
 R339: y[2] + y[31] + y[32] + y[35] + y[72] + y[79] + y[81] + y[88] + y[89]
   + y[96] + y[99] - z[339] >= 0
 R340: y[5] + y[7] + y[9] + y[11] + y[13] + y[17] + y[51] + y[53] + y[64]
   + y[68] + y[95] + y[97] - z[340] >= 0
 R341: y[8] + y[12] + y[22] + y[34] + y[38] + y[45] + y[46] + y[58] + y[61]
   + y[87] - z[341] >= 0
 R342: y[3] + y[11] + y[17] + y[54] + y[64] + y[66] + y[77] + y[97]
   - z[342] >= 0
 R343: y[4] + y[10] + y[27] + y[28] + y[30] + y[31] + y[33] + y[43] + y[63]
   + y[80] + y[82] + y[89] + y[94] - z[343] >= 0
 R344: y[0] + y[16] + y[41] + y[71] + y[82] - z[344] >= 0
 R345: y[0] + y[4] + y[10] + y[15] + y[16] + y[27] + y[28] + y[30] + y[33]
   + y[43] + y[63] + y[80] + y[82] + y[89] + y[94] - z[345] >= 0
 R346: y[4] + y[10] + y[28] + y[30] + y[31] + y[32] + y[33] + y[43] + y[49]
   + y[78] + y[80] + y[81] + y[83] + y[89] - z[346] >= 0
 R347: y[0] + y[4] + y[12] + y[15] + y[26] + y[30] + y[38] + y[45] + y[46]
   + y[47] + y[67] + y[70] + y[82] + y[87] + y[94] - z[347] >= 0
 R348: y[18] + y[19] + y[21] + y[26] + y[29] + y[44] + y[50] + y[56]
   + y[62] + y[69] + y[74] + y[75] + y[84] + y[85] + y[90] + y[93] - z[348]
   >= 0
 R349: y[5] + y[7] + y[9] + y[13] + y[25] + y[37] + y[51] + y[53] + y[59]
   + y[63] + y[68] + y[76] + y[95] - z[349] >= 0
 R350: y[2] + y[18] + y[19] + y[26] + y[32] + y[35] + y[44] + y[49] + y[56]
   + y[69] + y[78] + y[81] + y[83] + y[85] + y[93] - z[350] >= 0
 R351: y[0] + y[4] + y[10] + y[15] + y[27] + y[28] + y[30] + y[31] + y[33]
   + y[43] + y[47] + y[80] + y[82] + y[89] + y[94] - z[351] >= 0
 R352: y[0] + y[15] + y[70] + y[82] + y[94] - z[352] >= 0
 R353: y[0] + y[41] - z[353] >= 0
 R354: y[1] + y[6] + y[20] + y[35] + y[36] + y[39] + y[57] + y[92] + y[98]
   - z[354] >= 0
 R355: y[6] + y[20] + y[48] + y[57] + y[72] + y[86] + y[91] + y[92]
   - z[355] >= 0
 R356: y[4] + y[10] + y[28] + y[30] + y[31] + y[32] + y[33] + y[43] + y[49]
   + y[78] + y[80] + y[81] + y[83] + y[89] - z[356] >= 0
 R357: y[21] + y[35] + y[36] + y[39] + y[84] + y[85] + y[98] - z[357] >= 0
 R358: y[0] + y[4] + y[10] + y[15] + y[16] + y[27] + y[28] + y[30] + y[33]
   + y[43] + y[80] + y[82] + y[89] + y[94] - z[358] >= 0
 R359: y[5] + y[7] + y[13] + y[23] + y[25] + y[37] + y[42] + y[51] + y[53]
   + y[59] + y[68] + y[73] + y[76] + y[95] - z[359] >= 0
 R360: y[0] + y[4] + y[10] + y[15] + y[27] + y[28] + y[30] + y[31] + y[33]
   + y[43] + y[63] + y[80] + y[82] + y[89] + y[94] - z[360] >= 0
 R361: y[1] + y[6] + y[14] + y[20] + y[36] + y[39] + y[57] + y[65] + y[91]
   + y[92] + y[98] - z[361] >= 0
 R362: y[18] + y[19] + y[21] + y[26] + y[29] + y[44] + y[50] + y[56]
   + y[62] + y[69] + y[74] + y[75] + y[83] + y[84] + y[85] + y[90] + y[93]
   - z[362] >= 0
 R363: y[98] - z[363] >= 0
 R364: y[8] + y[12] + y[22] + y[26] + y[38] + y[45] + y[46] + y[47] + y[58]
   + y[61] + y[67] + y[70] + y[87] - z[364] >= 0
 R365: y[0] + y[4] + y[15] + y[16] + y[23] + y[25] + y[27] + y[28] + y[30]
   + y[33] + y[37] + y[42] + y[43] + y[59] + y[63] + y[80] + y[82] + y[94]
   - z[365] >= 0
 R366: y[2] + y[31] + y[32] + y[35] + y[55] + y[72] + y[79] + y[88] + y[89]
   + y[96] + y[99] - z[366] >= 0
 R367: y[6] + y[20] + y[48] + y[57] + y[72] + y[86] + y[91] + y[92]
   - z[367] >= 0
 R368: y[1] + y[6] + y[14] + y[20] + y[39] + y[48] + y[57] + y[65] + y[86]
   + y[91] + y[92] + y[98] - z[368] >= 0
 R369: y[18] + y[21] + y[36] + y[39] + y[84] + y[85] + y[98] - z[369] >= 0
 R370: y[2] + y[31] + y[32] + y[35] + y[36] + y[39] + y[49] + y[56] + y[78]
   + y[81] + y[83] + y[88] + y[89] + y[96] - z[370] >= 0
 R371: y[0] + y[12] + y[15] + y[45] + y[46] + y[47] + y[61] + y[67] + y[70]
   + y[82] + y[87] - z[371] >= 0
 R372: y[18] + y[21] + y[29] + y[50] + y[62] + y[69] + y[74] + y[75]
   + y[84] + y[85] + y[90] + y[93] - z[372] >= 0
 R373: y[18] + y[19] + y[26] + y[38] + y[44] + y[47] + y[49] + y[50]
   + y[56] + y[67] + y[69] + y[74] + y[75] + y[78] + y[81] + y[83] + y[85]
   + y[87] + y[90] + y[93] - z[373] >= 0
 R374: y[2] + y[20] + y[35] + y[36] + y[39] + y[48] + y[57] + y[72] + y[86]
   + y[88] + y[91] + y[92] + y[96] - z[374] >= 0
 R375: y[1] + y[6] + y[14] + y[65] + y[91] + y[92] - z[375] >= 0
 R376: y[5] + y[7] + y[9] + y[11] + y[13] + y[17] + y[51] + y[53] + y[64]
   + y[68] + y[95] - z[376] >= 0
 R377: y[1] + y[6] + y[14] + y[20] + y[39] + y[57] + y[65] + y[91] + y[92]
   + y[98] - z[377] >= 0
 R378: y[1] + y[14] + y[65] + y[98] - z[378] >= 0
 R379: y[2] + y[31] + y[32] + y[35] + y[72] + y[79] + y[81] + y[88] + y[89]
   + y[96] - z[379] >= 0
 R380: y[1] + y[6] + y[14] + y[20] + y[36] + y[39] + y[57] + y[65] + y[92]
   + y[98] - z[380] >= 0
 R381: y[18] + y[21] + y[29] + y[44] + y[50] + y[62] + y[69] + y[74]
   + y[75] + y[84] + y[85] + y[90] + y[93] - z[381] >= 0
 R382: y[10] + y[31] + y[32] + y[33] + y[43] + y[55] + y[79] + y[89]
   + y[96] + y[99] - z[382] >= 0
 R383: y[0] + y[15] + y[16] + y[24] + y[27] + y[30] + y[41] + y[71] + y[80]
   + y[82] + y[94] - z[383] >= 0
 R384: y[0] + y[12] + y[15] + y[45] + y[46] + y[47] + y[61] + y[67] + y[70]
   + y[82] + y[87] - z[384] >= 0
 R385: y[8] + y[12] + y[19] + y[22] + y[26] + y[34] + y[38] + y[45] + y[46]
   + y[58] + y[61] + y[62] + y[67] + y[74] + y[75] + y[87] - z[385] >= 0
 R386: y[8] + y[12] + y[19] + y[22] + y[26] + y[38] + y[44] + y[45] + y[46]
   + y[47] + y[58] + y[67] + y[70] + y[74] + y[75] + y[87] - z[386] >= 0
 R387: y[5] + y[7] + y[9] + y[11] + y[13] + y[17] + y[51] + y[53] + y[55]
   + y[59] + y[63] + y[68] + y[95] - z[387] >= 0
 R388: y[6] + y[40] + y[48] + y[57] + y[60] + y[72] + y[86] + y[91] + y[92]
   + y[96] - z[388] >= 0
 R389: y[29] + y[34] + y[50] + y[52] + y[58] + y[62] + y[74] + y[75]
   + y[90] + y[93] - z[389] >= 0
 R390: y[2] + y[20] + y[35] + y[40] + y[48] + y[57] + y[60] + y[72] + y[79]
   + y[86] + y[88] + y[91] + y[92] + y[96] + y[99] - z[390] >= 0
 R391: y[5] + y[7] + y[9] + y[11] + y[13] + y[17] + y[37] + y[51] + y[53]
   + y[55] + y[59] + y[63] + y[68] + y[95] - z[391] >= 0
 R392: y[3] + y[40] + y[48] + y[54] + y[60] + y[86] - z[392] >= 0
 R393: y[4] + y[10] + y[28] + y[30] + y[31] + y[32] + y[33] + y[43] + y[49]
   + y[78] + y[80] + y[81] + y[83] + y[89] - z[393] >= 0
 R394: y[8] + y[12] + y[22] + y[34] + y[38] + y[45] + y[46] + y[58] + y[61]
   + y[87] - z[394] >= 0
 R395: y[5] + y[7] + y[9] + y[13] + y[25] + y[37] + y[51] + y[53] + y[59]
   + y[63] + y[68] + y[76] + y[95] - z[395] >= 0
 R396: y[8] + y[12] + y[22] + y[34] + y[38] + y[45] + y[46] + y[58] + y[61]
   + y[87] - z[396] >= 0
 R397: y[18] + y[19] + y[29] + y[34] + y[50] + y[52] + y[58] + y[62]
   + y[74] + y[75] + y[90] + y[93] - z[397] >= 0
 R398: y[8] + y[12] + y[19] + y[22] + y[26] + y[38] + y[45] + y[46] + y[47]
   + y[58] + y[61] + y[67] + y[70] + y[87] - z[398] >= 0
 R399: y[0] + y[15] + y[70] + y[82] - z[399] >= 0
 R400: y[0] + y[15] + y[16] + y[27] + y[41] + y[71] + y[82] + y[94]
   - z[400] >= 0
 R401: y[3] + y[5] + y[9] + y[11] + y[13] + y[17] + y[54] + y[64] + y[66]
   + y[68] + y[77] + y[97] - z[401] >= 0
 R402: y[0] + y[4] + y[10] + y[15] + y[16] + y[27] + y[28] + y[30] + y[33]
   + y[43] + y[80] + y[82] + y[94] - z[402] >= 0
 R403: y[3] + y[40] + y[48] + y[60] + y[72] + y[86] + y[91] + y[99]
   - z[403] >= 0
 R404: y[16] + y[23] + y[25] + y[27] + y[33] + y[37] + y[42] + y[59]
   + y[63] + y[71] + y[73] + y[76] + y[80] + y[95] - z[404] >= 0
 R405: y[5] + y[7] + y[9] + y[11] + y[13] + y[17] + y[51] + y[53] + y[64]
   + y[68] + y[95] - z[405] >= 0
 R406: y[0] + y[15] + y[16] + y[23] + y[24] + y[27] + y[30] + y[41] + y[42]
   + y[71] + y[73] + y[80] + y[82] + y[94] - z[406] >= 0
 R407: y[9] + y[13] + y[31] + y[33] + y[55] + y[59] + y[63] + y[68] + y[79]
   + y[99] - z[407] >= 0
 R408: y[3] + y[5] + y[7] + y[9] + y[11] + y[13] + y[17] + y[51] + y[53]
   + y[54] + y[55] + y[60] + y[64] + y[66] + y[68] + y[77] + y[97] + y[99]
   - z[408] >= 0
 R409: y[11] + y[17] + y[64] + y[66] + y[77] + y[97] - z[409] >= 0
 R410: y[8] + y[12] + y[19] + y[22] + y[26] + y[34] + y[38] + y[44] + y[45]
   + y[46] + y[52] + y[58] + y[62] + y[67] + y[74] + y[75] + y[87] + y[90]
   - z[410] >= 0
 R411: y[2] + y[10] + y[31] + y[32] + y[35] + y[49] + y[55] + y[72] + y[78]
   + y[79] + y[81] + y[83] + y[88] + y[89] + y[96] - z[411] >= 0
 R412: y[16] + y[23] + y[24] + y[25] + y[27] + y[33] + y[37] + y[42]
   + y[59] + y[63] + y[71] + y[73] + y[76] + y[80] + y[95] - z[412] >= 0
 R413: y[2] + y[20] + y[35] + y[36] + y[39] + y[57] + y[88] + y[92] + y[96]
   + y[98] - z[413] >= 0
 R414: y[8] + y[12] + y[15] + y[22] + y[26] + y[38] + y[45] + y[46] + y[47]
   + y[61] + y[67] + y[70] + y[87] - z[414] >= 0
 R415: y[1] + y[2] + y[6] + y[20] + y[35] + y[36] + y[39] + y[57] + y[72]
   + y[88] + y[91] + y[92] + y[96] + y[98] - z[415] >= 0
 R416: y[3] + y[9] + y[11] + y[13] + y[17] + y[40] + y[54] + y[60] + y[64]
   + y[66] + y[77] + y[97] + y[99] - z[416] >= 0
 R417: y[2] + y[20] + y[32] + y[35] + y[36] + y[39] + y[49] + y[56] + y[72]
   + y[78] + y[81] + y[83] + y[88] + y[96] - z[417] >= 0
 R418: y[0] + y[16] + y[24] + y[27] + y[41] + y[71] - z[418] >= 0
 R419: y[0] + y[4] + y[10] + y[12] + y[15] + y[28] + y[30] + y[43] + y[47]
   + y[67] + y[70] + y[80] + y[82] + y[94] - z[419] >= 0
 R420: y[2] + y[10] + y[31] + y[32] + y[35] + y[49] + y[56] + y[78] + y[79]
   + y[81] + y[83] + y[88] + y[89] + y[96] - z[420] >= 0
 R421: y[1] + y[36] + y[39] + y[98] - z[421] >= 0
 R422: y[12] + y[18] + y[19] + y[26] + y[38] + y[44] + y[45] + y[47]
   + y[50] + y[56] + y[58] + y[62] + y[67] + y[69] + y[74] + y[75] + y[85]
   + y[87] + y[90] + y[93] - z[422] >= 0
 R423: y[3] + y[40] + y[54] + y[60] + y[66] + y[77] + y[99] - z[423] >= 0
 R424: y[7] + y[16] + y[23] + y[24] + y[25] + y[37] + y[42] + y[59] + y[63]
   + y[71] + y[73] + y[76] + y[95] - z[424] >= 0
 R425: y[1] + y[6] + y[14] + y[20] + y[36] + y[39] + y[57] + y[65] + y[91]
   + y[92] + y[98] - z[425] >= 0
 R426: y[4] + y[10] + y[26] + y[28] + y[30] + y[31] + y[32] + y[43] + y[47]
   + y[49] + y[56] + y[67] + y[78] + y[81] + y[83] + y[89] - z[426] >= 0
 R427: y[10] + y[31] + y[55] + y[60] + y[79] + y[89] + y[99] - z[427] >= 0
 R428: y[8] + y[12] + y[19] + y[22] + y[26] + y[34] + y[38] + y[44] + y[45]
   + y[46] + y[47] + y[58] + y[61] + y[62] + y[67] + y[74] + y[75] + y[87]
   + y[90] - z[428] >= 0
 R429: y[0] + y[4] + y[10] + y[15] + y[27] + y[28] + y[30] + y[31] + y[33]
   + y[43] + y[80] + y[82] + y[89] + y[94] - z[429] >= 0
 R430: y[0] + y[15] + y[16] + y[27] + y[41] + y[82] + y[94] - z[430] >= 0
 R431: y[5] + y[7] + y[13] + y[23] + y[25] + y[37] + y[42] + y[51] + y[53]
   + y[59] + y[63] + y[68] + y[73] + y[76] + y[95] - z[431] >= 0
 R432: y[1] + y[36] + y[39] + y[98] - z[432] >= 0
 R433: y[16] + y[24] + y[41] + y[71] - z[433] >= 0
 R434: y[2] + y[18] + y[20] + y[21] + y[35] + y[36] + y[39] + y[49] + y[56]
   + y[69] + y[81] + y[83] + y[84] + y[85] + y[88] + y[93] + y[98] - z[434]
   >= 0
 R435: y[0] + y[4] + y[10] + y[15] + y[27] + y[28] + y[30] + y[31] + y[33]
   + y[43] + y[63] + y[80] + y[82] + y[89] + y[94] - z[435] >= 0
 R436: y[16] + y[23] + y[24] + y[25] + y[27] + y[37] + y[42] + y[71]
   + y[73] + y[76] - z[436] >= 0
 R437: y[5] + y[7] + y[9] + y[11] + y[13] + y[17] + y[51] + y[53] + y[54]
   + y[64] + y[66] + y[68] + y[77] + y[97] - z[437] >= 0
 R438: y[2] + y[4] + y[10] + y[28] + y[31] + y[32] + y[43] + y[49] + y[56]
   + y[78] + y[81] + y[83] + y[89] - z[438] >= 0
 R439: y[2] + y[18] + y[20] + y[32] + y[35] + y[36] + y[39] + y[49] + y[56]
   + y[69] + y[78] + y[81] + y[83] + y[84] + y[85] + y[88] + y[96] + y[98]
   - z[439] >= 0
 R440: y[2] + y[20] + y[21] + y[35] + y[36] + y[39] + y[84] + y[85] + y[98]
   - z[440] >= 0
 R441: y[0] + y[4] + y[10] + y[15] + y[27] + y[28] + y[30] + y[31] + y[33]
   + y[43] + y[63] + y[80] + y[82] + y[89] + y[94] - z[441] >= 0
 R442: y[1] + y[39] + y[65] + y[98] - z[442] >= 0
 R443: y[5] + y[7] + y[9] + y[11] + y[13] + y[17] + y[51] + y[53] + y[64]
   + y[68] + y[95] - z[443] >= 0
 R444: y[18] + y[19] + y[21] + y[29] + y[44] + y[50] + y[56] + y[62]
   + y[69] + y[74] + y[75] + y[84] + y[85] + y[90] + y[93] - z[444] >= 0
 R445: y[16] + y[24] + y[41] + y[71] + y[73] - z[445] >= 0
 R446: y[0] + y[12] + y[15] + y[38] + y[45] + y[46] + y[47] + y[61] + y[67]
   + y[70] + y[82] + y[87] - z[446] >= 0
 R447: y[2] + y[18] + y[19] + y[26] + y[32] + y[35] + y[44] + y[49] + y[56]
   + y[69] + y[78] + y[81] + y[83] + y[85] + y[93] - z[447] >= 0
 R448: y[1] + y[2] + y[6] + y[20] + y[35] + y[36] + y[39] + y[57] + y[88]
   + y[91] + y[92] + y[96] + y[98] - z[448] >= 0
 R449: y[2] + y[10] + y[31] + y[32] + y[35] + y[49] + y[72] + y[78] + y[79]
   + y[81] + y[83] + y[88] + y[89] + y[96] - z[449] >= 0
 R450: y[3] + y[9] + y[11] + y[40] + y[54] + y[55] + y[60] + y[66] + y[77]
   + y[99] - z[450] >= 0
 R451: y[18] + y[21] + y[29] + y[44] + y[50] + y[62] + y[69] + y[74]
   + y[75] + y[84] + y[85] + y[90] + y[93] - z[451] >= 0
 R452: y[3] + y[11] + y[54] + y[64] + y[66] + y[77] + y[97] - z[452] >= 0
 R453: y[5] + y[7] + y[9] + y[11] + y[13] + y[17] + y[51] + y[53] + y[54]
   + y[55] + y[59] + y[68] + y[95] + y[99] - z[453] >= 0
 R454: y[3] + y[40] + y[48] + y[54] + y[60] + y[86] + y[99] - z[454] >= 0
 R455: y[0] + y[4] + y[15] + y[16] + y[23] + y[27] + y[28] + y[30] + y[33]
   + y[42] + y[43] + y[63] + y[71] + y[80] + y[82] + y[94] - z[455] >= 0
 R456: y[2] + y[31] + y[32] + y[35] + y[49] + y[72] + y[78] + y[79] + y[81]
   + y[83] + y[88] + y[89] + y[96] - z[456] >= 0
 R457: y[2] + y[32] + y[35] + y[36] + y[49] + y[56] + y[69] + y[78] + y[81]
   + y[83] + y[85] + y[88] + y[96] - z[457] >= 0
 R458: y[31] + y[40] + y[55] + y[60] + y[72] + y[79] + y[99] - z[458] >= 0
 R459: y[0] + y[15] + y[16] + y[23] + y[24] + y[27] + y[28] + y[30] + y[33]
   + y[42] + y[43] + y[71] + y[80] + y[82] + y[94] - z[459] >= 0
 R460: y[16] + y[23] + y[24] + y[25] + y[37] + y[41] + y[42] + y[71]
   + y[73] + y[76] - z[460] >= 0
 R461: y[4] + y[10] + y[28] + y[30] + y[31] + y[32] + y[33] + y[43] + y[55]
   + y[59] + y[63] + y[79] + y[80] + y[89] - z[461] >= 0
 R462: y[0] + y[15] + y[82] - z[462] >= 0
 R463: y[29] + y[34] + y[52] + y[58] + y[62] + y[74] + y[75] + y[90]
   - z[463] >= 0
 R464: y[2] + y[18] + y[19] + y[21] + y[35] + y[44] + y[49] + y[50] + y[56]
   + y[69] + y[78] + y[81] + y[83] + y[84] + y[85] + y[90] + y[93] - z[464]
   >= 0
 R465: y[8] + y[12] + y[19] + y[22] + y[26] + y[38] + y[45] + y[46] + y[47]
   + y[58] + y[61] + y[67] + y[70] + y[74] + y[87] - z[465] >= 0
 R466: y[9] + y[10] + y[13] + y[28] + y[31] + y[33] + y[43] + y[55] + y[59]
   + y[63] + y[79] + y[89] + y[99] - z[466] >= 0
 R467: y[4] + y[10] + y[28] + y[30] + y[31] + y[32] + y[33] + y[43] + y[49]
   + y[78] + y[81] + y[83] + y[89] - z[467] >= 0
 R468: y[2] + y[20] + y[32] + y[35] + y[36] + y[48] + y[57] + y[72] + y[79]
   + y[81] + y[86] + y[88] + y[96] - z[468] >= 0
 R469: y[3] + y[11] + y[54] + y[64] + y[66] + y[77] + y[97] - z[469] >= 0
 R470: y[2] + y[19] + y[26] + y[32] + y[44] + y[47] + y[49] + y[56] + y[69]
   + y[78] + y[81] + y[83] + y[85] + y[89] - z[470] >= 0
 R471: y[0] + y[15] + y[16] + y[27] + y[30] + y[41] + y[80] + y[82] + y[94]
   - z[471] >= 0
 R472: y[11] + y[17] + y[64] + y[66] + y[77] + y[97] - z[472] >= 0
 R473: y[2] + y[18] + y[19] + y[26] + y[32] + y[44] + y[47] + y[49] + y[56]
   + y[69] + y[78] + y[81] + y[83] + y[85] + y[93] - z[473] >= 0
 R474: y[6] + y[40] + y[48] + y[57] + y[72] + y[86] + y[91] + y[92]
   - z[474] >= 0
 R475: y[2] + y[20] + y[32] + y[35] + y[36] + y[39] + y[49] + y[56] + y[57]
   + y[72] + y[78] + y[81] + y[83] + y[88] + y[96] - z[475] >= 0
 R476: y[41] - z[476] >= 0
 R477: y[7] + y[23] + y[25] + y[33] + y[37] + y[42] + y[51] + y[53] + y[59]
   + y[63] + y[68] + y[73] + y[76] + y[95] - z[477] >= 0
 R478: y[41] - z[478] >= 0
 R479: y[6] + y[40] + y[48] + y[57] + y[60] + y[72] + y[86] + y[91] + y[92]
   + y[96] - z[479] >= 0
 R480: y[0] + y[4] + y[12] + y[15] + y[28] + y[30] + y[47] + y[67] + y[70]
   + y[80] + y[82] + y[94] - z[480] >= 0
 R481: y[1] + y[39] + y[65] + y[98] - z[481] >= 0
 R482: y[2] + y[18] + y[19] + y[21] + y[44] + y[49] + y[50] + y[56] + y[69]
   + y[78] + y[81] + y[83] + y[84] + y[85] + y[90] + y[93] - z[482] >= 0
 R483: y[0] + y[4] + y[16] + y[23] + y[25] + y[27] + y[28] + y[30] + y[33]
   + y[37] + y[42] + y[43] + y[59] + y[63] + y[73] + y[76] + y[80] + y[82]
   + y[94] - z[483] >= 0
 R484: y[16] + y[23] + y[24] + y[25] + y[27] + y[33] + y[37] + y[42]
   + y[59] + y[63] + y[71] + y[73] + y[76] + y[80] - z[484] >= 0
 R485: y[9] + y[40] + y[54] + y[55] + y[60] + y[72] + y[79] + y[99]
   - z[485] >= 0
 R486: y[2] + y[20] + y[32] + y[35] + y[36] + y[39] + y[57] + y[81] + y[88]
   + y[96] + y[98] - z[486] >= 0
 R487: y[1] + y[14] + y[20] + y[36] + y[39] + y[57] + y[65] + y[98]
   - z[487] >= 0
 R488: y[2] + y[10] + y[31] + y[32] + y[35] + y[49] + y[72] + y[78] + y[79]
   + y[81] + y[83] + y[88] + y[89] + y[96] - z[488] >= 0
 R489: y[0] + y[16] + y[24] + y[27] + y[41] + y[71] - z[489] >= 0
 R490: y[40] + y[48] + y[55] + y[60] + y[72] + y[79] + y[86] + y[88]
   + y[96] + y[99] - z[490] >= 0
 R491: y[2] + y[20] + y[32] + y[35] + y[36] + y[39] + y[49] + y[56] + y[57]
   + y[81] + y[88] + y[96] + y[98] - z[491] >= 0
 R492: y[1] + y[6] + y[14] + y[20] + y[36] + y[39] + y[48] + y[57] + y[65]
   + y[86] + y[91] + y[92] + y[98] - z[492] >= 0
 R493: y[5] + y[9] + y[11] + y[13] + y[17] + y[51] + y[53] + y[54] + y[64]
   + y[66] + y[68] + y[77] + y[97] - z[493] >= 0
 R494: y[20] + y[35] + y[36] + y[39] + y[57] + y[84] + y[98] - z[494] >= 0
 R495: y[18] + y[19] + y[26] + y[38] + y[44] + y[47] + y[49] + y[50]
   + y[56] + y[67] + y[69] + y[74] + y[75] + y[78] + y[81] + y[83] + y[85]
   + y[87] + y[90] + y[93] - z[495] >= 0
 R496: y[20] + y[35] + y[36] + y[39] + y[57] + y[98] - z[496] >= 0
 R497: y[5] + y[7] + y[9] + y[11] + y[13] + y[17] + y[51] + y[53] + y[59]
   + y[64] + y[68] + y[95] - z[497] >= 0
 R498: y[16] + y[23] + y[24] + y[25] + y[27] + y[37] + y[42] + y[71]
   + y[73] + y[76] - z[498] >= 0
 R499: y[16] + y[23] + y[24] + y[41] + y[42] + y[71] + y[73] - z[499] >= 0
 R500: y[2] + y[19] + y[26] + y[32] + y[44] + y[47] + y[49] + y[56] + y[69]
   + y[78] + y[81] + y[83] + y[85] + y[89] - z[500] >= 0
 R501: y[18] + y[21] + y[29] + y[44] + y[50] + y[62] + y[69] + y[74]
   + y[75] + y[84] + y[85] + y[90] + y[93] - z[501] >= 0
 R502: y[5] + y[7] + y[9] + y[11] + y[13] + y[17] + y[51] + y[53] + y[64]
   + y[68] + y[95] + y[97] - z[502] >= 0
 R503: y[5] + y[7] + y[9] + y[13] + y[17] + y[25] + y[37] + y[51] + y[53]
   + y[55] + y[59] + y[63] + y[68] + y[76] + y[95] - z[503] >= 0
 R504: y[0] + y[4] + y[10] + y[15] + y[27] + y[28] + y[30] + y[33] + y[43]
   + y[47] + y[70] + y[80] + y[82] + y[94] - z[504] >= 0
 R505: y[1] + y[6] + y[14] + y[20] + y[39] + y[48] + y[57] + y[65] + y[86]
   + y[91] + y[92] + y[98] - z[505] >= 0
 R506: y[18] + y[21] + y[50] + y[84] + y[85] - z[506] >= 0
 R507: y[40] + y[48] + y[55] + y[60] + y[72] + y[79] + y[86] + y[88]
   + y[96] + y[99] - z[507] >= 0
 R508: y[10] + y[28] + y[31] + y[33] + y[43] + y[55] + y[59] + y[63]
   + y[79] + y[89] + y[99] - z[508] >= 0
 R509: y[8] + y[12] + y[19] + y[22] + y[26] + y[38] + y[44] + y[45] + y[46]
   + y[47] + y[61] + y[67] + y[70] + y[87] - z[509] >= 0
 R510: y[0] + y[4] + y[15] + y[16] + y[23] + y[25] + y[27] + y[28] + y[30]
   + y[33] + y[37] + y[42] + y[43] + y[63] + y[71] + y[80] + y[82] + y[94]
   - z[510] >= 0
 R511: y[8] + y[12] + y[15] + y[22] + y[38] + y[45] + y[46] + y[47] + y[61]
   + y[67] + y[70] + y[87] - z[511] >= 0
 R512: y[21] + y[84] + y[98] - z[512] >= 0
 R513: y[8] + y[12] + y[22] + y[26] + y[34] + y[38] + y[45] + y[46] + y[58]
   + y[61] + y[62] + y[74] + y[75] + y[87] - z[513] >= 0
 R514: y[1] + y[6] + y[14] + y[20] + y[36] + y[39] + y[57] + y[65] + y[91]
   + y[92] + y[98] - z[514] >= 0
 R515: y[10] + y[23] + y[25] + y[27] + y[28] + y[30] + y[31] + y[33]
   + y[37] + y[42] + y[43] + y[59] + y[63] + y[76] + y[80] + y[89] - z[515]
   >= 0
 R516: y[0] + y[15] + y[16] + y[24] + y[27] + y[41] + y[71] + y[82] + y[94]
   - z[516] >= 0
 R517: y[18] + y[19] + y[26] + y[29] + y[38] + y[44] + y[50] + y[52]
   + y[58] + y[62] + y[69] + y[74] + y[75] + y[84] + y[85] + y[90] + y[93]
   - z[517] >= 0
 R518: y[1] + y[14] + y[65] - z[518] >= 0
 R519: y[18] + y[19] + y[21] + y[26] + y[29] + y[44] + y[50] + y[56]
   + y[62] + y[69] + y[74] + y[75] + y[84] + y[85] + y[90] + y[93] - z[519]
   >= 0
 R520: y[7] + y[9] + y[13] + y[33] + y[51] + y[53] + y[55] + y[59] + y[63]
   + y[68] + y[95] - z[520] >= 0
 R521: y[0] + y[15] + y[16] + y[23] + y[24] + y[27] + y[30] + y[41] + y[42]
   + y[71] + y[80] + y[82] + y[94] - z[521] >= 0
 R522: y[5] + y[7] + y[9] + y[11] + y[13] + y[17] + y[51] + y[53] + y[59]
   + y[64] + y[68] + y[95] - z[522] >= 0
 R523: y[18] + y[21] + y[29] + y[50] + y[69] + y[84] + y[85] + y[90]
   + y[93] - z[523] >= 0
 R524: y[7] + y[9] + y[10] + y[13] + y[28] + y[31] + y[33] + y[43] + y[51]
   + y[53] + y[55] + y[59] + y[63] + y[68] + y[79] - z[524] >= 0
 R525: y[2] + y[10] + y[31] + y[32] + y[35] + y[49] + y[56] + y[78] + y[81]
   + y[83] + y[88] + y[89] + y[96] - z[525] >= 0
 R526: y[19] + y[29] + y[34] + y[52] + y[58] + y[62] + y[74] + y[75]
   + y[90] - z[526] >= 0
 R527: y[6] + y[20] + y[40] + y[48] + y[57] + y[60] + y[72] + y[86] + y[88]
   + y[91] + y[92] + y[96] - z[527] >= 0
 R528: y[18] + y[19] + y[26] + y[32] + y[38] + y[44] + y[47] + y[49]
   + y[56] + y[67] + y[69] + y[74] + y[78] + y[81] + y[83] + y[85] + y[90]
   + y[93] - z[528] >= 0
 R529: y[18] + y[21] + y[36] + y[39] + y[50] + y[56] + y[69] + y[84]
   + y[85] + y[93] + y[98] - z[529] >= 0
 R530: y[0] + y[16] + y[24] + y[27] + y[41] + y[71] + y[82] - z[530] >= 0
 R531: y[18] + y[21] + y[29] + y[50] + y[62] + y[69] + y[84] + y[85]
   + y[90] + y[93] - z[531] >= 0
 R532: y[3] + y[9] + y[11] + y[13] + y[17] + y[40] + y[54] + y[55] + y[60]
   + y[64] + y[66] + y[77] + y[97] + y[99] - z[532] >= 0
 R533: y[8] + y[12] + y[19] + y[22] + y[26] + y[38] + y[44] + y[45] + y[46]
   + y[47] + y[61] + y[67] + y[70] + y[87] - z[533] >= 0
 R534: y[2] + y[18] + y[21] + y[32] + y[35] + y[36] + y[44] + y[49] + y[50]
   + y[56] + y[69] + y[78] + y[81] + y[83] + y[84] + y[85] + y[90] + y[93]
   - z[534] >= 0
 R535: y[6] + y[40] + y[48] + y[86] + y[91] + y[92] - z[535] >= 0
 R536: y[5] + y[7] + y[9] + y[11] + y[13] + y[17] + y[51] + y[53] + y[64]
   + y[68] + y[95] + y[97] - z[536] >= 0
 R537: y[0] + y[15] + y[16] + y[24] + y[27] + y[41] + y[71] + y[82] + y[94]
   - z[537] >= 0
 R538: y[0] + y[4] + y[12] + y[15] + y[30] + y[47] + y[67] + y[70] + y[82]
   + y[94] - z[538] >= 0
 R539: y[2] + y[20] + y[32] + y[35] + y[36] + y[57] + y[72] + y[79] + y[81]
   + y[86] + y[88] + y[96] - z[539] >= 0
 R540: y[8] + y[12] + y[19] + y[22] + y[26] + y[34] + y[38] + y[44] + y[45]
   + y[46] + y[47] + y[58] + y[61] + y[62] + y[67] + y[74] + y[75] + y[87]
   + y[90] - z[540] >= 0
 R541: y[5] + y[7] + y[9] + y[11] + y[13] + y[17] + y[25] + y[37] + y[51]
   + y[53] + y[55] + y[59] + y[63] + y[68] + y[76] + y[95] - z[541] >= 0
 R542: y[9] + y[11] + y[13] + y[40] + y[54] + y[55] + y[60] + y[68] + y[79]
   + y[99] - z[542] >= 0
 R543: y[3] + y[40] + y[48] + y[54] + y[60] + y[86] - z[543] >= 0
 R544: y[16] + y[23] + y[24] + y[25] + y[27] + y[37] + y[42] + y[71]
   + y[73] + y[76] - z[544] >= 0
 R545: y[0] + y[4] + y[12] + y[15] + y[26] + y[30] + y[38] + y[45] + y[46]
   + y[47] + y[67] + y[70] + y[82] + y[87] + y[94] - z[545] >= 0
 R546: y[4] + y[10] + y[28] + y[30] + y[31] + y[32] + y[33] + y[43] + y[49]
   + y[78] + y[80] + y[81] + y[83] + y[89] - z[546] >= 0
 R547: y[2] + y[20] + y[32] + y[35] + y[36] + y[48] + y[57] + y[72] + y[79]
   + y[86] + y[88] + y[96] - z[547] >= 0
 R548: y[0] + y[15] + y[16] + y[27] + y[30] + y[80] + y[82] + y[94]
   - z[548] >= 0
 R549: y[29] + y[34] + y[52] + y[58] + y[62] + y[74] + y[75] - z[549] >= 0
 R550: y[2] + y[32] + y[35] + y[44] + y[49] + y[56] + y[69] + y[78] + y[81]
   + y[83] + y[85] + y[88] + y[89] - z[550] >= 0
 R551: y[5] + y[7] + y[9] + y[11] + y[13] + y[17] + y[51] + y[53] + y[64]
   + y[68] + y[95] - z[551] >= 0
 R552: y[0] + y[15] + y[16] + y[23] + y[24] + y[27] + y[30] + y[41] + y[42]
   + y[71] + y[73] + y[80] + y[82] + y[94] - z[552] >= 0
 R553: y[2] + y[20] + y[21] + y[35] + y[36] + y[39] + y[84] + y[85] + y[98]
   - z[553] >= 0
 R554: y[4] + y[10] + y[15] + y[27] + y[28] + y[30] + y[31] + y[33] + y[43]
   + y[63] + y[80] + y[82] + y[89] + y[94] - z[554] >= 0
 R555: y[0] + y[15] + y[16] + y[27] + y[41] + y[82] + y[94] - z[555] >= 0
 R556: y[4] + y[10] + y[26] + y[31] + y[32] + y[43] + y[44] + y[47] + y[49]
   + y[56] + y[78] + y[81] + y[83] + y[89] - z[556] >= 0
 R557: y[1] + y[6] + y[20] + y[36] + y[39] + y[48] + y[57] + y[72] + y[86]
   + y[88] + y[91] + y[92] + y[96] + y[98] - z[557] >= 0
 R558: y[0] + y[16] + y[23] + y[24] + y[27] + y[41] + y[42] + y[71] + y[73]
   - z[558] >= 0
 R559: y[8] + y[12] + y[19] + y[22] + y[26] + y[29] + y[34] + y[38] + y[44]
   + y[45] + y[46] + y[50] + y[52] + y[58] + y[62] + y[67] + y[74] + y[75]
   + y[87] + y[90] - z[559] >= 0
 R560: y[4] + y[12] + y[15] + y[26] + y[30] + y[38] + y[47] + y[67] + y[70]
   + y[82] + y[87] + y[94] - z[560] >= 0
 R561: y[3] + y[40] + y[54] + y[60] + y[66] + y[77] + y[99] - z[561] >= 0
 R562: y[1] + y[6] + y[14] + y[20] + y[48] + y[57] + y[65] + y[86] + y[91]
   + y[92] - z[562] >= 0
 R563: y[8] + y[12] + y[22] + y[38] + y[45] + y[46] + y[58] + y[61] + y[67]
   + y[70] + y[87] - z[563] >= 0
 R564: y[5] + y[7] + y[9] + y[13] + y[25] + y[37] + y[42] + y[51] + y[53]
   + y[59] + y[63] + y[68] + y[76] + y[95] - z[564] >= 0
 R565: y[5] + y[7] + y[9] + y[11] + y[13] + y[17] + y[51] + y[53] + y[64]
   + y[68] + y[95] + y[97] - z[565] >= 0
 R566: y[16] + y[24] + y[41] + y[71] + y[73] - z[566] >= 0
 R567: y[0] + y[4] + y[12] + y[15] + y[30] + y[47] + y[67] + y[70] + y[80]
   + y[82] + y[94] - z[567] >= 0
 R568: y[0] + y[4] + y[10] + y[15] + y[27] + y[28] + y[30] + y[33] + y[43]
   + y[80] + y[82] + y[94] - z[568] >= 0
 R569: y[1] + y[6] + y[20] + y[35] + y[36] + y[39] + y[57] + y[88] + y[91]
   + y[92] + y[96] + y[98] - z[569] >= 0
 R570: y[8] + y[12] + y[22] + y[26] + y[38] + y[45] + y[46] + y[47] + y[58]
   + y[61] + y[67] + y[70] + y[87] - z[570] >= 0
 R571: y[18] + y[19] + y[26] + y[29] + y[34] + y[44] + y[50] + y[52]
   + y[58] + y[62] + y[69] + y[74] + y[75] + y[90] + y[93] - z[571] >= 0
 R572: y[10] + y[31] + y[32] + y[43] + y[55] + y[79] + y[88] + y[89]
   + y[96] + y[99] - z[572] >= 0
 R573: y[5] + y[7] + y[13] + y[23] + y[25] + y[37] + y[42] + y[51] + y[53]
   + y[59] + y[63] + y[68] + y[73] + y[76] + y[95] - z[573] >= 0
 R574: y[1] + y[6] + y[14] + y[20] + y[36] + y[39] + y[48] + y[57] + y[65]
   + y[86] + y[88] + y[91] + y[92] + y[98] - z[574] >= 0
 R575: y[12] + y[18] + y[19] + y[26] + y[38] + y[44] + y[45] + y[46]
   + y[47] + y[49] + y[56] + y[67] + y[69] + y[74] + y[75] + y[78] + y[83]
   + y[85] + y[87] + y[90] + y[93] - z[575] >= 0
 R576: y[24] + y[41] + y[71] - z[576] >= 0
 R577: y[3] + y[9] + y[11] + y[13] + y[17] + y[40] + y[51] + y[53] + y[54]
   + y[55] + y[60] + y[64] + y[66] + y[68] + y[77] + y[97] + y[99] - z[577]
   >= 0
 R578: y[1] + y[14] + y[65] + y[98] - z[578] >= 0
 R579: y[8] + y[12] + y[19] + y[22] + y[26] + y[34] + y[38] + y[45] + y[46]
   + y[52] + y[58] + y[61] + y[62] + y[74] + y[75] + y[87] - z[579] >= 0
 R580: y[3] + y[40] + y[48] + y[54] + y[60] + y[72] + y[79] + y[86] + y[99]
   - z[580] >= 0
 R581: y[18] + y[19] + y[21] + y[44] + y[49] + y[50] + y[56] + y[69]
   + y[78] + y[81] + y[83] + y[84] + y[85] + y[90] + y[93] - z[581] >= 0
 R582: y[18] + y[29] + y[50] + y[52] + y[62] + y[74] + y[75] + y[90]
   + y[93] - z[582] >= 0
 R583: y[4] + y[19] + y[26] + y[32] + y[44] + y[47] + y[49] + y[56] + y[67]
   + y[69] + y[78] + y[81] + y[83] + y[89] - z[583] >= 0
 R584: y[4] + y[10] + y[28] + y[30] + y[31] + y[32] + y[43] + y[47] + y[49]
   + y[56] + y[78] + y[81] + y[83] + y[89] - z[584] >= 0
 R585: y[0] + y[16] + y[23] + y[24] + y[27] + y[41] + y[42] + y[71] + y[73]
   - z[585] >= 0
 R586: y[3] + y[40] + y[48] + y[54] + y[60] + y[86] - z[586] >= 0
 R587: y[3] + y[40] + y[54] + y[60] + y[66] + y[77] + y[79] + y[99]
   - z[587] >= 0
 R588: y[2] + y[4] + y[10] + y[26] + y[31] + y[32] + y[44] + y[47] + y[49]
   + y[56] + y[78] + y[81] + y[83] + y[89] - z[588] >= 0
 R589: y[0] + y[4] + y[10] + y[15] + y[27] + y[28] + y[30] + y[31] + y[33]
   + y[43] + y[80] + y[82] + y[89] + y[94] - z[589] >= 0
 R590: y[0] + y[15] + y[16] + y[27] + y[41] + y[82] - z[590] >= 0
 R591: y[4] + y[12] + y[19] + y[26] + y[38] + y[44] + y[45] + y[46] + y[47]
   + y[49] + y[56] + y[67] + y[70] + y[78] + y[81] + y[83] + y[87] - z[591]
   >= 0
 R592: y[5] + y[7] + y[9] + y[11] + y[13] + y[17] + y[51] + y[53] + y[54]
   + y[64] + y[66] + y[68] + y[77] + y[97] - z[592] >= 0
 R593: y[16] + y[24] + y[41] + y[71] - z[593] >= 0
 R594: y[6] + y[20] + y[48] + y[57] + y[72] + y[86] + y[91] + y[92]
   - z[594] >= 0
 R595: y[0] + y[16] + y[24] + y[41] + y[71] - z[595] >= 0
 R596: y[1] + y[6] + y[14] + y[48] + y[57] + y[65] + y[86] + y[91] + y[92]
   - z[596] >= 0
 R597: y[40] + y[48] + y[55] + y[60] + y[72] + y[79] + y[86] + y[88]
   + y[96] + y[99] - z[597] >= 0
 R598: y[0] + y[15] + y[16] + y[27] + y[41] + y[71] + y[82] + y[94]
   - z[598] >= 0
 R599: y[5] + y[7] + y[9] + y[11] + y[13] + y[17] + y[51] + y[53] + y[59]
   + y[64] + y[68] + y[95] - z[599] >= 0
 R600: y[4] + y[12] + y[15] + y[26] + y[30] + y[38] + y[45] + y[46] + y[47]
   + y[67] + y[70] + y[82] + y[87] + y[94] - z[600] >= 0
 R601: y[1] + y[6] + y[14] + y[65] + y[91] + y[92] - z[601] >= 0
 R602: y[0] + y[15] + y[16] + y[23] + y[24] + y[27] + y[30] + y[41] + y[42]
   + y[71] + y[73] + y[80] + y[82] + y[94] - z[602] >= 0
 R603: y[1] + y[20] + y[35] + y[36] + y[39] + y[57] + y[92] + y[98]
   - z[603] >= 0
 R604: y[12] + y[19] + y[26] + y[38] + y[44] + y[45] + y[46] + y[47]
   + y[67] + y[70] + y[78] + y[87] - z[604] >= 0
 R605: y[5] + y[7] + y[9] + y[11] + y[13] + y[17] + y[51] + y[53] + y[54]
   + y[64] + y[68] + y[77] + y[95] + y[97] - z[605] >= 0
 R606: y[9] + y[13] + y[40] + y[54] + y[55] + y[59] + y[60] + y[68] + y[79]
   + y[99] - z[606] >= 0
 R607: y[7] + y[16] + y[23] + y[24] + y[25] + y[37] + y[42] + y[53] + y[59]
   + y[63] + y[71] + y[73] + y[76] + y[95] - z[607] >= 0
 R608: y[0] + y[12] + y[15] + y[38] + y[45] + y[46] + y[47] + y[61] + y[67]
   + y[70] + y[82] + y[87] + y[94] - z[608] >= 0
 R609: y[8] + y[12] + y[15] + y[22] + y[26] + y[38] + y[45] + y[46] + y[47]
   + y[61] + y[67] + y[70] + y[82] + y[87] - z[609] >= 0
 R610: y[5] + y[7] + y[9] + y[13] + y[17] + y[51] + y[53] + y[64] + y[68]
   + y[95] - z[610] >= 0
 R611: y[5] + y[7] + y[9] + y[11] + y[13] + y[17] + y[40] + y[51] + y[53]
   + y[54] + y[55] + y[60] + y[64] + y[68] + y[77] + y[99] - z[611] >= 0
 R612: y[2] + y[20] + y[32] + y[35] + y[36] + y[39] + y[48] + y[57] + y[72]
   + y[79] + y[86] + y[88] + y[91] + y[96] - z[612] >= 0
 R613: y[40] + y[48] + y[60] + y[72] + y[79] + y[86] + y[96] + y[99]
   - z[613] >= 0
 R614: y[2] + y[18] + y[20] + y[21] + y[35] + y[36] + y[39] + y[56] + y[69]
   + y[84] + y[85] + y[88] + y[98] - z[614] >= 0
 R615: y[4] + y[10] + y[15] + y[26] + y[28] + y[30] + y[31] + y[32] + y[43]
   + y[47] + y[49] + y[67] + y[70] + y[78] + y[81] + y[82] + y[83] + y[89]
   + y[94] - z[615] >= 0
 R616: y[18] + y[19] + y[26] + y[44] + y[49] + y[50] + y[56] + y[62]
   + y[69] + y[74] + y[75] + y[78] + y[81] + y[83] + y[84] + y[85] + y[90]
   + y[93] - z[616] >= 0
 R617: y[3] + y[11] + y[40] + y[54] + y[60] + y[66] + y[77] + y[97]
   - z[617] >= 0
 R618: y[8] + y[12] + y[22] + y[26] + y[38] + y[45] + y[46] + y[47] + y[61]
   + y[67] + y[70] + y[87] - z[618] >= 0
 R619: y[8] + y[12] + y[19] + y[22] + y[26] + y[38] + y[44] + y[45] + y[46]
   + y[47] + y[58] + y[61] + y[62] + y[67] + y[70] + y[74] + y[75] + y[87]
   + y[90] - z[619] >= 0
 R620: y[3] + y[9] + y[11] + y[13] + y[40] + y[54] + y[55] + y[60] + y[77]
   + y[79] + y[99] - z[620] >= 0
 R621: y[21] + y[36] + y[39] + y[98] - z[621] >= 0
 R622: y[12] + y[15] + y[45] + y[46] + y[61] + y[67] + y[70] + y[87]
   - z[622] >= 0
 R623: y[11] + y[17] + y[64] + y[66] + y[77] + y[97] - z[623] >= 0
 R624: y[7] + y[9] + y[13] + y[25] + y[33] + y[37] + y[51] + y[53] + y[55]
   + y[59] + y[63] + y[68] + y[76] + y[95] - z[624] >= 0
 R625: y[16] + y[23] + y[24] + y[27] + y[41] + y[42] + y[71] + y[73]
   - z[625] >= 0
 R626: y[0] + y[4] + y[15] + y[16] + y[23] + y[27] + y[28] + y[30] + y[33]
   + y[42] + y[43] + y[63] + y[71] + y[80] + y[82] + y[94] - z[626] >= 0
 R627: y[1] + y[14] + y[65] + y[98] - z[627] >= 0
 R628: y[18] + y[21] + y[29] + y[50] + y[69] + y[84] + y[85] + y[90]
   + y[93] - z[628] >= 0
 R629: y[6] + y[20] + y[35] + y[36] + y[39] + y[48] + y[57] + y[72] + y[86]
   + y[88] + y[91] + y[92] + y[96] - z[629] >= 0
 R630: y[29] + y[34] + y[50] + y[52] + y[62] + y[74] + y[75] + y[90]
   - z[630] >= 0
 R631: y[5] + y[7] + y[9] + y[11] + y[13] + y[17] + y[51] + y[53] + y[54]
   + y[64] + y[68] + y[77] + y[95] + y[97] - z[631] >= 0
 R632: y[4] + y[10] + y[28] + y[30] + y[31] + y[32] + y[43] + y[47] + y[49]
   + y[56] + y[78] + y[81] + y[83] + y[89] - z[632] >= 0
 R633: y[8] + y[12] + y[19] + y[22] + y[26] + y[34] + y[38] + y[45] + y[46]
   + y[58] + y[61] + y[67] + y[74] + y[75] + y[87] - z[633] >= 0
 R634: y[4] + y[10] + y[28] + y[30] + y[31] + y[32] + y[33] + y[43] + y[49]
   + y[78] + y[81] + y[83] + y[89] - z[634] >= 0
 R635: y[3] + y[9] + y[11] + y[13] + y[17] + y[40] + y[54] + y[55] + y[60]
   + y[64] + y[66] + y[68] + y[77] + y[97] + y[99] - z[635] >= 0
 R636: y[0] + y[15] + y[16] + y[23] + y[24] + y[27] + y[30] + y[41] + y[71]
   + y[80] + y[82] + y[94] - z[636] >= 0
 R637: y[2] + y[31] + y[32] + y[55] + y[60] + y[72] + y[79] + y[88] + y[89]
   + y[96] + y[99] - z[637] >= 0
 R638: y[7] + y[9] + y[10] + y[13] + y[25] + y[28] + y[31] + y[33] + y[37]
   + y[43] + y[51] + y[53] + y[55] + y[59] + y[63] + y[68] + y[80] + y[95]
   - z[638] >= 0
 R639: y[2] + y[4] + y[10] + y[31] + y[32] + y[44] + y[47] + y[49] + y[56]
   + y[78] + y[81] + y[83] + y[89] - z[639] >= 0
 R640: y[5] + y[7] + y[9] + y[11] + y[13] + y[17] + y[51] + y[53] + y[55]
   + y[59] + y[63] + y[68] + y[95] - z[640] >= 0
 R641: y[4] + y[19] + y[26] + y[32] + y[44] + y[47] + y[49] + y[56] + y[67]
   + y[69] + y[78] + y[81] + y[83] + y[89] - z[641] >= 0
 R642: y[18] + y[21] + y[36] + y[39] + y[69] + y[84] + y[85] + y[93]
   + y[98] - z[642] >= 0
 R643: y[3] + y[9] + y[11] + y[17] + y[40] + y[54] + y[60] + y[64] + y[66]
   + y[77] + y[97] + y[99] - z[643] >= 0
 R644: y[1] + y[14] + y[65] + y[98] - z[644] >= 0
 R645: y[6] + y[48] + y[57] + y[86] + y[91] + y[92] - z[645] >= 0
 R646: y[5] + y[7] + y[9] + y[11] + y[13] + y[17] + y[51] + y[53] + y[64]
   + y[68] + y[95] + y[97] - z[646] >= 0
 R647: y[2] + y[18] + y[20] + y[32] + y[35] + y[36] + y[39] + y[49] + y[56]
   + y[69] + y[78] + y[81] + y[83] + y[84] + y[85] + y[88] + y[96] - z[647]
   >= 0
 R648: y[7] + y[16] + y[23] + y[25] + y[27] + y[28] + y[33] + y[37] + y[42]
   + y[43] + y[53] + y[59] + y[63] + y[76] + y[80] + y[95] - z[648] >= 0
 R649: y[2] + y[20] + y[32] + y[35] + y[36] + y[39] + y[57] + y[72] + y[79]
   + y[81] + y[86] + y[88] + y[96] - z[649] >= 0
 R650: y[1] + y[6] + y[14] + y[20] + y[39] + y[57] + y[65] + y[92] + y[98]
   - z[650] >= 0
 R651: y[0] + y[12] + y[15] + y[22] + y[38] + y[45] + y[46] + y[47] + y[61]
   + y[67] + y[70] + y[82] + y[87] - z[651] >= 0
 R652: y[11] + y[17] + y[64] + y[66] + y[77] + y[97] - z[652] >= 0
 R653: y[12] + y[18] + y[19] + y[26] + y[38] + y[44] + y[45] + y[47]
   + y[50] + y[56] + y[58] + y[62] + y[67] + y[69] + y[74] + y[75] + y[85]
   + y[87] + y[90] + y[93] - z[653] >= 0
 R654: y[4] + y[10] + y[15] + y[28] + y[30] + y[31] + y[32] + y[43] + y[47]
   + y[49] + y[67] + y[78] + y[80] + y[81] + y[82] + y[83] + y[89] + y[94]
   - z[654] >= 0
 R655: y[2] + y[20] + y[32] + y[35] + y[36] + y[39] + y[49] + y[56] + y[57]
   + y[72] + y[78] + y[81] + y[83] + y[88] + y[96] - z[655] >= 0
 R656: y[18] + y[21] + y[29] + y[50] + y[52] + y[62] + y[69] + y[74]
   + y[75] + y[84] + y[90] + y[93] - z[656] >= 0
 R657: y[1] + y[14] + y[65] + y[98] - z[657] >= 0
 R658: y[18] + y[19] + y[26] + y[29] + y[34] + y[38] + y[44] + y[45]
   + y[50] + y[52] + y[58] + y[62] + y[69] + y[74] + y[75] + y[87] + y[90]
   + y[93] - z[658] >= 0
 R659: y[1] + y[6] + y[20] + y[35] + y[36] + y[39] + y[57] + y[88] + y[91]
   + y[92] + y[96] + y[98] - z[659] >= 0
 R660: y[7] + y[16] + y[23] + y[25] + y[33] + y[37] + y[42] + y[51] + y[53]
   + y[59] + y[63] + y[73] + y[76] + y[95] - z[660] >= 0
 R661: y[8] + y[12] + y[19] + y[22] + y[26] + y[34] + y[38] + y[44] + y[45]
   + y[46] + y[47] + y[58] + y[61] + y[62] + y[67] + y[70] + y[74] + y[75]
   + y[87] + y[90] - z[661] >= 0
 R662: y[4] + y[10] + y[23] + y[25] + y[27] + y[28] + y[30] + y[31] + y[33]
   + y[37] + y[42] + y[43] + y[59] + y[63] + y[76] + y[80] + y[89] + y[94]
   - z[662] >= 0
 R663: y[2] + y[18] + y[19] + y[26] + y[32] + y[35] + y[44] + y[49] + y[56]
   + y[69] + y[78] + y[81] + y[83] + y[85] + y[93] - z[663] >= 0
 R664: y[18] + y[19] + y[21] + y[29] + y[44] + y[50] + y[52] + y[62]
   + y[69] + y[74] + y[75] + y[84] + y[85] + y[90] + y[93] - z[664] >= 0
 R665: y[5] + y[7] + y[9] + y[11] + y[13] + y[17] + y[51] + y[53] + y[54]
   + y[64] + y[68] + y[77] + y[95] + y[97] - z[665] >= 0
 R666: y[5] + y[7] + y[9] + y[13] + y[25] + y[37] + y[51] + y[53] + y[59]
   + y[63] + y[68] + y[76] + y[95] - z[666] >= 0
 R667: y[29] + y[34] + y[50] + y[52] + y[58] + y[62] + y[74] + y[75]
   + y[90] - z[667] >= 0
 R668: y[2] + y[31] + y[32] + y[35] + y[55] + y[72] + y[79] + y[88] + y[89]
   + y[96] + y[99] - z[668] >= 0
 R669: y[3] + y[40] + y[54] + y[60] + y[66] + y[77] - z[669] >= 0
 R670: y[29] + y[34] + y[52] + y[58] + y[62] - z[670] >= 0
 R671: y[6] + y[48] + y[72] + y[86] + y[91] + y[92] - z[671] >= 0
 R672: y[10] + y[13] + y[28] + y[31] + y[33] + y[43] + y[55] + y[59]
   + y[63] + y[79] + y[89] + y[99] - z[672] >= 0
 R673: y[8] + y[19] + y[22] + y[26] + y[29] + y[34] + y[38] + y[45] + y[52]
   + y[58] + y[62] + y[74] + y[75] + y[87] + y[90] - z[673] >= 0
 R674: y[2] + y[20] + y[35] + y[36] + y[39] + y[49] + y[56] + y[57] + y[81]
   + y[84] + y[88] + y[96] + y[98] - z[674] >= 0
 R675: y[1] + y[6] + y[14] + y[20] + y[39] + y[57] + y[65] + y[92] + y[98]
   - z[675] >= 0
 R676: y[5] + y[7] + y[9] + y[13] + y[17] + y[25] + y[37] + y[51] + y[53]
   + y[59] + y[63] + y[68] + y[76] + y[95] - z[676] >= 0
 R677: y[18] + y[21] + y[29] + y[50] + y[52] + y[62] + y[69] + y[74]
   + y[75] + y[84] + y[85] + y[90] + y[93] - z[677] >= 0
 R678: y[5] + y[7] + y[9] + y[11] + y[13] + y[17] + y[25] + y[37] + y[51]
   + y[53] + y[59] + y[68] + y[76] + y[95] - z[678] >= 0
 R679: y[6] + y[14] + y[48] + y[57] + y[65] + y[86] + y[91] + y[92]
   - z[679] >= 0
 R680: y[1] + y[14] + y[20] + y[39] + y[57] + y[65] + y[92] + y[98]
   - z[680] >= 0
 R681: y[8] + y[12] + y[22] + y[34] + y[38] + y[45] + y[46] + y[58] + y[61]
   + y[62] + y[74] + y[75] + y[87] - z[681] >= 0
 R682: y[9] + y[13] + y[31] + y[40] + y[54] + y[55] + y[60] + y[79] + y[99]
   - z[682] >= 0
 R683: y[3] + y[5] + y[9] + y[11] + y[13] + y[17] + y[54] + y[64] + y[66]
   + y[68] + y[77] + y[97] - z[683] >= 0
 R684: y[4] + y[10] + y[28] + y[30] + y[31] + y[33] + y[43] + y[55] + y[59]
   + y[63] + y[79] + y[80] + y[89] - z[684] >= 0
 R685: y[18] + y[19] + y[21] + y[26] + y[29] + y[44] + y[50] + y[56]
   + y[62] + y[69] + y[74] + y[75] + y[84] + y[85] + y[90] + y[93] - z[685]
   >= 0
 R686: y[2] + y[4] + y[10] + y[31] + y[32] + y[43] + y[49] + y[56] + y[78]
   + y[81] + y[83] + y[89] - z[686] >= 0
 R687: y[3] + y[9] + y[11] + y[13] + y[17] + y[40] + y[54] + y[55] + y[60]
   + y[64] + y[66] + y[77] + y[97] + y[99] - z[687] >= 0
 R688: y[29] + y[34] + y[52] + y[62] + y[74] + y[75] - z[688] >= 0
 R689: y[1] + y[14] + y[39] + y[65] + y[98] - z[689] >= 0
 R690: y[1] + y[6] + y[20] + y[36] + y[39] + y[48] + y[57] + y[72] + y[86]
   + y[88] + y[91] + y[92] - z[690] >= 0
 R691: y[2] + y[6] + y[20] + y[35] + y[36] + y[39] + y[48] + y[57] + y[72]
   + y[79] + y[86] + y[88] + y[91] + y[92] + y[96] - z[691] >= 0
 R692: y[2] + y[10] + y[31] + y[32] + y[43] + y[55] + y[79] + y[81] + y[88]
   + y[89] + y[96] - z[692] >= 0
 R693: y[5] + y[7] + y[13] + y[23] + y[25] + y[37] + y[42] + y[51] + y[53]
   + y[59] + y[63] + y[68] + y[76] + y[95] - z[693] >= 0
 R694: y[3] + y[9] + y[11] + y[13] + y[17] + y[40] + y[54] + y[55] + y[60]
   + y[64] + y[66] + y[68] + y[77] + y[97] + y[99] - z[694] >= 0
 R695: y[8] + y[12] + y[15] + y[22] + y[26] + y[38] + y[45] + y[46] + y[47]
   + y[61] + y[67] + y[70] + y[87] - z[695] >= 0
 R696: y[4] + y[12] + y[19] + y[26] + y[38] + y[44] + y[45] + y[47] + y[49]
   + y[56] + y[67] + y[70] + y[78] + y[81] + y[83] + y[87] - z[696] >= 0
 R697: y[3] + y[11] + y[17] + y[54] + y[64] + y[66] + y[77] + y[97]
   - z[697] >= 0
 R698: y[18] + y[21] + y[29] + y[50] + y[52] + y[62] + y[69] + y[74]
   + y[75] + y[84] + y[85] + y[90] + y[93] - z[698] >= 0
 R699: y[18] + y[19] + y[26] + y[29] + y[44] + y[50] + y[56] + y[62]
   + y[69] + y[74] + y[75] + y[84] + y[85] + y[90] + y[93] - z[699] >= 0
 R700: y[2] + y[20] + y[35] + y[36] + y[39] + y[57] + y[88] + y[96] + y[98]
   - z[700] >= 0
 R701: y[4] + y[10] + y[19] + y[26] + y[32] + y[44] + y[47] + y[49] + y[56]
   + y[67] + y[78] + y[81] + y[83] + y[89] - z[701] >= 0
 R702: y[5] + y[9] + y[11] + y[13] + y[17] + y[51] + y[54] + y[64] + y[66]
   + y[68] + y[77] + y[97] - z[702] >= 0
 R703: y[0] + y[15] + y[16] + y[27] + y[41] + y[82] - z[703] >= 0
 R704: y[29] + y[34] + y[50] + y[52] + y[58] + y[62] + y[74] + y[75]
   + y[90] - z[704] >= 0
 R705: y[2] + y[20] + y[35] + y[36] + y[39] + y[57] + y[84] + y[98]
   - z[705] >= 0
 R706: y[7] + y[23] + y[25] + y[37] + y[42] + y[53] + y[59] + y[73] + y[76]
   + y[95] - z[706] >= 0
 R707: y[4] + y[10] + y[28] + y[30] + y[31] + y[32] + y[33] + y[43] + y[63]
   + y[80] + y[89] - z[707] >= 0
 R708: y[5] + y[7] + y[23] + y[25] + y[37] + y[42] + y[51] + y[53] + y[59]
   + y[63] + y[68] + y[73] + y[76] + y[95] - z[708] >= 0
 R709: y[29] + y[50] + y[52] + y[62] + y[74] + y[75] + y[90] + y[93]
   - z[709] >= 0
 R710: y[4] + y[10] + y[28] + y[30] + y[31] + y[33] + y[43] + y[55] + y[59]
   + y[63] + y[80] + y[89] - z[710] >= 0
 R711: y[3] + y[11] + y[40] + y[54] + y[60] + y[66] + y[77] + y[99]
   - z[711] >= 0
 R712: y[2] + y[18] + y[21] + y[32] + y[35] + y[36] + y[44] + y[49] + y[50]
   + y[56] + y[69] + y[78] + y[81] + y[83] + y[84] + y[85] + y[90] + y[93]
   - z[712] >= 0
 R713: y[1] + y[20] + y[36] + y[39] + y[57] + y[65] + y[92] + y[98]
   - z[713] >= 0
 R714: y[2] + y[20] + y[35] + y[36] + y[39] + y[57] + y[88] + y[96] + y[98]
   - z[714] >= 0
 R715: y[5] + y[7] + y[13] + y[23] + y[25] + y[37] + y[42] + y[51] + y[53]
   + y[59] + y[63] + y[68] + y[76] + y[95] - z[715] >= 0
 R716: y[9] + y[10] + y[13] + y[31] + y[33] + y[55] + y[59] + y[63] + y[79]
   + y[89] + y[99] - z[716] >= 0
 R717: y[18] + y[21] + y[29] + y[44] + y[50] + y[56] + y[69] + y[84]
   + y[85] + y[90] + y[93] - z[717] >= 0
 R718: y[0] + y[12] + y[15] + y[38] + y[45] + y[46] + y[47] + y[61] + y[67]
   + y[70] + y[82] + y[87] - z[718] >= 0
 R719: y[4] + y[10] + y[28] + y[30] + y[31] + y[32] + y[43] + y[47] + y[49]
   + y[56] + y[78] + y[81] + y[83] + y[89] - z[719] >= 0
 R720: y[0] + y[4] + y[10] + y[15] + y[16] + y[23] + y[25] + y[27] + y[28]
   + y[30] + y[33] + y[37] + y[42] + y[43] + y[59] + y[63] + y[80] + y[82]
   + y[94] - z[720] >= 0
 R721: y[16] + y[23] + y[24] + y[25] + y[27] + y[37] + y[42] + y[71]
   + y[73] + y[76] - z[721] >= 0
 R722: y[2] + y[18] + y[21] + y[32] + y[35] + y[36] + y[44] + y[49] + y[50]
   + y[56] + y[69] + y[78] + y[81] + y[83] + y[84] + y[85] + y[90] + y[93]
   - z[722] >= 0
 R723: y[1] + y[6] + y[20] + y[35] + y[36] + y[39] + y[48] + y[57] + y[72]
   + y[86] + y[88] + y[91] + y[92] + y[96] + y[98] - z[723] >= 0
 R724: y[1] + y[39] + y[98] - z[724] >= 0
 R725: y[16] + y[23] + y[24] + y[25] + y[37] + y[42] + y[71] + y[73]
   + y[76] - z[725] >= 0
 R726: y[0] + y[4] + y[10] + y[16] + y[23] + y[25] + y[27] + y[28] + y[30]
   + y[33] + y[37] + y[42] + y[43] + y[59] + y[63] + y[73] + y[76] + y[80]
   + y[82] + y[94] - z[726] >= 0
 R727: y[41] - z[727] >= 0
 R728: y[8] + y[22] + y[34] + y[38] + y[45] + y[46] + y[52] + y[58] + y[62]
   + y[74] + y[75] + y[87] - z[728] >= 0
 R729: y[2] + y[20] + y[32] + y[35] + y[36] + y[39] + y[49] + y[56] + y[69]
   + y[78] + y[81] + y[83] + y[84] + y[85] + y[88] + y[96] + y[98] - z[729]
   >= 0
 R730: y[2] + y[6] + y[20] + y[35] + y[36] + y[39] + y[48] + y[57] + y[72]
   + y[86] + y[88] + y[91] + y[92] + y[96] + y[98] - z[730] >= 0
 R731: y[41] - z[731] >= 0
 R732: y[15] + y[61] + y[70] - z[732] >= 0
 R733: y[3] + y[40] + y[48] + y[54] + y[60] + y[72] + y[79] + y[86] + y[99]
   - z[733] >= 0
 R734: y[3] + y[11] + y[17] + y[54] + y[64] + y[66] + y[77] + y[97]
   - z[734] >= 0
 R735: y[0] + y[4] + y[10] + y[15] + y[16] + y[23] + y[27] + y[28] + y[30]
   + y[33] + y[42] + y[43] + y[59] + y[63] + y[80] + y[82] + y[89] + y[94]
   - z[735] >= 0
 R736: y[0] + y[4] + y[10] + y[15] + y[16] + y[27] + y[28] + y[30] + y[33]
   + y[43] + y[63] + y[80] + y[82] + y[89] + y[94] - z[736] >= 0
 R737: y[8] + y[12] + y[22] + y[26] + y[38] + y[45] + y[46] + y[47] + y[58]
   + y[61] + y[67] + y[70] + y[87] - z[737] >= 0
 R738: y[18] + y[19] + y[26] + y[44] + y[49] + y[50] + y[56] + y[62]
   + y[69] + y[74] + y[75] + y[78] + y[83] + y[84] + y[85] + y[90] + y[93]
   - z[738] >= 0
 R739: y[1] + y[14] + y[20] + y[36] + y[39] + y[57] + y[65] + y[92] + y[98]
   - z[739] >= 0
 R740: y[5] + y[9] + y[11] + y[17] + y[64] + y[66] + y[77] + y[97] - z[740]
   >= 0
 R741: y[16] + y[23] + y[24] + y[25] + y[37] + y[42] + y[71] + y[73]
   + y[76] - z[741] >= 0
 R742: y[0] + y[15] + y[16] + y[27] + y[30] + y[41] + y[80] + y[82] + y[94]
   - z[742] >= 0
 R743: y[0] + y[15] + y[41] + y[82] + y[94] - z[743] >= 0
 R744: y[0] + y[41] - z[744] >= 0
 R745: y[6] + y[20] + y[48] + y[57] + y[72] + y[86] + y[91] + y[92]
   - z[745] >= 0
 R746: y[1] + y[6] + y[20] + y[35] + y[36] + y[39] + y[57] + y[88] + y[92]
   + y[98] - z[746] >= 0
 R747: y[18] + y[19] + y[29] + y[34] + y[44] + y[50] + y[52] + y[58]
   + y[62] + y[69] + y[74] + y[75] + y[90] + y[93] - z[747] >= 0
 R748: y[18] + y[19] + y[26] + y[44] + y[47] + y[49] + y[50] + y[56]
   + y[69] + y[74] + y[75] + y[78] + y[81] + y[83] + y[84] + y[85] + y[90]
   + y[93] - z[748] >= 0
 R749: y[5] + y[9] + y[11] + y[13] + y[17] + y[51] + y[53] + y[54] + y[64]
   + y[66] + y[68] + y[77] + y[97] - z[749] >= 0
 R750: y[0] + y[4] + y[10] + y[15] + y[16] + y[23] + y[27] + y[28] + y[30]
   + y[31] + y[33] + y[42] + y[43] + y[59] + y[63] + y[80] + y[82] + y[89]
   + y[94] - z[750] >= 0
 R751: y[7] + y[9] + y[13] + y[25] + y[33] + y[37] + y[51] + y[53] + y[55]
   + y[59] + y[63] + y[68] + y[76] + y[95] - z[751] >= 0
 R752: y[6] + y[20] + y[35] + y[36] + y[39] + y[48] + y[57] + y[72] + y[86]
   + y[88] + y[91] + y[92] + y[96] - z[752] >= 0
 R753: y[2] + y[32] + y[35] + y[44] + y[49] + y[56] + y[69] + y[78] + y[81]
   + y[83] + y[85] + y[88] + y[89] + y[96] - z[753] >= 0
 R754: y[7] + y[13] + y[23] + y[25] + y[33] + y[37] + y[42] + y[51] + y[53]
   + y[59] + y[63] + y[68] + y[76] + y[95] - z[754] >= 0
 R755: y[0] + y[15] + y[16] + y[23] + y[24] + y[27] + y[30] + y[41] + y[42]
   + y[71] + y[80] + y[82] + y[94] - z[755] >= 0
 R756: y[0] + y[4] + y[15] + y[27] + y[28] + y[30] + y[43] + y[47] + y[67]
   + y[70] + y[80] + y[82] + y[94] - z[756] >= 0
 R757: y[2] + y[31] + y[32] + y[35] + y[55] + y[60] + y[72] + y[79] + y[88]
   + y[89] + y[96] + y[99] - z[757] >= 0
 R758: y[3] + y[40] + y[48] + y[54] + y[55] + y[60] + y[72] + y[79] + y[86]
   + y[99] - z[758] >= 0
 R759: y[2] + y[20] + y[32] + y[35] + y[36] + y[39] + y[49] + y[56] + y[57]
   + y[69] + y[78] + y[81] + y[83] + y[84] + y[85] + y[88] + y[96] + y[98]
   - z[759] >= 0
 R760: y[18] + y[19] + y[21] + y[26] + y[44] + y[49] + y[50] + y[56]
   + y[69] + y[74] + y[75] + y[78] + y[81] + y[83] + y[84] + y[85] + y[90]
   + y[93] - z[760] >= 0
 R761: y[2] + y[10] + y[31] + y[32] + y[55] + y[72] + y[79] + y[88] + y[89]
   + y[96] + y[99] - z[761] >= 0
 R762: y[16] + y[23] + y[24] + y[25] + y[27] + y[33] + y[37] + y[42]
   + y[59] + y[63] + y[71] + y[73] + y[76] + y[80] - z[762] >= 0
 R763: y[1] + y[6] + y[14] + y[20] + y[39] + y[57] + y[65] + y[91] + y[92]
   + y[98] - z[763] >= 0
 R764: y[6] + y[20] + y[48] + y[57] + y[72] + y[86] + y[91] + y[92]
   - z[764] >= 0
 R765: y[6] + y[14] + y[48] + y[57] + y[86] + y[91] + y[92] - z[765] >= 0
 R766: y[3] + y[9] + y[11] + y[40] + y[54] + y[60] + y[66] + y[77] + y[97]
   + y[99] - z[766] >= 0
 R767: y[6] + y[40] + y[48] + y[60] + y[72] + y[86] + y[91] + y[92]
   - z[767] >= 0
 R768: y[8] + y[12] + y[19] + y[22] + y[26] + y[38] + y[44] + y[45] + y[46]
   + y[47] + y[58] + y[61] + y[62] + y[67] + y[70] + y[74] + y[75] + y[87]
   + y[90] - z[768] >= 0
 R769: y[3] + y[40] + y[48] + y[54] + y[60] + y[72] + y[79] + y[86] + y[99]
   - z[769] >= 0
 R770: y[2] + y[20] + y[32] + y[35] + y[36] + y[39] + y[49] + y[56] + y[57]
   + y[72] + y[78] + y[81] + y[83] + y[88] + y[96] - z[770] >= 0
 R771: y[16] + y[24] + y[41] + y[71] - z[771] >= 0
 R772: y[2] + y[18] + y[21] + y[35] + y[36] + y[39] + y[56] + y[69] + y[84]
   + y[85] + y[93] + y[98] - z[772] >= 0
 R773: y[12] + y[18] + y[19] + y[26] + y[38] + y[44] + y[45] + y[47]
   + y[50] + y[56] + y[58] + y[62] + y[67] + y[69] + y[74] + y[75] + y[85]
   + y[87] + y[90] + y[93] - z[773] >= 0
 R774: y[4] + y[10] + y[28] + y[30] + y[31] + y[33] + y[43] + y[55] + y[59]
   + y[63] + y[80] + y[89] - z[774] >= 0
 R775: y[8] + y[19] + y[22] + y[26] + y[29] + y[34] + y[38] + y[45] + y[46]
   + y[52] + y[58] + y[62] + y[74] + y[75] + y[87] + y[90] - z[775] >= 0
 R776: y[18] + y[19] + y[21] + y[26] + y[29] + y[44] + y[50] + y[52]
   + y[56] + y[62] + y[69] + y[74] + y[75] + y[84] + y[85] + y[90] + y[93]
   - z[776] >= 0
 R777: y[6] + y[14] + y[48] + y[57] + y[65] + y[86] + y[91] + y[92]
   - z[777] >= 0
 R778: y[2] + y[32] + y[35] + y[36] + y[39] + y[49] + y[56] + y[78] + y[81]
   + y[83] + y[88] + y[96] - z[778] >= 0
 R779: y[18] + y[19] + y[21] + y[26] + y[29] + y[44] + y[50] + y[56]
   + y[62] + y[69] + y[74] + y[75] + y[84] + y[85] + y[90] + y[93] - z[779]
   >= 0
 R780: y[2] + y[4] + y[10] + y[28] + y[31] + y[32] + y[33] + y[43] + y[55]
   + y[79] + y[81] + y[89] + y[96] - z[780] >= 0
 R781: y[9] + y[11] + y[13] + y[40] + y[54] + y[55] + y[60] + y[68] + y[79]
   + y[99] - z[781] >= 0
 R782: y[3] + y[40] + y[48] + y[54] + y[55] + y[60] + y[72] + y[79] + y[86]
   + y[99] - z[782] >= 0
 R783: y[8] + y[12] + y[19] + y[22] + y[26] + y[38] + y[44] + y[45] + y[46]
   + y[47] + y[58] + y[61] + y[67] + y[70] + y[74] + y[75] + y[87] - z[783]
   >= 0
 R784: y[29] + y[34] + y[52] + y[62] - z[784] >= 0
 R785: y[98] - z[785] >= 0
 R786: y[8] + y[12] + y[22] + y[26] + y[34] + y[38] + y[45] + y[46] + y[47]
   + y[58] + y[61] + y[67] + y[70] + y[74] + y[87] - z[786] >= 0
 R787: y[2] + y[18] + y[20] + y[21] + y[32] + y[35] + y[36] + y[39] + y[49]
   + y[56] + y[69] + y[78] + y[81] + y[83] + y[84] + y[85] + y[88] + y[96]
   + y[98] - z[787] >= 0
 R788: y[2] + y[10] + y[31] + y[32] + y[35] + y[36] + y[49] + y[56] + y[78]
   + y[81] + y[83] + y[88] + y[89] + y[96] - z[788] >= 0
 R789: y[1] + y[6] + y[14] + y[20] + y[57] + y[65] + y[91] + y[92] + y[98]
   - z[789] >= 0
 R790: y[5] + y[7] + y[9] + y[13] + y[17] + y[37] + y[51] + y[53] + y[59]
   + y[68] + y[76] + y[95] - z[790] >= 0
 R791: y[5] + y[9] + y[11] + y[17] + y[64] + y[66] + y[77] + y[97] - z[791]
   >= 0
 R792: y[1] + y[20] + y[36] + y[39] + y[57] + y[65] + y[98] - z[792] >= 0
 R793: y[2] + y[18] + y[21] + y[35] + y[36] + y[39] + y[56] + y[69] + y[84]
   + y[85] + y[93] + y[98] - z[793] >= 0
 R794: y[9] + y[11] + y[13] + y[40] + y[53] + y[54] + y[55] + y[59] + y[60]
   + y[68] + y[79] + y[99] - z[794] >= 0
 R795: y[1] + y[20] + y[36] + y[39] + y[57] + y[98] - z[795] >= 0
 R796: y[0] + y[15] + y[16] + y[27] + y[30] + y[41] + y[71] + y[80] + y[82]
   + y[94] - z[796] >= 0
 R797: y[31] + y[40] + y[55] + y[60] + y[72] + y[79] + y[88] + y[89]
   + y[96] + y[99] - z[797] >= 0
 R798: y[29] + y[34] + y[52] + y[62] + y[74] + y[75] - z[798] >= 0
 R799: y[1] + y[6] + y[14] + y[65] + y[91] + y[92] - z[799] >= 0
 R800: y[3] + y[5] + y[9] + y[11] + y[13] + y[17] + y[51] + y[53] + y[54]
   + y[55] + y[60] + y[64] + y[66] + y[68] + y[77] + y[97] + y[99] - z[800]
   >= 0
 R801: y[6] + y[20] + y[48] + y[57] + y[72] + y[86] + y[91] + y[92]
   - z[801] >= 0
 R802: y[18] + y[21] + y[36] + y[44] + y[49] + y[50] + y[56] + y[69]
   + y[78] + y[83] + y[84] + y[85] + y[90] + y[93] - z[802] >= 0
 R803: y[4] + y[10] + y[28] + y[30] + y[31] + y[32] + y[33] + y[43] + y[78]
   + y[80] + y[81] + y[89] + y[94] - z[803] >= 0
 R804: y[18] + y[29] + y[50] + y[52] + y[62] + y[74] + y[75] + y[90]
   + y[93] - z[804] >= 0
 R805: y[0] + y[15] + y[82] - z[805] >= 0
 R806: y[18] + y[19] + y[21] + y[29] + y[44] + y[50] + y[56] + y[62]
   + y[69] + y[74] + y[75] + y[84] + y[85] + y[90] + y[93] - z[806] >= 0
 R807: y[1] + y[14] + y[20] + y[36] + y[39] + y[57] + y[65] + y[92] + y[98]
   - z[807] >= 0
 R808: y[5] + y[7] + y[9] + y[11] + y[13] + y[17] + y[51] + y[53] + y[64]
   + y[68] + y[95] + y[97] - z[808] >= 0
 R809: y[0] + y[4] + y[10] + y[15] + y[27] + y[28] + y[30] + y[31] + y[33]
   + y[43] + y[63] + y[80] + y[82] + y[89] + y[94] - z[809] >= 0
 R810: y[0] + y[4] + y[15] + y[27] + y[28] + y[30] + y[47] + y[67] + y[70]
   + y[80] + y[82] + y[94] - z[810] >= 0
 R811: y[5] + y[7] + y[9] + y[11] + y[13] + y[17] + y[37] + y[51] + y[53]
   + y[59] + y[63] + y[68] + y[76] + y[95] - z[811] >= 0
 R812: y[4] + y[10] + y[28] + y[31] + y[32] + y[33] + y[43] + y[55] + y[59]
   + y[63] + y[79] + y[89] - z[812] >= 0
 R813: y[0] + y[4] + y[10] + y[15] + y[16] + y[27] + y[28] + y[30] + y[31]
   + y[33] + y[43] + y[59] + y[63] + y[80] + y[82] + y[89] + y[94] - z[813]
   >= 0
 R814: y[8] + y[12] + y[19] + y[22] + y[26] + y[38] + y[45] + y[46] + y[47]
   + y[58] + y[61] + y[67] + y[70] + y[87] - z[814] >= 0
 R815: y[3] + y[40] + y[48] + y[54] + y[55] + y[60] + y[72] + y[79] + y[86]
   + y[99] - z[815] >= 0
 R816: y[29] + y[34] + y[52] + y[58] + y[62] + y[74] + y[75] - z[816] >= 0
 R817: y[2] + y[20] + y[35] + y[36] + y[39] + y[48] + y[57] + y[72] + y[86]
   + y[88] + y[91] + y[92] + y[96] + y[98] - z[817] >= 0
 R818: y[8] + y[12] + y[15] + y[22] + y[26] + y[38] + y[45] + y[46] + y[47]
   + y[61] + y[67] + y[70] + y[87] - z[818] >= 0
 R819: y[7] + y[13] + y[23] + y[25] + y[33] + y[37] + y[42] + y[51] + y[53]
   + y[59] + y[63] + y[68] + y[76] + y[95] - z[819] >= 0
 R820: y[4] + y[10] + y[28] + y[30] + y[31] + y[33] + y[43] + y[55] + y[59]
   + y[63] + y[80] + y[89] - z[820] >= 0
 R821: y[4] + y[12] + y[15] + y[19] + y[26] + y[30] + y[38] + y[45] + y[46]
   + y[47] + y[67] + y[70] + y[82] + y[87] - z[821] >= 0
 R822: y[18] + y[19] + y[21] + y[44] + y[49] + y[50] + y[56] + y[69]
   + y[74] + y[75] + y[78] + y[83] + y[84] + y[85] + y[90] + y[93] - z[822]
   >= 0
 R823: y[11] + y[17] + y[64] + y[66] + y[77] + y[97] - z[823] >= 0
 R824: y[16] + y[23] + y[24] + y[25] + y[27] + y[28] + y[33] + y[37]
   + y[42] + y[59] + y[63] + y[71] + y[73] + y[76] + y[80] + y[94] - z[824]
   >= 0
 R825: y[10] + y[13] + y[28] + y[31] + y[33] + y[43] + y[55] + y[59]
   + y[63] + y[68] + y[79] + y[89] - z[825] >= 0
 R826: y[4] + y[10] + y[19] + y[26] + y[31] + y[32] + y[44] + y[47] + y[49]
   + y[56] + y[67] + y[78] + y[81] + y[83] + y[89] - z[826] >= 0
 R827: y[3] + y[11] + y[17] + y[54] + y[64] + y[66] + y[77] + y[97]
   - z[827] >= 0
 R828: y[18] + y[21] + y[50] + y[69] + y[84] + y[85] + y[93] - z[828] >= 0
 R829: y[4] + y[10] + y[28] + y[31] + y[33] + y[43] + y[55] + y[59] + y[63]
   + y[79] + y[89] - z[829] >= 0
 R830: y[2] + y[20] + y[35] + y[36] + y[39] + y[48] + y[57] + y[72] + y[79]
   + y[86] + y[88] + y[91] + y[96] - z[830] >= 0
 R831: y[4] + y[10] + y[28] + y[30] + y[31] + y[33] + y[43] + y[55] + y[59]
   + y[63] + y[80] + y[89] + y[94] - z[831] >= 0
 R832: y[8] + y[12] + y[19] + y[22] + y[26] + y[34] + y[38] + y[45] + y[46]
   + y[52] + y[58] + y[61] + y[62] + y[74] + y[75] + y[87] - z[832] >= 0
 R833: y[0] + y[16] + y[23] + y[24] + y[25] + y[27] + y[28] + y[30] + y[33]
   + y[37] + y[42] + y[43] + y[59] + y[63] + y[71] + y[73] + y[76] + y[80]
   + y[82] + y[94] - z[833] >= 0
 R834: y[0] + y[15] + y[16] + y[23] + y[24] + y[25] + y[27] + y[28] + y[30]
   + y[33] + y[37] + y[42] + y[43] + y[59] + y[63] + y[71] + y[73] + y[76]
   + y[80] + y[82] + y[94] - z[834] >= 0
 R835: y[2] + y[18] + y[20] + y[21] + y[35] + y[36] + y[39] + y[56] + y[69]
   + y[84] + y[85] + y[93] + y[98] - z[835] >= 0
 R836: y[18] + y[19] + y[21] + y[26] + y[44] + y[49] + y[50] + y[56]
   + y[62] + y[69] + y[74] + y[75] + y[78] + y[81] + y[83] + y[84] + y[85]
   + y[90] + y[93] - z[836] >= 0
 R837: y[2] + y[20] + y[35] + y[36] + y[39] + y[57] + y[84] + y[85] + y[88]
   + y[96] + y[98] - z[837] >= 0
 R838: y[1] + y[6] + y[14] + y[20] + y[36] + y[39] + y[48] + y[57] + y[65]
   + y[86] + y[91] + y[92] + y[98] - z[838] >= 0
 R839: y[6] + y[40] + y[48] + y[60] + y[72] + y[86] + y[91] + y[92]
   - z[839] >= 0
 R840: y[3] + y[9] + y[11] + y[13] + y[17] + y[40] + y[53] + y[54] + y[55]
   + y[60] + y[64] + y[66] + y[68] + y[77] + y[97] + y[99] - z[840] >= 0
 R841: y[40] + y[48] + y[54] + y[55] + y[60] + y[72] + y[79] + y[86]
   + y[96] + y[99] - z[841] >= 0
 R842: y[5] + y[7] + y[9] + y[11] + y[13] + y[17] + y[51] + y[53] + y[55]
   + y[59] + y[63] + y[68] + y[95] - z[842] >= 0
 R843: y[8] + y[12] + y[19] + y[22] + y[26] + y[34] + y[38] + y[45] + y[46]
   + y[47] + y[58] + y[61] + y[62] + y[67] + y[70] + y[74] + y[75] + y[87]
   - z[843] >= 0
 R844: y[16] + y[24] + y[41] + y[71] - z[844] >= 0
 R845: y[2] + y[20] + y[32] + y[35] + y[36] + y[39] + y[48] + y[57] + y[72]
   + y[86] + y[88] + y[91] + y[92] + y[96] - z[845] >= 0
 R846: y[8] + y[22] + y[34] + y[38] + y[45] + y[46] + y[58] + y[61] + y[74]
   + y[75] + y[87] - z[846] >= 0
 R847: y[5] + y[7] + y[9] + y[13] + y[25] + y[33] + y[37] + y[51] + y[53]
   + y[55] + y[59] + y[63] + y[68] + y[76] + y[95] - z[847] >= 0
 R848: y[16] + y[23] + y[24] + y[25] + y[27] + y[37] + y[42] + y[71]
   + y[73] + y[76] - z[848] >= 0
 R849: y[18] + y[19] + y[29] + y[44] + y[50] + y[52] + y[62] + y[69]
   + y[74] + y[75] + y[84] + y[85] + y[90] + y[93] - z[849] >= 0
 R850: y[2] + y[20] + y[35] + y[36] + y[39] + y[48] + y[57] + y[72] + y[86]
   + y[88] + y[91] + y[92] + y[96] - z[850] >= 0
 R851: y[18] + y[19] + y[21] + y[44] + y[49] + y[50] + y[56] + y[69]
   + y[78] + y[81] + y[83] + y[84] + y[85] + y[90] + y[93] - z[851] >= 0
 R852: y[5] + y[7] + y[9] + y[13] + y[17] + y[25] + y[37] + y[51] + y[53]
   + y[59] + y[63] + y[68] + y[76] + y[95] - z[852] >= 0
 R853: y[5] + y[9] + y[11] + y[13] + y[17] + y[51] + y[53] + y[64] + y[66]
   + y[68] + y[77] + y[97] - z[853] >= 0
 R854: y[2] + y[10] + y[31] + y[32] + y[43] + y[55] + y[72] + y[79] + y[88]
   + y[89] + y[96] + y[99] - z[854] >= 0
 R855: y[2] + y[20] + y[32] + y[35] + y[36] + y[39] + y[57] + y[81] + y[88]
   + y[96] + y[98] - z[855] >= 0
 R856: y[0] + y[4] + y[15] + y[27] + y[30] + y[47] + y[67] + y[70] + y[80]
   + y[82] + y[94] - z[856] >= 0
 R857: y[10] + y[28] + y[31] + y[32] + y[33] + y[43] + y[55] + y[79]
   + y[89] + y[99] - z[857] >= 0
 R858: y[8] + y[19] + y[22] + y[26] + y[29] + y[34] + y[38] + y[44] + y[45]
   + y[46] + y[50] + y[52] + y[58] + y[62] + y[74] + y[75] + y[87] + y[90]
   - z[858] >= 0
 R859: y[6] + y[48] + y[57] + y[86] + y[91] + y[92] - z[859] >= 0
 R860: y[0] + y[15] + y[16] + y[23] + y[24] + y[25] + y[27] + y[28] + y[30]
   + y[33] + y[37] + y[42] + y[43] + y[63] + y[71] + y[73] + y[80] + y[82]
   + y[94] - z[860] >= 0
 R861: y[6] + y[48] + y[86] + y[91] + y[92] - z[861] >= 0
 R862: y[3] + y[9] + y[11] + y[13] + y[40] + y[54] + y[55] + y[60] + y[77]
   + y[79] + y[99] - z[862] >= 0
 R863: y[4] + y[10] + y[19] + y[26] + y[31] + y[32] + y[44] + y[47] + y[49]
   + y[56] + y[78] + y[81] + y[83] + y[89] - z[863] >= 0
 R864: y[7] + y[16] + y[23] + y[25] + y[33] + y[37] + y[42] + y[51] + y[53]
   + y[59] + y[63] + y[68] + y[73] + y[76] + y[80] + y[95] - z[864] >= 0
 R865: y[2] + y[6] + y[20] + y[35] + y[36] + y[39] + y[48] + y[57] + y[72]
   + y[86] + y[88] + y[91] + y[92] + y[96] - z[865] >= 0
 R866: y[16] + y[23] + y[25] + y[27] + y[28] + y[33] + y[37] + y[42]
   + y[43] + y[59] + y[63] + y[76] + y[80] - z[866] >= 0
 R867: y[0] + y[15] + y[16] + y[23] + y[24] + y[27] + y[28] + y[30] + y[33]
   + y[42] + y[43] + y[71] + y[80] + y[82] + y[94] - z[867] >= 0
 R868: y[16] + y[23] + y[24] + y[25] + y[27] + y[37] + y[42] + y[71]
   + y[73] + y[76] - z[868] >= 0
 R869: y[5] + y[7] + y[13] + y[23] + y[25] + y[37] + y[42] + y[51] + y[53]
   + y[59] + y[63] + y[68] + y[73] + y[76] + y[95] - z[869] >= 0
 R870: y[1] + y[6] + y[14] + y[20] + y[36] + y[39] + y[57] + y[65] + y[91]
   + y[92] + y[98] - z[870] >= 0
 R871: y[0] + y[16] + y[23] + y[24] + y[25] + y[27] + y[30] + y[37] + y[41]
   + y[42] + y[71] + y[73] + y[80] + y[82] + y[94] - z[871] >= 0
 R872: y[5] + y[7] + y[13] + y[25] + y[37] + y[51] + y[53] + y[59] + y[68]
   + y[76] + y[95] - z[872] >= 0
 R873: y[1] + y[6] + y[14] + y[20] + y[36] + y[39] + y[57] + y[65] + y[91]
   + y[92] + y[98] - z[873] >= 0
 R874: y[2] + y[18] + y[32] + y[35] + y[36] + y[44] + y[49] + y[56] + y[69]
   + y[78] + y[81] + y[83] + y[84] + y[85] + y[88] + y[93] + y[96] - z[874]
   >= 0
 R875: y[1] + y[6] + y[14] + y[20] + y[48] + y[57] + y[65] + y[91] + y[92]
   + y[98] - z[875] >= 0
 R876: y[18] + y[19] + y[21] + y[44] + y[49] + y[50] + y[56] + y[69]
   + y[78] + y[81] + y[83] + y[84] + y[85] + y[90] + y[93] - z[876] >= 0
 R877: y[29] + y[34] + y[52] + y[58] + y[62] + y[74] + y[75] + y[90]
   - z[877] >= 0
 R878: y[10] + y[23] + y[25] + y[27] + y[28] + y[30] + y[33] + y[37]
   + y[42] + y[43] + y[59] + y[63] + y[76] + y[80] - z[878] >= 0
 R879: y[4] + y[10] + y[15] + y[28] + y[30] + y[31] + y[32] + y[43] + y[47]
   + y[49] + y[67] + y[78] + y[80] + y[81] + y[83] + y[89] + y[94] - z[879]
   >= 0
 R880: y[29] + y[34] + y[50] + y[52] + y[58] + y[62] + y[74] + y[75]
   + y[90] - z[880] >= 0
 R881: y[0] + y[16] + y[24] + y[27] + y[41] + y[71] - z[881] >= 0
 R882: y[4] + y[19] + y[26] + y[32] + y[38] + y[44] + y[47] + y[49] + y[56]
   + y[67] + y[78] + y[81] + y[83] + y[89] - z[882] >= 0
 R883: y[31] + y[40] + y[55] + y[60] + y[72] + y[79] + y[89] + y[99]
   - z[883] >= 0
 R884: y[2] + y[10] + y[31] + y[32] + y[35] + y[44] + y[49] + y[56] + y[78]
   + y[81] + y[83] + y[88] + y[89] + y[96] - z[884] >= 0
 R885: y[7] + y[16] + y[23] + y[25] + y[27] + y[28] + y[33] + y[37] + y[42]
   + y[43] + y[53] + y[59] + y[63] + y[73] + y[76] + y[80] + y[95] - z[885]
   >= 0
 R886: y[0] + y[4] + y[10] + y[15] + y[16] + y[23] + y[27] + y[28] + y[30]
   + y[33] + y[43] + y[63] + y[80] + y[82] + y[94] - z[886] >= 0
 R887: y[12] + y[18] + y[19] + y[26] + y[38] + y[44] + y[47] + y[49]
   + y[50] + y[56] + y[67] + y[69] + y[74] + y[75] + y[78] + y[81] + y[83]
   + y[85] + y[87] + y[90] + y[93] - z[887] >= 0
 R888: y[18] + y[21] + y[35] + y[36] + y[39] + y[50] + y[56] + y[69]
   + y[84] + y[85] + y[93] + y[98] - z[888] >= 0
 R889: y[5] + y[7] + y[9] + y[13] + y[25] + y[37] + y[51] + y[53] + y[59]
   + y[63] + y[68] + y[76] + y[95] - z[889] >= 0
 R890: y[5] + y[11] + y[17] + y[64] + y[66] + y[77] + y[97] - z[890] >= 0
 R891: y[3] + y[40] + y[48] + y[54] + y[60] + y[72] + y[79] + y[86] + y[96]
   + y[99] - z[891] >= 0
 R892: y[0] + y[4] + y[10] + y[15] + y[16] + y[27] + y[28] + y[30] + y[31]
   + y[33] + y[43] + y[59] + y[63] + y[80] + y[82] + y[89] + y[94] - z[892]
   >= 0
 R893: y[18] + y[21] + y[50] + y[69] + y[84] + y[85] + y[93] + y[98]
   - z[893] >= 0
 R894: y[18] + y[19] + y[21] + y[44] + y[49] + y[50] + y[56] + y[69]
   + y[78] + y[83] + y[84] + y[85] + y[90] + y[93] - z[894] >= 0
 R895: y[1] + y[14] + y[20] + y[36] + y[39] + y[57] + y[65] + y[92] + y[98]
   - z[895] >= 0
 R896: y[8] + y[12] + y[22] + y[38] + y[45] + y[46] + y[61] + y[67] + y[70]
   + y[87] - z[896] >= 0
 R897: y[19] + y[29] + y[34] + y[50] + y[52] + y[58] + y[62] + y[74]
   + y[75] + y[90] + y[93] - z[897] >= 0
 R898: y[0] + y[4] + y[10] + y[15] + y[16] + y[27] + y[28] + y[30] + y[33]
   + y[43] + y[80] + y[82] + y[94] - z[898] >= 0
 R899: y[1] + y[6] + y[14] + y[57] + y[65] + y[91] + y[92] - z[899] >= 0
 R900: y[6] + y[14] + y[48] + y[57] + y[86] + y[91] + y[92] - z[900] >= 0
 R901: y[3] + y[40] + y[48] + y[54] + y[60] + y[77] + y[86] - z[901] >= 0
 R902: y[0] + y[15] + y[27] + y[41] + y[82] + y[94] - z[902] >= 0
 R903: y[0] + y[15] + y[16] + y[27] + y[30] + y[41] + y[80] + y[82] + y[94]
   - z[903] >= 0
 R904: y[2] + y[18] + y[19] + y[26] + y[32] + y[44] + y[47] + y[49] + y[56]
   + y[69] + y[78] + y[81] + y[83] + y[85] + y[93] - z[904] >= 0
 R905: y[2] + y[20] + y[35] + y[36] + y[39] + y[57] + y[88] + y[96] + y[98]
   - z[905] >= 0
 R906: y[0] + y[4] + y[15] + y[16] + y[27] + y[28] + y[30] + y[43] + y[80]
   + y[82] + y[94] - z[906] >= 0
 R907: y[2] + y[10] + y[31] + y[32] + y[35] + y[55] + y[72] + y[79] + y[81]
   + y[88] + y[89] + y[96] + y[99] - z[907] >= 0
 R908: y[2] + y[4] + y[10] + y[31] + y[32] + y[44] + y[49] + y[56] + y[78]
   + y[81] + y[83] + y[89] - z[908] >= 0
 R909: y[16] + y[23] + y[25] + y[27] + y[28] + y[33] + y[37] + y[42]
   + y[43] + y[59] + y[63] + y[73] + y[76] + y[80] - z[909] >= 0
 R910: y[8] + y[22] + y[34] + y[52] + y[58] + y[62] + y[74] + y[75]
   - z[910] >= 0
 R911: y[16] + y[23] + y[25] + y[27] + y[28] + y[30] + y[33] + y[37]
   + y[42] + y[43] + y[59] + y[63] + y[73] + y[76] + y[80] + y[94] - z[911]
   >= 0
 R912: y[24] + y[41] + y[71] - z[912] >= 0
 R913: y[4] + y[10] + y[19] + y[26] + y[31] + y[32] + y[44] + y[47] + y[49]
   + y[56] + y[67] + y[78] + y[81] + y[83] + y[89] - z[913] >= 0
 R914: y[0] + y[4] + y[10] + y[15] + y[16] + y[27] + y[28] + y[30] + y[31]
   + y[33] + y[43] + y[59] + y[63] + y[80] + y[82] + y[89] + y[94] - z[914]
   >= 0
 R915: y[0] + y[15] + y[41] + y[82] - z[915] >= 0
 R916: y[9] + y[40] + y[54] + y[55] + y[60] + y[72] + y[79] + y[99]
   - z[916] >= 0
 R917: y[5] + y[7] + y[9] + y[13] + y[17] + y[51] + y[53] + y[68] + y[95]
   - z[917] >= 0
 R918: y[18] + y[19] + y[26] + y[29] + y[44] + y[50] + y[56] + y[62]
   + y[69] + y[74] + y[75] + y[84] + y[85] + y[90] + y[93] - z[918] >= 0
 R919: y[2] + y[18] + y[21] + y[35] + y[36] + y[44] + y[49] + y[50] + y[56]
   + y[69] + y[78] + y[81] + y[83] + y[84] + y[85] + y[90] + y[93] - z[919]
   >= 0
 R920: y[2] + y[20] + y[32] + y[35] + y[36] + y[39] + y[49] + y[56] + y[57]
   + y[78] + y[81] + y[83] + y[85] + y[88] + y[96] - z[920] >= 0
 R921: y[3] + y[11] + y[17] + y[54] + y[64] + y[66] + y[77] + y[97]
   - z[921] >= 0
 R922: y[2] + y[20] + y[35] + y[36] + y[39] + y[57] + y[84] + y[88] + y[96]
   + y[98] - z[922] >= 0
 R923: y[2] + y[4] + y[19] + y[26] + y[31] + y[32] + y[44] + y[47] + y[49]
   + y[56] + y[69] + y[78] + y[81] + y[83] + y[89] - z[923] >= 0
 R924: y[5] + y[7] + y[9] + y[11] + y[13] + y[17] + y[51] + y[53] + y[64]
   + y[68] + y[95] + y[97] - z[924] >= 0
 R925: y[1] + y[6] + y[14] + y[20] + y[57] + y[65] + y[91] + y[92] + y[98]
   - z[925] >= 0
 R926: y[1] + y[6] + y[14] + y[65] + y[91] + y[92] - z[926] >= 0
 R927: y[3] + y[9] + y[11] + y[40] + y[54] + y[55] + y[60] + y[77] + y[79]
   + y[99] - z[927] >= 0
 R928: y[5] + y[9] + y[11] + y[17] + y[64] + y[66] + y[77] + y[97] - z[928]
   >= 0
 R929: y[16] + y[23] + y[24] + y[25] + y[27] + y[28] + y[30] + y[33]
   + y[37] + y[42] + y[43] + y[59] + y[63] + y[71] + y[73] + y[76] + y[80]
   + y[94] - z[929] >= 0
 R930: y[4] + y[10] + y[25] + y[27] + y[28] + y[30] + y[31] + y[33] + y[43]
   + y[55] + y[59] + y[63] + y[80] + y[89] - z[930] >= 0
 R931: y[10] + y[31] + y[55] + y[60] + y[79] + y[89] + y[99] - z[931] >= 0
 R932: y[16] + y[23] + y[25] + y[27] + y[28] + y[30] + y[33] + y[37]
   + y[42] + y[43] + y[59] + y[63] + y[73] + y[76] + y[80] + y[94] - z[932]
   >= 0
 R933: y[0] + y[15] + y[41] + y[82] - z[933] >= 0
 R934: y[8] + y[12] + y[19] + y[22] + y[26] + y[34] + y[38] + y[44] + y[45]
   + y[46] + y[47] + y[58] + y[61] + y[67] + y[70] + y[74] + y[75] + y[87]
   - z[934] >= 0
 R935: y[4] + y[10] + y[28] + y[30] + y[31] + y[32] + y[33] + y[43] + y[47]
   + y[49] + y[78] + y[81] + y[83] + y[89] - z[935] >= 0
 R936: y[2] + y[20] + y[32] + y[35] + y[36] + y[39] + y[49] + y[57] + y[72]
   + y[81] + y[88] + y[96] + y[98] - z[936] >= 0
 R937: y[4] + y[10] + y[28] + y[30] + y[31] + y[32] + y[33] + y[43] + y[55]
   + y[59] + y[63] + y[79] + y[80] + y[89] - z[937] >= 0
 R938: y[3] + y[40] + y[54] + y[60] + y[66] + y[77] + y[97] - z[938] >= 0
 R939: y[18] + y[19] + y[21] + y[29] + y[44] + y[50] + y[56] + y[62]
   + y[69] + y[74] + y[75] + y[84] + y[85] + y[90] + y[93] - z[939] >= 0
 R940: y[2] + y[20] + y[35] + y[36] + y[39] + y[57] + y[88] + y[96] + y[98]
   - z[940] >= 0
 R941: y[10] + y[13] + y[25] + y[28] + y[31] + y[33] + y[37] + y[43]
   + y[55] + y[59] + y[63] + y[80] + y[89] - z[941] >= 0
 R942: y[2] + y[20] + y[32] + y[35] + y[36] + y[39] + y[49] + y[56] + y[78]
   + y[81] + y[83] + y[88] + y[96] - z[942] >= 0
 R943: y[9] + y[11] + y[13] + y[40] + y[54] + y[55] + y[60] + y[68] + y[79]
   + y[99] - z[943] >= 0
 R944: y[4] + y[10] + y[28] + y[30] + y[31] + y[32] + y[33] + y[43] + y[49]
   + y[78] + y[81] + y[83] + y[89] - z[944] >= 0
 R945: y[5] + y[7] + y[9] + y[11] + y[13] + y[17] + y[51] + y[53] + y[64]
   + y[68] + y[95] + y[97] - z[945] >= 0
 R946: y[18] + y[21] + y[50] + y[69] + y[84] + y[85] + y[90] + y[93]
   - z[946] >= 0
 R947: y[0] + y[15] + y[30] + y[70] + y[82] + y[94] - z[947] >= 0
 R948: y[20] + y[35] + y[36] + y[39] + y[57] + y[98] - z[948] >= 0
 R949: y[5] + y[7] + y[9] + y[13] + y[25] + y[33] + y[37] + y[51] + y[53]
   + y[59] + y[63] + y[68] + y[76] + y[95] - z[949] >= 0
 R950: y[2] + y[20] + y[35] + y[36] + y[39] + y[56] + y[57] + y[81] + y[84]
   + y[88] + y[96] + y[98] - z[950] >= 0
 R951: y[18] + y[21] + y[50] + y[69] + y[84] + y[85] + y[90] + y[93]
   - z[951] >= 0
 R952: y[0] + y[4] + y[10] + y[15] + y[16] + y[23] + y[27] + y[28] + y[30]
   + y[33] + y[42] + y[43] + y[59] + y[63] + y[80] + y[82] + y[94] - z[952]
   >= 0
 R953: y[18] + y[21] + y[69] + y[84] + y[85] + y[98] - z[953] >= 0
 R954: y[3] + y[9] + y[11] + y[40] + y[54] + y[55] + y[60] + y[66] + y[77]
   + y[79] + y[99] - z[954] >= 0
 R955: y[8] + y[22] + y[29] + y[34] + y[52] + y[58] + y[62] + y[74] + y[75]
   - z[955] >= 0
 R956: y[0] + y[12] + y[15] + y[38] + y[45] + y[46] + y[47] + y[61] + y[67]
   + y[70] + y[82] + y[87] - z[956] >= 0
 R957: y[8] + y[12] + y[15] + y[22] + y[26] + y[38] + y[45] + y[46] + y[47]
   + y[61] + y[67] + y[70] + y[87] - z[957] >= 0
 R958: y[6] + y[20] + y[39] + y[48] + y[57] + y[72] + y[86] + y[91] + y[92]
   - z[958] >= 0
 R959: y[19] + y[26] + y[29] + y[34] + y[38] + y[44] + y[50] + y[52]
   + y[58] + y[62] + y[74] + y[75] + y[90] + y[93] - z[959] >= 0
 R960: y[3] + y[11] + y[40] + y[54] + y[60] + y[66] + y[77] + y[99]
   - z[960] >= 0
 R961: y[18] + y[19] + y[29] + y[44] + y[50] + y[52] + y[62] + y[69]
   + y[74] + y[75] + y[84] + y[85] + y[90] + y[93] - z[961] >= 0
 R962: y[0] + y[4] + y[10] + y[15] + y[27] + y[28] + y[30] + y[33] + y[43]
   + y[80] + y[82] + y[89] + y[94] - z[962] >= 0
 R963: y[0] + y[4] + y[15] + y[27] + y[28] + y[30] + y[43] + y[47] + y[70]
   + y[80] + y[82] + y[94] - z[963] >= 0
 R964: y[18] + y[21] + y[50] + y[69] + y[84] + y[85] + y[93] - z[964] >= 0
 R965: y[2] + y[20] + y[35] + y[36] + y[39] + y[57] + y[88] + y[92] + y[96]
   + y[98] - z[965] >= 0
 R966: y[5] + y[7] + y[9] + y[11] + y[13] + y[17] + y[51] + y[53] + y[54]
   + y[55] + y[64] + y[68] + y[95] + y[97] - z[966] >= 0
 R967: y[16] + y[23] + y[24] + y[25] + y[27] + y[28] + y[30] + y[33]
   + y[37] + y[42] + y[43] + y[59] + y[63] + y[71] + y[73] + y[76] + y[80]
   + y[94] - z[967] >= 0
 R968: y[16] + y[24] + y[41] + y[71] - z[968] >= 0
 R969: y[18] + y[21] + y[29] + y[44] + y[50] + y[62] + y[69] + y[74]
   + y[75] + y[84] + y[85] + y[90] + y[93] - z[969] >= 0
 R970: y[1] + y[14] + y[20] + y[39] + y[57] + y[65] + y[98] - z[970] >= 0
 R971: y[4] + y[10] + y[28] + y[30] + y[31] + y[32] + y[33] + y[43] + y[63]
   + y[80] + y[89] + y[94] - z[971] >= 0
 R972: y[1] + y[6] + y[14] + y[65] + y[92] - z[972] >= 0
 R973: y[2] + y[10] + y[31] + y[32] + y[35] + y[49] + y[72] + y[78] + y[79]
   + y[81] + y[83] + y[88] + y[89] + y[96] - z[973] >= 0
 R974: y[18] + y[19] + y[21] + y[44] + y[49] + y[50] + y[56] + y[69]
   + y[74] + y[75] + y[78] + y[83] + y[84] + y[85] + y[90] + y[93] - z[974]
   >= 0
 R975: y[8] + y[12] + y[19] + y[22] + y[26] + y[34] + y[38] + y[44] + y[45]
   + y[46] + y[47] + y[58] + y[61] + y[62] + y[67] + y[74] + y[75] + y[87]
   + y[90] - z[975] >= 0
 R976: y[9] + y[10] + y[13] + y[31] + y[33] + y[55] + y[59] + y[63] + y[79]
   + y[89] + y[99] - z[976] >= 0
 R977: y[31] + y[40] + y[55] + y[60] + y[72] + y[79] + y[96] + y[99]
   - z[977] >= 0
 R978: y[1] + y[14] + y[20] + y[36] + y[39] + y[57] + y[65] + y[92] + y[98]
   - z[978] >= 0
 R979: y[1] + y[14] + y[65] + y[98] - z[979] >= 0
 R980: y[9] + y[11] + y[13] + y[40] + y[54] + y[55] + y[60] + y[68] + y[79]
   + y[99] - z[980] >= 0
 R981: y[2] + y[4] + y[10] + y[28] + y[31] + y[32] + y[43] + y[47] + y[49]
   + y[56] + y[78] + y[81] + y[83] + y[89] - z[981] >= 0
 R982: y[40] + y[55] + y[60] + y[72] + y[79] + y[86] + y[88] + y[96]
   + y[99] - z[982] >= 0
 R983: y[2] + y[18] + y[21] + y[35] + y[36] + y[39] + y[44] + y[49] + y[50]
   + y[56] + y[69] + y[78] + y[81] + y[83] + y[84] + y[85] + y[93] - z[983]
   >= 0
 R984: y[1] + y[20] + y[35] + y[36] + y[39] + y[57] + y[88] + y[92] + y[98]
   - z[984] >= 0
 R985: y[1] + y[20] + y[36] + y[39] + y[57] + y[92] + y[98] - z[985] >= 0
 R986: y[4] + y[10] + y[12] + y[15] + y[26] + y[30] + y[38] + y[47] + y[67]
   + y[70] + y[78] + y[82] + y[83] + y[89] + y[94] - z[986] >= 0
 R987: y[16] + y[23] + y[25] + y[27] + y[28] + y[33] + y[37] + y[42]
   + y[43] + y[59] + y[63] + y[73] + y[76] + y[80] - z[987] >= 0
 R988: y[9] + y[11] + y[13] + y[17] + y[40] + y[51] + y[53] + y[54] + y[55]
   + y[59] + y[60] + y[68] + y[79] + y[99] - z[988] >= 0
 R989: y[29] + y[34] + y[52] + y[62] + y[74] + y[75] - z[989] >= 0
 R990: y[5] + y[7] + y[9] + y[11] + y[13] + y[17] + y[51] + y[53] + y[54]
   + y[64] + y[68] + y[95] + y[97] - z[990] >= 0
 R991: y[4] + y[10] + y[16] + y[23] + y[25] + y[27] + y[28] + y[30] + y[31]
   + y[33] + y[37] + y[42] + y[43] + y[59] + y[63] + y[76] + y[80] + y[89]
   + y[94] - z[991] >= 0
 R992: y[31] + y[40] + y[55] + y[60] + y[79] + y[89] + y[99] - z[992] >= 0
 R993: y[0] + y[16] + y[23] + y[24] + y[25] + y[27] + y[37] + y[41] + y[42]
   + y[71] + y[73] + y[80] + y[82] + y[94] - z[993] >= 0
 R994: y[0] + y[12] + y[15] + y[45] + y[46] + y[47] + y[61] + y[67] + y[70]
   + y[82] - z[994] >= 0
 R995: y[5] + y[7] + y[9] + y[11] + y[13] + y[17] + y[51] + y[53] + y[64]
   + y[68] + y[95] + y[97] - z[995] >= 0
 R996: y[2] + y[20] + y[35] + y[36] + y[39] + y[57] + y[84] + y[88] + y[96]
   + y[98] - z[996] >= 0
 R997: y[0] + y[16] + y[23] + y[24] + y[27] + y[41] + y[42] + y[71] + y[73]
   + y[80] + y[82] + y[94] - z[997] >= 0
 R998: y[3] + y[40] + y[54] + y[60] + y[66] + y[77] + y[99] - z[998] >= 0
 R999: y[8] + y[12] + y[19] + y[22] + y[26] + y[34] + y[38] + y[44] + y[45]
   + y[46] + y[47] + y[58] + y[61] + y[62] + y[67] + y[70] + y[74] + y[75]
   + y[87] + y[90] - z[999] >= 0
 R1000: 12 z[0] + 70 z[1] + 21 z[2] + 62 z[3] + 90 z[4] + 37 z[5] + 12 z[6]
   + 50 z[7] + 28 z[8] + 91 z[9] + 57 z[10] + 28 z[11] + 73 z[12]
   + 12 z[13] + 83 z[14] + 10 z[15] + 40 z[16] + 53 z[17] + 72 z[18]
   + 37 z[19] + 98 z[20] + 100 z[21] + 65 z[22] + 48 z[23] + 18 z[24]
   + z[25] + 63 z[26] + 77 z[27] + 76 z[28] + 6 z[29] + 55 z[30] + 87 z[31]
   + 27 z[32] + 75 z[33] + 100 z[34] + 17 z[35] + 12 z[36] + 64 z[37]
   + 18 z[38] + 91 z[39] + 6 z[40] + 74 z[41] + 18 z[42] + 78 z[43]
   + 37 z[44] + 100 z[45] + 87 z[46] + 28 z[47] + 4 z[48] + 10 z[49]
   + 65 z[50] + 53 z[51] + 62 z[52] + 81 z[53] + 100 z[54] + 79 z[55]
   + 33 z[56] + 15 z[57] + 55 z[58] + 60 z[59] + 72 z[60] + 9 z[61]
   + 98 z[62] + 99 z[63] + 83 z[64] + 50 z[65] + 67 z[66] + 46 z[67]
   + 13 z[68] + 84 z[69] + 36 z[70] + 18 z[71] + 9 z[72] + 5 z[73]
   + 95 z[74] + 45 z[75] + 56 z[76] + 33 z[77] + 73 z[78] + 59 z[79]
   + 95 z[80] + 89 z[81] + 12 z[82] + 56 z[83] + 21 z[84] + 63 z[85]
   + 34 z[86] + 54 z[87] + 77 z[88] + 40 z[89] + 65 z[90] + 49 z[91]
   + 100 z[92] + 63 z[93] + 99 z[94] + 34 z[95] + 12 z[96] + 65 z[97]
   + 80 z[98] + 24 z[99] + 48 z[100] + 67 z[101] + 93 z[102] + 8 z[103]
   + 72 z[104] + 39 z[105] + 52 z[106] + 79 z[107] + 23 z[108] + 76 z[109]
   + 38 z[110] + 17 z[111] + 16 z[112] + z[113] + 72 z[114] + 37 z[115]
   + 63 z[116] + 57 z[117] + 42 z[118] + 92 z[119] + 48 z[120] + 6 z[121]
   + 92 z[122] + 47 z[123] + 20 z[124] + 90 z[125] + 81 z[126] + 31 z[127]
   + 6 z[128] + 12 z[129] + 6 z[130] + 5 z[131] + 78 z[132] + 98 z[133]
   + 12 z[134] + z[135] + 36 z[136] + 15 z[137] + 80 z[138] + 59 z[139]
   + 91 z[140] + 69 z[141] + 27 z[142] + 6 z[143] + 69 z[144] + 51 z[145]
   + 94 z[146] + 83 z[147] + 7 z[148] + 35 z[149] + 26 z[150] + 55 z[151]
   + 93 z[152] + 69 z[153] + z[154] + 12 z[155] + 58 z[156] + 33 z[157]
   + 95 z[158] + 15 z[159] + 44 z[160] + 100 z[161] + 19 z[162] + 22 z[163]
   + 50 z[164] + 82 z[165] + 74 z[166] + 85 z[167] + 97 z[168] + 5 z[169]
   + 95 z[170] + 87 z[171] + 73 z[172] + 22 z[173] + 44 z[174] + 93 z[175]
   + 72 z[176] + 38 z[177] + 28 z[178] + 30 z[179] + 24 z[180] + 53 z[181]
   + 36 z[182] + 16 z[183] + 22 z[184] + 89 z[185] + 80 z[186] + 31 z[187]
   + 21 z[188] + 74 z[189] + 98 z[190] + 65 z[191] + 25 z[192] + 16 z[193]
   + 38 z[194] + 74 z[195] + 98 z[196] + 63 z[197] + 11 z[198] + 94 z[199]
   + 68 z[200] + 5 z[201] + 32 z[202] + 92 z[203] + 78 z[204] + 75 z[205]
   + 85 z[206] + 49 z[207] + 12 z[208] + 12 z[209] + 31 z[210] + 88 z[211]
   + 16 z[212] + 66 z[213] + 55 z[214] + 89 z[215] + 54 z[216] + 34 z[217]
   + 72 z[218] + 75 z[219] + 59 z[220] + 69 z[221] + 91 z[222] + 84 z[223]
   + 36 z[224] + 28 z[225] + 57 z[226] + 85 z[227] + 42 z[228] + 67 z[229]
   + 78 z[230] + 9 z[231] + 24 z[232] + 61 z[233] + z[234] + z[235]
   + 36 z[236] + 37 z[237] + 2 z[238] + 99 z[239] + 100 z[240] + 32 z[241]
   + 86 z[242] + 15 z[243] + 97 z[244] + 93 z[245] + 4 z[246] + 3 z[247]
   + 26 z[248] + 75 z[249] + 29 z[250] + 37 z[251] + 95 z[252] + 19 z[253]
   + 20 z[254] + 30 z[255] + 98 z[256] + 28 z[257] + 15 z[258] + 39 z[259]
   + 47 z[260] + 44 z[261] + 100 z[262] + 70 z[263] + 5 z[264] + 52 z[265]
   + 22 z[266] + 92 z[267] + 88 z[268] + 23 z[269] + 42 z[270] + 87 z[271]
   + 6 z[272] + 80 z[273] + 53 z[274] + 55 z[275] + 72 z[276] + 8 z[277]
   + 57 z[278] + 49 z[279] + 34 z[280] + 85 z[281] + 85 z[282] + 28 z[283]
   + 55 z[284] + 4 z[285] + 58 z[286] + 4 z[287] + 84 z[288] + 72 z[289]
   + 42 z[290] + 30 z[291] + 67 z[292] + 93 z[293] + 51 z[294] + 71 z[295]
   + 44 z[296] + 72 z[297] + 14 z[298] + 31 z[299] + 47 z[300] + 56 z[301]
   + 69 z[302] + 52 z[303] + 87 z[304] + 22 z[305] + 58 z[306] + 58 z[307]
   + 81 z[308] + 14 z[309] + 6 z[310] + 15 z[311] + 50 z[312] + 91 z[313]
   + 42 z[314] + 56 z[315] + 46 z[316] + 51 z[317] + 59 z[318] + 81 z[319]
   + 74 z[320] + 53 z[321] + 10 z[322] + 41 z[323] + 45 z[324] + 12 z[325]
   + 63 z[326] + 89 z[327] + 36 z[328] + 77 z[329] + 71 z[330] + 82 z[331]
   + 84 z[332] + 40 z[333] + 85 z[334] + 70 z[335] + 13 z[336] + 43 z[337]
   + 79 z[338] + 93 z[339] + 8 z[340] + 36 z[341] + 59 z[342] + 10 z[343]
   + 78 z[344] + 53 z[345] + 65 z[346] + 76 z[347] + 3 z[348] + 24 z[349]
   + 56 z[350] + 77 z[351] + 76 z[352] + 18 z[353] + 69 z[354] + 72 z[355]
   + 29 z[356] + 31 z[357] + 60 z[358] + 16 z[359] + 59 z[360] + 31 z[361]
   + 49 z[362] + 94 z[363] + 22 z[364] + 34 z[365] + 15 z[366] + 86 z[367]
   + 28 z[368] + 93 z[369] + 30 z[370] + 87 z[371] + 81 z[372] + 89 z[373]
   + 96 z[374] + 58 z[375] + 41 z[376] + 13 z[377] + 85 z[378] + 95 z[379]
   + 88 z[380] + 41 z[381] + 23 z[382] + 15 z[383] + 58 z[384] + 91 z[385]
   + 86 z[386] + 38 z[387] + 74 z[388] + 46 z[389] + 54 z[390] + 84 z[391]
   + 28 z[392] + 2 z[393] + 78 z[394] + z[395] + 87 z[396] + 44 z[397]
   + 38 z[398] + 66 z[399] + 89 z[400] + 67 z[401] + 53 z[402] + 69 z[403]
   + 7 z[404] + 100 z[405] + 78 z[406] + 47 z[407] + 12 z[408] + 63 z[409]
   + 42 z[410] + 99 z[411] + 55 z[412] + 64 z[413] + 13 z[414] + 12 z[415]
   + 7 z[416] + 51 z[417] + z[418] + 32 z[419] + 48 z[420] + 6 z[421]
   + 15 z[422] + 27 z[423] + 8 z[424] + 44 z[425] + 27 z[426] + 46 z[427]
   + 88 z[428] + 16 z[429] + 12 z[430] + 76 z[431] + 82 z[432] + 16 z[433]
   + 96 z[434] + 89 z[435] + 15 z[436] + 25 z[437] + 87 z[438] + 27 z[439]
   + 87 z[440] + 28 z[441] + 77 z[442] + 93 z[443] + 44 z[444] + 42 z[445]
   + 4 z[446] + 2 z[447] + 92 z[448] + 57 z[449] + 33 z[450] + 39 z[451]
   + 62 z[452] + 47 z[453] + 17 z[454] + 21 z[455] + 91 z[456] + 95 z[457]
   + 67 z[458] + 30 z[459] + 10 z[460] + 78 z[461] + 57 z[462] + 91 z[463]
   + 93 z[464] + 52 z[465] + 31 z[466] + 59 z[467] + 76 z[468] + 18 z[469]
   + 85 z[470] + 15 z[471] + 97 z[472] + 14 z[473] + 7 z[474] + 92 z[475]
   + 55 z[476] + 63 z[477] + 93 z[478] + 98 z[479] + 71 z[480] + 25 z[481]
   + 88 z[482] + 32 z[483] + 24 z[484] + 4 z[485] + 53 z[486] + 66 z[487]
   + 98 z[488] + 71 z[489] + 95 z[490] + 59 z[491] + 100 z[492] + 3 z[493]
   + 49 z[494] + 44 z[495] + 6 z[496] + 32 z[497] + 2 z[498] + 33 z[499]
   + z[500] + 39 z[501] + 47 z[502] + 97 z[503] + 52 z[504] + 6 z[505]
   + 41 z[506] + 58 z[507] + 20 z[508] + 33 z[509] + 7 z[510] + 90 z[511]
   + 10 z[512] + 94 z[513] + 73 z[514] + 85 z[515] + 49 z[516] + 77 z[517]
   + 50 z[518] + 98 z[519] + 47 z[520] + 96 z[521] + 56 z[522] + 46 z[523]
   + 98 z[524] + 56 z[525] + 89 z[526] + 3 z[527] + 87 z[528] + 91 z[529]
   + 87 z[530] + 87 z[531] + 29 z[532] + 34 z[533] + 36 z[534] + 32 z[535]
   + 91 z[536] + 28 z[537] + 89 z[538] + 62 z[539] + 60 z[540] + 95 z[541]
   + 51 z[542] + 21 z[543] + 40 z[544] + 23 z[545] + 5 z[546] + 40 z[547]
   + 52 z[548] + 6 z[549] + 37 z[550] + 98 z[551] + z[552] + 92 z[553]
   + 44 z[554] + 50 z[555] + 99 z[556] + 84 z[557] + 4 z[558] + 38 z[559]
   + 74 z[560] + 91 z[561] + 24 z[562] + 54 z[563] + 76 z[564] + 11 z[565]
   + 85 z[566] + 18 z[567] + 38 z[568] + 25 z[569] + 79 z[570] + 50 z[571]
   + 71 z[572] + 81 z[573] + 22 z[574] + 10 z[575] + 55 z[576] + 79 z[577]
   + 49 z[578] + 6 z[579] + 84 z[580] + 37 z[581] + 4 z[582] + 37 z[583]
   + 80 z[584] + 99 z[585] + 38 z[586] + 79 z[587] + 82 z[588] + 42 z[589]
   + 16 z[590] + 8 z[591] + 84 z[592] + 91 z[593] + 61 z[594] + 11 z[595]
   + 54 z[596] + 98 z[597] + 28 z[598] + 91 z[599] + 22 z[600] + 58 z[601]
   + 92 z[602] + 93 z[603] + 38 z[604] + 14 z[605] + 54 z[606] + 92 z[607]
   + 92 z[608] + 55 z[609] + 98 z[610] + 27 z[611] + 91 z[612] + 53 z[613]
   + 63 z[614] + 71 z[615] + 51 z[616] + z[617] + 49 z[618] + 32 z[619]
   + 94 z[620] + 16 z[621] + 39 z[622] + 29 z[623] + 6 z[624] + 52 z[625]
   + 39 z[626] + 59 z[627] + 49 z[628] + 18 z[629] + 2 z[630] + 22 z[631]
   + 27 z[632] + 93 z[633] + 66 z[634] + 64 z[635] + 58 z[636] + 20 z[637]
   + 55 z[638] + z[639] + 74 z[640] + 4 z[641] + 28 z[642] + 16 z[643]
   + 56 z[644] + 42 z[645] + 86 z[646] + 6 z[647] + 94 z[648] + 86 z[649]
   + 90 z[650] + 87 z[651] + z[652] + 28 z[653] + 67 z[654] + 7 z[655]
   + 79 z[656] + 5 z[657] + 17 z[658] + 79 z[659] + 74 z[660] + 18 z[661]
   + z[662] + 100 z[663] + 63 z[664] + 66 z[665] + 15 z[666] + 20 z[667]
   + 37 z[668] + 22 z[669] + 73 z[670] + 62 z[671] + 25 z[672] + 100 z[673]
   + 78 z[674] + 33 z[675] + 93 z[676] + 15 z[677] + 38 z[678] + 87 z[679]
   + z[680] + 79 z[681] + 25 z[682] + z[683] + 7 z[684] + 92 z[685]
   + 59 z[686] + 37 z[687] + 48 z[688] + 28 z[689] + 68 z[690] + 22 z[691]
   + 45 z[692] + 68 z[693] + 73 z[694] + 59 z[695] + 85 z[696] + 88 z[697]
   + 31 z[698] + 74 z[699] + 9 z[700] + 3 z[701] + 35 z[702] + 85 z[703]
   + 54 z[704] + 64 z[705] + 17 z[706] + 46 z[707] + 31 z[708] + 7 z[709]
   + 32 z[710] + 31 z[711] + 85 z[712] + 57 z[713] + 83 z[714] + 43 z[715]
   + 100 z[716] + 94 z[717] + 32 z[718] + 47 z[719] + 21 z[720] + 99 z[721]
   + 68 z[722] + 17 z[723] + 66 z[724] + 93 z[725] + 76 z[726] + 2 z[727]
   + 80 z[728] + 58 z[729] + 75 z[730] + 40 z[731] + 60 z[732] + 62 z[733]
   + 24 z[734] + 13 z[735] + 77 z[736] + 93 z[737] + 10 z[738] + 7 z[739]
   + 99 z[740] + 94 z[741] + 37 z[742] + 35 z[743] + 50 z[744] + 72 z[745]
   + 78 z[746] + z[747] + 65 z[748] + 9 z[749] + 47 z[750] + 37 z[751]
   + 7 z[752] + 67 z[753] + 53 z[754] + 24 z[755] + 59 z[756] + 80 z[757]
   + 25 z[758] + 90 z[759] + 37 z[760] + 52 z[761] + 81 z[762] + 48 z[763]
   + 13 z[764] + 4 z[765] + 12 z[766] + 89 z[767] + 48 z[768] + 22 z[769]
   + 48 z[770] + 98 z[771] + 15 z[772] + 36 z[773] + 33 z[774] + 16 z[775]
   + 7 z[776] + 62 z[777] + 16 z[778] + 23 z[779] + 70 z[780] + 62 z[781]
   + 11 z[782] + 28 z[783] + 80 z[784] + 16 z[785] + 3 z[786] + 38 z[787]
   + 95 z[788] + 27 z[789] + 79 z[790] + 84 z[791] + 30 z[792] + 59 z[793]
   + 31 z[794] + 42 z[795] + 15 z[796] + 43 z[797] + 83 z[798] + 62 z[799]
   + 16 z[800] + 82 z[801] + 60 z[802] + 30 z[803] + 17 z[804] + 44 z[805]
   + 97 z[806] + 76 z[807] + 5 z[808] + 64 z[809] + 98 z[810] + 26 z[811]
   + 25 z[812] + 9 z[813] + 53 z[814] + 5 z[815] + 76 z[816] + 55 z[817]
   + 94 z[818] + 70 z[819] + 33 z[820] + 25 z[821] + 5 z[822] + 63 z[823]
   + 83 z[824] + 88 z[825] + 56 z[826] + 49 z[827] + 82 z[828] + 90 z[829]
   + 63 z[830] + 97 z[831] + 71 z[832] + 74 z[833] + 78 z[834] + 40 z[835]
   + 17 z[836] + 74 z[837] + 15 z[838] + 73 z[839] + 37 z[840] + 12 z[841]
   + 98 z[842] + 13 z[843] + 72 z[844] + 50 z[845] + 69 z[846] + 47 z[847]
   + 56 z[848] + 15 z[849] + 69 z[850] + 40 z[851] + 39 z[852] + 25 z[853]
   + 2 z[854] + 73 z[855] + 12 z[856] + 10 z[857] + 22 z[858] + 93 z[859]
   + 99 z[860] + 36 z[861] + 41 z[862] + 22 z[863] + 9 z[864] + 18 z[865]
   + 61 z[866] + 77 z[867] + 91 z[868] + 75 z[869] + 49 z[870] + 79 z[871]
   + 38 z[872] + 46 z[873] + 92 z[874] + 62 z[875] + 47 z[876] + 12 z[877]
   + 60 z[878] + 2 z[879] + 26 z[880] + 80 z[881] + 93 z[882] + 64 z[883]
   + 5 z[884] + 95 z[885] + 89 z[886] + 68 z[887] + 4 z[888] + 62 z[889]
   + 61 z[890] + 54 z[891] + 97 z[892] + 53 z[893] + 27 z[894] + 5 z[895]
   + 71 z[896] + 87 z[897] + 33 z[898] + 13 z[899] + 61 z[900] + 81 z[901]
   + 92 z[902] + 51 z[903] + 78 z[904] + 35 z[905] + 12 z[906] + 24 z[907]
   + 46 z[908] + 71 z[909] + 77 z[910] + 72 z[911] + 51 z[912] + 69 z[913]
   + 87 z[914] + 7 z[915] + 15 z[916] + 75 z[917] + 74 z[918] + 70 z[919]
   + 36 z[920] + 86 z[921] + 24 z[922] + 32 z[923] + 39 z[924] + 50 z[925]
   + 88 z[926] + 61 z[927] + 89 z[928] + 72 z[929] + 73 z[930] + z[931]
   + 52 z[932] + 64 z[933] + 51 z[934] + 81 z[935] + 98 z[936] + 14 z[937]
   + 4 z[938] + 44 z[939] + 85 z[940] + 32 z[941] + 67 z[942] + 87 z[943]
   + 53 z[944] + 53 z[945] + 45 z[946] + 67 z[947] + 80 z[948] + 18 z[949]
   + 37 z[950] + 67 z[951] + 56 z[952] + 12 z[953] + 51 z[954] + 46 z[955]
   + 13 z[956] + 38 z[957] + 6 z[958] + 53 z[959] + 62 z[960] + 78 z[961]
   + 54 z[962] + 65 z[963] + 42 z[964] + 56 z[965] + 46 z[966] + 91 z[967]
   + 70 z[968] + z[969] + 86 z[970] + 54 z[971] + 33 z[972] + 4 z[973]
   + 92 z[974] + 37 z[975] + 9 z[976] + 36 z[977] + 3 z[978] + 88 z[979]
   + 5 z[980] + 91 z[981] + 54 z[982] + 60 z[983] + 54 z[984] + 4 z[985]
   + 5 z[986] + 19 z[987] + 94 z[988] + 10 z[989] + 71 z[990] + 55 z[991]
   + 40 z[992] + 76 z[993] + 71 z[994] + 33 z[995] + 32 z[996] + 16 z[997]
   + 23 z[998] + z[999] >= 25385.5
Bounds
Binaries
 y[0] y[1] y[2] y[3] y[4] y[5] y[6] y[7] y[8] y[9] y[10] y[11] y[12] y[13]
 y[14] y[15] y[16] y[17] y[18] y[19] y[20] y[21] y[22] y[23] y[24] y[25]
 y[26] y[27] y[28] y[29] y[30] y[31] y[32] y[33] y[34] y[35] y[36] y[37]
 y[38] y[39] y[40] y[41] y[42] y[43] y[44] y[45] y[46] y[47] y[48] y[49]
 y[50] y[51] y[52] y[53] y[54] y[55] y[56] y[57] y[58] y[59] y[60] y[61]
 y[62] y[63] y[64] y[65] y[66] y[67] y[68] y[69] y[70] y[71] y[72] y[73]
 y[74] y[75] y[76] y[77] y[78] y[79] y[80] y[81] y[82] y[83] y[84] y[85]
 y[86] y[87] y[88] y[89] y[90] y[91] y[92] y[93] y[94] y[95] y[96] y[97]
 y[98] y[99] z[0] z[1] z[2] z[3] z[4] z[5] z[6] z[7] z[8] z[9] z[10] z[11]
 z[12] z[13] z[14] z[15] z[16] z[17] z[18] z[19] z[20] z[21] z[22] z[23]
 z[24] z[25] z[26] z[27] z[28] z[29] z[30] z[31] z[32] z[33] z[34] z[35]
 z[36] z[37] z[38] z[39] z[40] z[41] z[42] z[43] z[44] z[45] z[46] z[47]
 z[48] z[49] z[50] z[51] z[52] z[53] z[54] z[55] z[56] z[57] z[58] z[59]
 z[60] z[61] z[62] z[63] z[64] z[65] z[66] z[67] z[68] z[69] z[70] z[71]
 z[72] z[73] z[74] z[75] z[76] z[77] z[78] z[79] z[80] z[81] z[82] z[83]
 z[84] z[85] z[86] z[87] z[88] z[89] z[90] z[91] z[92] z[93] z[94] z[95]
 z[96] z[97] z[98] z[99] z[100] z[101] z[102] z[103] z[104] z[105] z[106]
 z[107] z[108] z[109] z[110] z[111] z[112] z[113] z[114] z[115] z[116]
 z[117] z[118] z[119] z[120] z[121] z[122] z[123] z[124] z[125] z[126]
 z[127] z[128] z[129] z[130] z[131] z[132] z[133] z[134] z[135] z[136]
 z[137] z[138] z[139] z[140] z[141] z[142] z[143] z[144] z[145] z[146]
 z[147] z[148] z[149] z[150] z[151] z[152] z[153] z[154] z[155] z[156]
 z[157] z[158] z[159] z[160] z[161] z[162] z[163] z[164] z[165] z[166]
 z[167] z[168] z[169] z[170] z[171] z[172] z[173] z[174] z[175] z[176]
 z[177] z[178] z[179] z[180] z[181] z[182] z[183] z[184] z[185] z[186]
 z[187] z[188] z[189] z[190] z[191] z[192] z[193] z[194] z[195] z[196]
 z[197] z[198] z[199] z[200] z[201] z[202] z[203] z[204] z[205] z[206]
 z[207] z[208] z[209] z[210] z[211] z[212] z[213] z[214] z[215] z[216]
 z[217] z[218] z[219] z[220] z[221] z[222] z[223] z[224] z[225] z[226]
 z[227] z[228] z[229] z[230] z[231] z[232] z[233] z[234] z[235] z[236]
 z[237] z[238] z[239] z[240] z[241] z[242] z[243] z[244] z[245] z[246]
 z[247] z[248] z[249] z[250] z[251] z[252] z[253] z[254] z[255] z[256]
 z[257] z[258] z[259] z[260] z[261] z[262] z[263] z[264] z[265] z[266]
 z[267] z[268] z[269] z[270] z[271] z[272] z[273] z[274] z[275] z[276]
 z[277] z[278] z[279] z[280] z[281] z[282] z[283] z[284] z[285] z[286]
 z[287] z[288] z[289] z[290] z[291] z[292] z[293] z[294] z[295] z[296]
 z[297] z[298] z[299] z[300] z[301] z[302] z[303] z[304] z[305] z[306]
 z[307] z[308] z[309] z[310] z[311] z[312] z[313] z[314] z[315] z[316]
 z[317] z[318] z[319] z[320] z[321] z[322] z[323] z[324] z[325] z[326]
 z[327] z[328] z[329] z[330] z[331] z[332] z[333] z[334] z[335] z[336]
 z[337] z[338] z[339] z[340] z[341] z[342] z[343] z[344] z[345] z[346]
 z[347] z[348] z[349] z[350] z[351] z[352] z[353] z[354] z[355] z[356]
 z[357] z[358] z[359] z[360] z[361] z[362] z[363] z[364] z[365] z[366]
 z[367] z[368] z[369] z[370] z[371] z[372] z[373] z[374] z[375] z[376]
 z[377] z[378] z[379] z[380] z[381] z[382] z[383] z[384] z[385] z[386]
 z[387] z[388] z[389] z[390] z[391] z[392] z[393] z[394] z[395] z[396]
 z[397] z[398] z[399] z[400] z[401] z[402] z[403] z[404] z[405] z[406]
 z[407] z[408] z[409] z[410] z[411] z[412] z[413] z[414] z[415] z[416]
 z[417] z[418] z[419] z[420] z[421] z[422] z[423] z[424] z[425] z[426]
 z[427] z[428] z[429] z[430] z[431] z[432] z[433] z[434] z[435] z[436]
 z[437] z[438] z[439] z[440] z[441] z[442] z[443] z[444] z[445] z[446]
 z[447] z[448] z[449] z[450] z[451] z[452] z[453] z[454] z[455] z[456]
 z[457] z[458] z[459] z[460] z[461] z[462] z[463] z[464] z[465] z[466]
 z[467] z[468] z[469] z[470] z[471] z[472] z[473] z[474] z[475] z[476]
 z[477] z[478] z[479] z[480] z[481] z[482] z[483] z[484] z[485] z[486]
 z[487] z[488] z[489] z[490] z[491] z[492] z[493] z[494] z[495] z[496]
 z[497] z[498] z[499] z[500] z[501] z[502] z[503] z[504] z[505] z[506]
 z[507] z[508] z[509] z[510] z[511] z[512] z[513] z[514] z[515] z[516]
 z[517] z[518] z[519] z[520] z[521] z[522] z[523] z[524] z[525] z[526]
 z[527] z[528] z[529] z[530] z[531] z[532] z[533] z[534] z[535] z[536]
 z[537] z[538] z[539] z[540] z[541] z[542] z[543] z[544] z[545] z[546]
 z[547] z[548] z[549] z[550] z[551] z[552] z[553] z[554] z[555] z[556]
 z[557] z[558] z[559] z[560] z[561] z[562] z[563] z[564] z[565] z[566]
 z[567] z[568] z[569] z[570] z[571] z[572] z[573] z[574] z[575] z[576]
 z[577] z[578] z[579] z[580] z[581] z[582] z[583] z[584] z[585] z[586]
 z[587] z[588] z[589] z[590] z[591] z[592] z[593] z[594] z[595] z[596]
 z[597] z[598] z[599] z[600] z[601] z[602] z[603] z[604] z[605] z[606]
 z[607] z[608] z[609] z[610] z[611] z[612] z[613] z[614] z[615] z[616]
 z[617] z[618] z[619] z[620] z[621] z[622] z[623] z[624] z[625] z[626]
 z[627] z[628] z[629] z[630] z[631] z[632] z[633] z[634] z[635] z[636]
 z[637] z[638] z[639] z[640] z[641] z[642] z[643] z[644] z[645] z[646]
 z[647] z[648] z[649] z[650] z[651] z[652] z[653] z[654] z[655] z[656]
 z[657] z[658] z[659] z[660] z[661] z[662] z[663] z[664] z[665] z[666]
 z[667] z[668] z[669] z[670] z[671] z[672] z[673] z[674] z[675] z[676]
 z[677] z[678] z[679] z[680] z[681] z[682] z[683] z[684] z[685] z[686]
 z[687] z[688] z[689] z[690] z[691] z[692] z[693] z[694] z[695] z[696]
 z[697] z[698] z[699] z[700] z[701] z[702] z[703] z[704] z[705] z[706]
 z[707] z[708] z[709] z[710] z[711] z[712] z[713] z[714] z[715] z[716]
 z[717] z[718] z[719] z[720] z[721] z[722] z[723] z[724] z[725] z[726]
 z[727] z[728] z[729] z[730] z[731] z[732] z[733] z[734] z[735] z[736]
 z[737] z[738] z[739] z[740] z[741] z[742] z[743] z[744] z[745] z[746]
 z[747] z[748] z[749] z[750] z[751] z[752] z[753] z[754] z[755] z[756]
 z[757] z[758] z[759] z[760] z[761] z[762] z[763] z[764] z[765] z[766]
 z[767] z[768] z[769] z[770] z[771] z[772] z[773] z[774] z[775] z[776]
 z[777] z[778] z[779] z[780] z[781] z[782] z[783] z[784] z[785] z[786]
 z[787] z[788] z[789] z[790] z[791] z[792] z[793] z[794] z[795] z[796]
 z[797] z[798] z[799] z[800] z[801] z[802] z[803] z[804] z[805] z[806]
 z[807] z[808] z[809] z[810] z[811] z[812] z[813] z[814] z[815] z[816]
 z[817] z[818] z[819] z[820] z[821] z[822] z[823] z[824] z[825] z[826]
 z[827] z[828] z[829] z[830] z[831] z[832] z[833] z[834] z[835] z[836]
 z[837] z[838] z[839] z[840] z[841] z[842] z[843] z[844] z[845] z[846]
 z[847] z[848] z[849] z[850] z[851] z[852] z[853] z[854] z[855] z[856]
 z[857] z[858] z[859] z[860] z[861] z[862] z[863] z[864] z[865] z[866]
 z[867] z[868] z[869] z[870] z[871] z[872] z[873] z[874] z[875] z[876]
 z[877] z[878] z[879] z[880] z[881] z[882] z[883] z[884] z[885] z[886]
 z[887] z[888] z[889] z[890] z[891] z[892] z[893] z[894] z[895] z[896]
 z[897] z[898] z[899] z[900] z[901] z[902] z[903] z[904] z[905] z[906]
 z[907] z[908] z[909] z[910] z[911] z[912] z[913] z[914] z[915] z[916]
 z[917] z[918] z[919] z[920] z[921] z[922] z[923] z[924] z[925] z[926]
 z[927] z[928] z[929] z[930] z[931] z[932] z[933] z[934] z[935] z[936]
 z[937] z[938] z[939] z[940] z[941] z[942] z[943] z[944] z[945] z[946]
 z[947] z[948] z[949] z[950] z[951] z[952] z[953] z[954] z[955] z[956]
 z[957] z[958] z[959] z[960] z[961] z[962] z[963] z[964] z[965] z[966]
 z[967] z[968] z[969] z[970] z[971] z[972] z[973] z[974] z[975] z[976]
 z[977] z[978] z[979] z[980] z[981] z[982] z[983] z[984] z[985] z[986]
 z[987] z[988] z[989] z[990] z[991] z[992] z[993] z[994] z[995] z[996]
 z[997] z[998] z[999]
End
