\ This file has been generated by DOcplex
\ ENCODING=ISO-8859-1
\Problem name: PLCP_CPLEX_GRID_PSCLP_n100_m10000_d1_100_f10_100_s1

Minimize
 obj: 70 y_0 + 91 y_1 + 38 y_2 + 12 y_3 + 13 y_4 + 26 y_5 + 48 y_6 + 16 y_7
      + 18 y_8 + 13 y_9 + 31 y_10 + 97 y_11 + 49 y_12 + 95 y_13 + 92 y_14
      + 30 y_15 + 21 y_16 + 42 y_17 + 86 y_18 + 13 y_19 + 24 y_20 + 57 y_21
      + 26 y_22 + 82 y_23 + 42 y_24 + 62 y_25 + 16 y_26 + 88 y_27 + 71 y_28
      + 58 y_29 + 84 y_30 + 95 y_31 + 11 y_32 + 21 y_33 + 97 y_34 + 15 y_35
      + 91 y_36 + 44 y_37 + 75 y_38 + 63 y_39 + 47 y_40 + 60 y_41 + 22 y_42
      + 49 y_43 + 54 y_44 + 68 y_45 + 69 y_46 + 28 y_47 + 100 y_48 + 54 y_49
      + 85 y_50 + 77 y_51 + 65 y_52 + 10 y_53 + 21 y_54 + 97 y_55 + 62 y_56
      + 27 y_57 + 48 y_58 + 87 y_59 + 39 y_60 + 31 y_61 + 81 y_62 + 40 y_63
      + 96 y_64 + 77 y_65 + 99 y_66 + 50 y_67 + 74 y_68 + 74 y_69 + 12 y_70
      + 74 y_71 + 33 y_72 + 78 y_73 + 22 y_74 + 40 y_75 + 45 y_76 + 44 y_77
      + 58 y_78 + 98 y_79 + 52 y_80 + 42 y_81 + 75 y_82 + 16 y_83 + 96 y_84
      + 86 y_85 + 66 y_86 + 57 y_87 + 13 y_88 + 13 y_89 + 43 y_90 + 42 y_91
      + 88 y_92 + 77 y_93 + 35 y_94 + 47 y_95 + 16 y_96 + 34 y_97 + 87 y_98
      + 43 y_99
Subject To
 c1: y_31 + y_37 + y_89 + y_99 - z_0 >= 0
 c2: y_7 + y_23 + y_31 + y_51 + y_62 + y_98 - z_1 >= 0
 c3: y_17 + y_53 + y_58 + y_63 + y_91 - z_2 >= 0
 c4: y_11 + y_19 + y_43 + y_52 + y_59 + y_67 + y_68 + y_69 - z_3 >= 0
 c5: y_2 + y_83 + y_84 + y_85 - z_4 >= 0
 c6: y_16 + y_39 + y_40 + y_54 + y_63 + y_66 + y_87 - z_5 >= 0
 c7: y_16 + y_39 + y_40 + y_54 + y_66 + y_87 - z_6 >= 0
 c8: y_16 + y_39 + y_42 + y_53 + y_54 + y_55 + y_63 + y_64 + y_66 - z_7 >= 0
 c9: y_22 + y_56 + y_65 - z_8 >= 0
 c10: y_9 + y_26 + y_67 + y_71 + y_97 - z_9 >= 0
 c11: y_4 + y_9 + y_19 + y_26 + y_32 + y_38 + y_44 + y_67 + y_69 - z_10 >= 0
 c12: y_15 + y_18 + y_21 + y_36 + y_41 + y_47 + y_95 - z_11 >= 0
 c13: y_4 + y_6 + y_32 + y_90 - z_12 >= 0
 c14: y_40 + y_92 - z_13 >= 0
 c15: y_5 + y_6 + y_34 + y_90 - z_14 >= 0
 c16: y_0 + y_27 + y_45 - z_15 >= 0
 c17: y_3 + y_19 + y_21 + y_33 + y_36 + y_38 + y_41 + y_43 + y_47 + y_48 + y_79
      - z_16 >= 0
 c18: y_25 + y_29 + y_35 + y_77 - z_17 >= 0
 c19: y_4 + y_5 + y_6 + y_32 + y_44 + y_90 - z_18 >= 0
 c20: y_2 + y_27 + y_42 + y_55 + y_83 - z_19 >= 0
 c21: y_17 + y_39 + y_53 + y_58 + y_63 + y_64 + y_91 - z_20 >= 0
 c22: y_16 + y_50 + y_54 + y_56 + y_58 + y_66 - z_21 >= 0
 c23: y_40 + y_54 + y_87 + y_92 - z_22 >= 0
 c24: y_25 + y_35 + y_40 + y_77 + y_92 - z_23 >= 0
 c25: y_3 + y_5 + y_20 + y_33 + y_34 + y_38 + y_44 + y_48 + y_61 + y_79 + y_93
      - z_24 >= 0
 c26: y_8 + y_17 + y_75 + y_96 - z_25 >= 0
 c27: y_50 + y_56 + y_65 - z_26 >= 0
 c28: y_5 + y_8 + y_17 + y_34 + y_75 + y_80 + y_96 - z_27 >= 0
 c29: y_0 + y_16 + y_39 + y_42 + y_53 + y_54 + y_55 + y_63 + y_64 - z_28 >= 0
 c30: y_40 + y_55 + y_92 - z_29 >= 0
 c31: y_37 + y_45 + y_73 + y_89 - z_30 >= 0
 c32: y_16 + y_39 + y_40 + y_54 + y_63 + y_66 + y_87 - z_31 >= 0
 c33: y_25 + y_29 + y_35 + y_50 + y_77 + y_87 - z_32 >= 0
 c34: y_3 + y_19 + y_21 + y_30 + y_38 + y_43 + y_52 + y_59 + y_94 - z_33 >= 0
 c35: y_40 + y_87 + y_92 - z_34 >= 0
 c36: y_12 + y_57 + y_72 + y_88 - z_35 >= 0
 c37: y_5 + y_8 + y_17 + y_34 + y_91 - z_36 >= 0
 c38: y_16 + y_39 + y_40 + y_54 + y_55 + y_63 + y_64 + y_66 + y_87 - z_37 >= 0
 c39: y_0 + y_27 + y_42 + y_55 + y_63 + y_64 - z_38 >= 0
 c40: y_56 + y_65 - z_39 >= 0
 c41: y_84 + y_85 - z_40 >= 0
 c42: y_0 + y_27 + y_42 + y_55 + y_64 - z_41 >= 0
 c43: y_12 + y_22 + y_32 + y_88 - z_42 >= 0
 c44: y_7 + y_31 + y_51 + y_62 + y_89 + y_98 + y_99 - z_43 >= 0
 c45: y_1 + y_8 + y_73 + y_75 + y_96 - z_44 >= 0
 c46: y_9 + y_11 + y_26 + y_67 + y_68 + y_69 + y_97 - z_45 >= 0
 c47: y_3 + y_19 + y_21 + y_33 + y_38 + y_41 + y_44 + y_48 + y_61 + y_79 - z_46
       >= 0
 c48: y_7 + y_23 + y_31 + y_51 + y_62 + y_89 + y_98 + y_99 - z_47 >= 0
 c49: y_2 + y_14 + y_42 + y_55 + y_82 + y_83 + y_85 - z_48 >= 0
 c50: y_96 - z_49 >= 0
 c51: y_19 + y_21 + y_30 + y_43 + y_48 + y_59 + y_94 - z_50 >= 0
 c52: y_7 + y_23 + y_31 + y_51 + y_62 + y_89 + y_98 + y_99 - z_51 >= 0
 c53: y_5 + y_34 + y_90 - z_52 >= 0
 c54: y_12 + y_57 + y_65 + y_72 + y_78 + y_88 - z_53 >= 0
 c55: y_0 + y_45 - z_54 >= 0
 c56: y_15 + y_18 + y_20 + y_21 + y_33 + y_36 + y_41 + y_47 + y_48 + y_61 + y_79
      + y_93 + y_95 - z_55 >= 0
 c57: y_16 + y_50 + y_54 + y_56 + y_58 + y_66 - z_56 >= 0
 c58: y_9 + y_11 + y_26 + y_38 + y_67 + y_68 + y_69 - z_57 >= 0
 c59: y_40 + y_87 + y_92 - z_58 >= 0
 c60: y_17 + y_53 + y_58 + y_63 + y_91 - z_59 >= 0
 c61: y_1 + y_37 + y_73 + y_89 + y_96 + y_99 - z_60 >= 0
 c62: y_13 + y_57 + y_60 + y_65 + y_72 + y_76 + y_78 + y_81 - z_61 >= 0
 c63: y_25 + y_29 + y_35 + y_50 + y_56 + y_77 + y_87 - z_62 >= 0
 c64: y_12 + y_57 + y_72 + y_88 - z_63 >= 0
 c65: y_21 + y_30 + y_36 + y_41 + y_43 + y_47 + y_48 + y_94 - z_64 >= 0
 c66: y_37 + y_45 - z_65 >= 0
 c67: y_1 + y_23 + y_31 + y_37 + y_73 + y_89 + y_98 + y_99 - z_66 >= 0
 c68: y_16 + y_50 + y_54 + y_56 + y_58 + y_66 - z_67 >= 0
 c69: y_3 + y_5 + y_33 + y_34 + y_38 + y_44 + y_90 - z_68 >= 0
 c70: y_16 + y_39 + y_40 + y_50 + y_54 + y_66 + y_87 - z_69 >= 0
 c71: y_13 + y_28 + y_60 + y_76 + y_81 - z_70 >= 0
 c72: y_9 + y_26 + y_67 + y_69 + y_71 + y_97 - z_71 >= 0
 c73: y_22 + y_50 + y_56 + y_65 - z_72 >= 0
 c74: y_29 - z_73 >= 0
 c75: y_15 + y_18 + y_21 + y_36 + y_41 + y_47 + y_48 + y_79 + y_94 - z_74 >= 0
 c76: y_16 + y_39 + y_50 + y_54 + y_66 + y_87 - z_75 >= 0
 c77: y_1 + y_8 + y_20 + y_46 + y_75 + y_80 + y_93 - z_76 >= 0
 c78: y_25 + y_29 + y_35 + y_50 + y_56 + y_66 + y_77 + y_87 - z_77 >= 0
 c79: y_37 + y_45 + y_73 + y_96 - z_78 >= 0
 c80: y_16 + y_25 + y_50 + y_54 + y_56 + y_66 + y_77 + y_87 - z_79 >= 0
 c81: y_16 + y_17 + y_39 + y_53 + y_58 + y_63 + y_91 - z_80 >= 0
 c82: y_0 + y_27 + y_42 + y_55 + y_64 - z_81 >= 0
 c83: y_12 + y_22 + y_57 + y_65 + y_72 + y_88 - z_82 >= 0
 c84: y_8 + y_73 + y_96 - z_83 >= 0
 c85: y_14 + y_27 + y_82 - z_84 >= 0
 c86: y_2 + y_14 + y_82 + y_83 + y_84 + y_85 - z_85 >= 0
 c87: y_25 + y_29 + y_35 + y_77 - z_86 >= 0
 c88: y_1 + y_31 + y_73 + y_89 + y_99 - z_87 >= 0
 c89: y_65 - z_88 >= 0
 c90: y_1 + y_31 + y_37 + y_73 + y_89 + y_99 - z_89 >= 0
 c91: y_12 + y_71 + y_88 - z_90 >= 0
 c92: y_37 + y_45 + y_89 - z_91 >= 0
 c93: y_4 + y_12 + y_22 + y_32 + y_88 - z_92 >= 0
 c94: y_2 + y_83 + y_84 + y_85 - z_93 >= 0
 c95: y_12 + y_57 + y_88 - z_94 >= 0
 c96: y_3 + y_4 + y_19 + y_26 + y_32 + y_33 + y_38 + y_44 + y_90 - z_95 >= 0
 c97: y_2 + y_40 + y_83 + y_85 + y_92 - z_96 >= 0
 c98: y_13 + y_28 + y_60 + y_76 + y_81 - z_97 >= 0
 c99: y_3 + y_15 + y_20 + y_21 + y_33 + y_34 + y_41 + y_48 + y_61 + y_79 + y_80
      + y_93 - z_98 >= 0
 c100: y_17 + y_39 + y_53 + y_58 + y_63 + y_64 + y_91 - z_99 >= 0
 c101: y_9 + y_26 + y_71 - z_100 >= 0
 c102: y_5 + y_17 + y_53 + y_58 + y_91 - z_101 >= 0
 c103: y_16 + y_39 + y_53 + y_54 + y_58 + y_63 + y_66 + y_91 - z_102 >= 0
 c104: y_3 + y_19 + y_21 + y_30 + y_36 + y_41 + y_43 + y_47 + y_48 + y_59 + y_94
       - z_103 >= 0
 c105: y_25 + y_29 + y_35 + y_50 + y_56 + y_66 + y_77 + y_87 - z_104 >= 0
 c106: y_17 + y_53 + y_58 + y_91 - z_105 >= 0
 c107: y_8 + y_17 + y_34 + y_96 - z_106 >= 0
 c108: y_3 + y_11 + y_19 + y_30 + y_38 + y_43 + y_52 + y_59 + y_67 + y_68 + y_69
       - z_107 >= 0
 c109: y_13 + y_28 + y_60 + y_76 + y_78 + y_81 - z_108 >= 0
 c110: y_2 + y_14 + y_82 + y_83 + y_84 + y_85 - z_109 >= 0
 c111: y_50 + y_56 + y_66 + y_87 - z_110 >= 0
 c112: y_0 + y_2 + y_27 + y_42 + y_55 + y_64 - z_111 >= 0
 c113: y_3 + y_19 + y_21 + y_33 + y_36 + y_41 + y_43 + y_47 + y_48 + y_79 + y_94
       - z_112 >= 0
 c114: y_3 + y_19 + y_21 + y_33 + y_38 + y_41 + y_43 + y_44 + y_48 + y_79
       - z_113 >= 0
 c115: y_35 + y_40 + y_92 - z_114 >= 0
 c116: y_3 + y_11 + y_19 + y_26 + y_33 + y_38 + y_43 + y_44 + y_67 + y_68 + y_69
       - z_115 >= 0
 c117: y_8 + y_15 + y_20 + y_46 + y_49 + y_74 + y_75 + y_80 + y_93 + y_95
       - z_116 >= 0
 c118: y_22 + y_56 + y_57 + y_65 + y_72 - z_117 >= 0
 c119: y_4 + y_9 + y_26 + y_32 + y_67 + y_69 - z_118 >= 0
 c120: y_9 + y_11 + y_26 + y_67 + y_68 + y_69 + y_97 - z_119 >= 0
 c121: y_1 + y_73 + y_96 - z_120 >= 0
 c122: y_12 + y_22 + y_57 + y_88 - z_121 >= 0
 c123: y_4 + y_6 + y_22 + y_32 + y_90 - z_122 >= 0
 c124: y_12 + y_22 + y_57 + y_88 - z_123 >= 0
 c125: y_25 + y_29 + y_35 + y_50 + y_56 + y_66 + y_77 + y_87 - z_124 >= 0
 c126: y_25 + y_29 + y_35 + y_77 - z_125 >= 0
 c127: y_6 + y_22 - z_126 >= 0
 c128: y_3 + y_19 + y_26 + y_33 + y_38 + y_44 + y_48 + y_69 - z_127 >= 0
 c129: y_3 + y_4 + y_9 + y_19 + y_26 + y_32 + y_38 + y_44 + y_67 + y_69 + y_90
       - z_128 >= 0
 c130: y_15 + y_18 + y_36 + y_41 + y_46 + y_47 + y_49 + y_74 + y_79 + y_95
       - z_129 >= 0
 c131: y_1 + y_8 + y_46 + y_49 + y_73 + y_75 + y_80 + y_95 - z_130 >= 0
 c132: y_16 + y_39 + y_42 + y_53 + y_54 + y_55 + y_63 + y_64 + y_66 - z_131 >= 
       0
 c133: y_35 + y_92 - z_132 >= 0
 c134: y_15 + y_18 + y_20 + y_21 + y_36 + y_41 + y_46 + y_47 + y_48 + y_61
       + y_75 + y_79 + y_80 + y_93 + y_95 - z_133 >= 0
 c135: y_8 + y_17 + y_34 + y_75 + y_80 + y_96 - z_134 >= 0
 c136: y_16 + y_39 + y_53 + y_58 + y_91 - z_135 >= 0
 c137: y_3 + y_19 + y_33 + y_38 + y_44 + y_48 + y_61 + y_79 - z_136 >= 0
 c138: y_1 + y_37 + y_73 + y_96 - z_137 >= 0
 c139: y_13 + y_28 + y_60 + y_76 - z_138 >= 0
 c140: y_9 + y_11 + y_26 + y_67 + y_68 + y_69 + y_97 - z_139 >= 0
 c141: y_4 + y_9 + y_26 + y_32 + y_67 + y_69 - z_140 >= 0
 c142: y_17 + y_96 - z_141 >= 0
 c143: y_28 - z_142 >= 0
 c144: y_22 + y_57 + y_65 + y_72 - z_143 >= 0
 c145: y_1 + y_8 + y_46 + y_49 + y_74 + y_75 + y_80 + y_95 - z_144 >= 0
 c146: y_12 + y_22 + y_57 + y_72 + y_88 - z_145 >= 0
 c147: y_1 + y_46 + y_49 + y_74 + y_75 + y_95 - z_146 >= 0
 c148: y_16 + y_39 + y_53 + y_54 + y_55 + y_58 + y_63 + y_64 + y_66 - z_147 >= 
       0
 c149: y_2 + y_14 + y_82 + y_83 + y_85 - z_148 >= 0
 c150: y_4 + y_9 + y_12 + y_32 + y_71 + y_88 - z_149 >= 0
 c151: y_1 + y_37 + y_73 + y_96 - z_150 >= 0
 c152: y_2 + y_14 + y_82 + y_83 + y_85 - z_151 >= 0
 c153: y_3 + y_5 + y_19 + y_33 + y_34 + y_38 + y_44 + y_48 + y_61 + y_79 - z_152
        >= 0
 c154: y_45 - z_153 >= 0
 c155: y_1 + y_23 + y_46 + y_49 + y_74 + y_98 - z_154 >= 0
 c156: y_30 + y_43 + y_52 + y_59 + y_94 - z_155 >= 0
 c157: y_15 + y_18 + y_36 + y_41 + y_46 + y_47 + y_49 + y_74 + y_95 - z_156 >= 
       0
 c158: y_5 + y_6 + y_34 + y_90 + y_91 - z_157 >= 0
 c159: y_7 + y_31 + y_37 + y_51 + y_89 + y_99 - z_158 >= 0
 c160: y_73 + y_96 - z_159 >= 0
 c161: y_46 + y_49 + y_74 - z_160 >= 0
 c162: y_0 + y_2 + y_14 + y_27 + y_42 + y_82 - z_161 >= 0
 c163: y_45 + y_96 - z_162 >= 0
 c164: y_8 + y_20 + y_46 + y_75 + y_80 + y_93 + y_95 - z_163 >= 0
 c165: y_1 + y_23 + y_31 + y_46 + y_73 + y_75 + y_89 + y_99 - z_164 >= 0
 c166: y_4 + y_6 + y_9 + y_26 + y_32 + y_38 + y_44 + y_90 - z_165 >= 0
 c167: y_25 + y_29 + y_35 + y_50 + y_56 + y_66 + y_77 + y_87 - z_166 >= 0
 c168: y_1 + y_23 + y_31 + y_46 + y_49 + y_73 + y_89 + y_98 + y_99 - z_167 >= 0
 c169: y_37 + y_45 + y_73 + y_96 - z_168 >= 0
 c170: y_5 + y_6 + y_34 + y_44 + y_90 - z_169 >= 0
 c171: y_5 + y_8 + y_17 + y_34 + y_75 + y_80 + y_93 - z_170 >= 0
 c172: y_25 + y_29 + y_35 + y_50 + y_56 + y_66 + y_77 + y_87 - z_171 >= 0
 c173: y_25 + y_29 + y_35 + y_77 + y_92 - z_172 >= 0
 c174: y_17 + y_53 + y_63 + y_91 + y_96 - z_173 >= 0
 c175: y_0 - z_174 >= 0
 c176: y_9 + y_12 + y_71 + y_88 - z_175 >= 0
 c177: y_25 + y_29 + y_35 + y_77 - z_176 >= 0
 c178: y_0 + y_27 + y_42 + y_55 + y_63 + y_64 - z_177 >= 0
 c179: y_17 + y_39 + y_53 + y_58 + y_63 + y_64 + y_91 - z_178 >= 0
 c180: y_12 + y_88 - z_179 >= 0
 c181: y_12 + y_22 + y_32 + y_88 - z_180 >= 0
 c182: y_67 + y_68 + y_97 - z_181 >= 0
 c183: y_8 + y_15 + y_20 + y_46 + y_61 + y_75 + y_79 + y_80 + y_93 + y_95
       - z_182 >= 0
 c184: y_17 + y_39 + y_53 + y_58 + y_63 + y_91 - z_183 >= 0
 c185: y_18 + y_21 + y_36 + y_41 + y_47 - z_184 >= 0
 c186: y_13 + y_28 + y_60 + y_76 + y_78 + y_81 - z_185 >= 0
 c187: y_8 + y_17 + y_96 - z_186 >= 0
 c188: y_57 + y_65 + y_72 - z_187 >= 0
 c189: y_46 + y_49 + y_74 + y_95 - z_188 >= 0
 c190: y_0 + y_17 + y_53 + y_63 + y_64 - z_189 >= 0
 c191: y_3 + y_15 + y_18 + y_20 + y_21 + y_33 + y_36 + y_41 + y_47 + y_48 + y_61
       + y_79 + y_93 + y_95 - z_190 >= 0
 c192: y_7 + y_31 + y_51 + y_62 + y_89 + y_98 - z_191 >= 0
 c193: y_1 + y_31 + y_37 + y_73 + y_89 + y_99 - z_192 >= 0
 c194: y_4 + y_6 + y_32 + y_90 - z_193 >= 0
 c195: y_4 + y_12 + y_22 + y_32 + y_88 - z_194 >= 0
 c196: y_0 + y_27 + y_45 - z_195 >= 0
 c197: y_7 + y_23 + y_31 + y_51 + y_62 + y_98 + y_99 - z_196 >= 0
 c198: y_4 + y_12 + y_32 + y_88 - z_197 >= 0
 c199: y_1 + y_73 + y_75 + y_96 + y_99 - z_198 >= 0
 c200: y_2 + y_14 + y_27 + y_42 + y_55 + y_82 + y_83 - z_199 >= 0
 c201: y_23 + y_49 + y_74 + y_98 - z_200 >= 0
 c202: y_6 + y_22 - z_201 >= 0
 c203: y_5 + y_17 + y_34 + y_58 + y_91 - z_202 >= 0
 c204: y_16 + y_40 + y_54 + y_66 + y_87 + y_92 - z_203 >= 0
 c205: y_56 + y_58 + y_91 - z_204 >= 0
 c206: y_46 + y_49 + y_74 + y_95 - z_205 >= 0
 c207: y_4 + y_9 + y_26 + y_32 + y_67 - z_206 >= 0
 c208: y_2 + y_83 + y_85 - z_207 >= 0
 c209: y_50 + y_56 + y_65 - z_208 >= 0
 c210: y_8 + y_17 + y_96 - z_209 >= 0
 c211: y_8 + y_17 + y_96 - z_210 >= 0
 c212: y_9 + y_71 - z_211 >= 0
 c213: y_16 + y_39 + y_50 + y_54 + y_56 + y_66 + y_87 - z_212 >= 0
 c214: y_10 - z_213 >= 0
 c215: y_24 + y_70 + y_86 - z_214 >= 0
 c216: y_8 + y_15 + y_20 + y_34 + y_46 + y_61 + y_75 + y_80 + y_93 + y_95
       - z_215 >= 0
 c217: y_7 + y_23 + y_31 + y_51 + y_62 + y_89 + y_98 + y_99 - z_216 >= 0
 c218: y_12 + y_32 + y_71 + y_88 - z_217 >= 0
 c219: y_15 + y_20 + y_21 + y_33 + y_34 + y_41 + y_47 + y_48 + y_61 + y_79
       + y_80 + y_93 + y_95 - z_218 >= 0
 c220: y_46 + y_49 + y_74 + y_95 - z_219 >= 0
 c221: y_12 + y_22 + y_57 + y_72 + y_78 + y_88 - z_220 >= 0
 c222: y_0 + y_27 + y_42 + y_55 + y_64 - z_221 >= 0
 c223: y_1 + y_31 + y_37 + y_73 + y_89 + y_99 - z_222 >= 0
 c224: y_16 + y_50 + y_56 + y_66 - z_223 >= 0
 c225: y_2 + y_14 + y_82 + y_83 + y_84 + y_85 - z_224 >= 0
 c226: y_37 + y_45 + y_73 + y_96 - z_225 >= 0
 c227: y_1 + y_23 + y_46 + y_49 + y_74 + y_98 - z_226 >= 0
 c228: y_12 + y_22 + y_57 + y_65 + y_72 + y_78 + y_88 - z_227 >= 0
 c229: y_13 + y_57 + y_60 + y_65 + y_72 + y_76 + y_78 + y_81 - z_228 >= 0
 c230: y_16 + y_25 + y_40 + y_54 + y_66 + y_87 + y_92 - z_229 >= 0
 c231: y_10 + y_13 + y_57 + y_60 + y_72 + y_76 + y_78 + y_81 - z_230 >= 0
 c232: y_83 + y_84 + y_85 - z_231 >= 0
 c233: y_13 + y_28 + y_60 + y_72 + y_76 + y_78 + y_81 - z_232 >= 0
 c234: y_5 + y_20 + y_33 + y_34 + y_44 + y_61 + y_90 + y_93 - z_233 >= 0
 c235: y_2 + y_82 + y_83 + y_84 + y_85 - z_234 >= 0
 c236: y_25 + y_35 + y_40 + y_77 + y_87 + y_92 - z_235 >= 0
 c237: y_4 + y_6 + y_32 + y_90 - z_236 >= 0
 c238: y_50 + y_56 - z_237 >= 0
 c239: y_30 + y_43 + y_52 + y_59 + y_94 - z_238 >= 0
 c240: y_16 + y_25 + y_40 + y_50 + y_54 + y_56 + y_66 + y_77 + y_87 - z_239 >= 
       0
 c241: y_12 + y_71 + y_88 - z_240 >= 0
 c242: y_1 + y_31 + y_37 + y_73 + y_89 + y_96 + y_99 - z_241 >= 0
 c243: y_18 + y_21 + y_30 + y_36 + y_47 + y_94 - z_242 >= 0
 c244: y_9 + y_71 - z_243 >= 0
 c245: y_4 + y_9 + y_26 + y_32 + y_38 + y_67 + y_69 - z_244 >= 0
 c246: y_16 + y_39 + y_42 + y_53 + y_54 + y_55 + y_63 + y_64 - z_245 >= 0
 c247: y_37 + y_45 + y_73 - z_246 >= 0
 c248: y_29 - z_247 >= 0
 c249: y_1 + y_23 + y_46 + y_49 + y_73 + y_75 + y_98 + y_99 - z_248 >= 0
 c250: y_8 + y_73 + y_75 + y_96 - z_249 >= 0
 c251: y_0 + y_2 + y_14 + y_27 + y_42 + y_55 - z_250 >= 0
 c252: y_0 + y_16 + y_39 + y_42 + y_54 + y_55 + y_63 + y_64 - z_251 >= 0
 c253: y_2 + y_40 + y_55 + y_83 + y_85 - z_252 >= 0
 c254: y_25 + y_29 + y_35 + y_77 + y_87 + y_92 - z_253 >= 0
 c255: y_10 + y_13 + y_60 + y_72 + y_76 + y_78 + y_81 - z_254 >= 0
 c256: y_13 + y_60 + y_65 + y_72 - z_255 >= 0
 c257: y_25 + y_29 + y_35 + y_77 + y_87 + y_92 - z_256 >= 0
 c258: y_7 + y_23 + y_31 + y_51 + y_62 + y_89 + y_98 + y_99 - z_257 >= 0
 c259: y_24 + y_52 + y_59 + y_70 + y_86 - z_258 >= 0
 c260: y_50 + y_56 + y_66 - z_259 >= 0
 c261: y_16 + y_25 + y_35 + y_40 + y_50 + y_54 + y_66 + y_77 + y_87 + y_92
       - z_260 >= 0
 c262: y_17 + y_39 + y_53 + y_58 + y_63 + y_91 - z_261 >= 0
 c263: y_1 + y_7 + y_23 + y_31 + y_49 + y_51 + y_98 + y_99 - z_262 >= 0
 c264: y_5 + y_17 + y_34 + y_91 - z_263 >= 0
 c265: y_16 + y_40 + y_54 + y_55 + y_92 - z_264 >= 0
 c266: y_4 + y_9 + y_19 + y_26 + y_32 + y_38 + y_44 + y_90 - z_265 >= 0
 c267: y_25 + y_29 + y_35 + y_77 - z_266 >= 0
 c268: y_0 + y_27 + y_42 - z_267 >= 0
 c269: y_4 + y_9 + y_12 + y_26 + y_32 + y_88 - z_268 >= 0
 c270: y_22 + y_50 + y_56 + y_65 - z_269 >= 0
 c271: y_8 + y_17 + y_75 + y_96 - z_270 >= 0
 c272: y_50 + y_56 - z_271 >= 0
 c273: y_16 + y_39 + y_42 + y_53 + y_54 + y_55 + y_63 + y_64 - z_272 >= 0
 c274: y_3 + y_11 + y_19 + y_26 + y_38 + y_43 + y_52 + y_67 + y_68 + y_69
       - z_273 >= 0
 c275: y_3 + y_4 + y_9 + y_19 + y_26 + y_33 + y_38 + y_44 + y_67 + y_69 - z_274
        >= 0
 c276: y_11 + y_24 + y_52 + y_68 + y_70 + y_86 + y_97 - z_275 >= 0
 c277: y_45 + y_96 - z_276 >= 0
 c278: y_3 + y_4 + y_19 + y_26 + y_32 + y_33 + y_38 + y_44 + y_90 - z_277 >= 0
 c279: y_15 + y_18 + y_20 + y_21 + y_36 + y_41 + y_46 + y_47 + y_48 + y_61
       + y_79 + y_80 + y_93 + y_95 - z_278 >= 0
 c280: y_22 + y_57 + y_65 + y_72 - z_279 >= 0
 c281: y_9 + y_12 + y_71 - z_280 >= 0
 c282: y_37 + y_45 - z_281 >= 0
 c283: y_15 + y_20 + y_41 + y_46 + y_47 + y_48 + y_61 + y_75 + y_79 + y_80
       + y_93 + y_95 - z_282 >= 0
 c284: y_31 + y_37 + y_89 + y_99 - z_283 >= 0
 c285: y_22 + y_65 - z_284 >= 0
 c286: y_13 + y_28 + y_60 + y_76 + y_81 - z_285 >= 0
 c287: y_71 - z_286 >= 0
 c288: y_3 + y_19 + y_26 + y_33 + y_38 + y_44 + y_69 - z_287 >= 0
 c289: y_0 + y_96 - z_288 >= 0
 c290: y_25 + y_29 + y_35 + y_50 + y_77 - z_289 >= 0
 c291: y_4 + y_9 + y_12 + y_32 + y_88 - z_290 >= 0
 c292: y_83 + y_84 + y_85 - z_291 >= 0
 c293: y_10 + y_57 + y_60 + y_72 + y_76 + y_78 + y_81 - z_292 >= 0
 c294: y_8 + y_17 + y_96 - z_293 >= 0
 c295: y_24 + y_52 + y_59 + y_70 + y_86 - z_294 >= 0
 c296: y_2 + y_14 + y_82 + y_83 + y_85 - z_295 >= 0
 c297: y_3 + y_5 + y_15 + y_20 + y_33 + y_34 + y_41 + y_48 + y_61 + y_79 + y_80
       + y_93 - z_296 >= 0
 c298: y_85 + y_92 - z_297 >= 0
 c299: y_8 + y_15 + y_20 + y_34 + y_61 + y_75 + y_80 + y_93 + y_95 - z_298 >= 0
 c300: y_1 + y_23 + y_46 + y_49 + y_74 + y_98 - z_299 >= 0
 c301: y_11 + y_52 + y_59 + y_67 + y_68 + y_69 + y_97 - z_300 >= 0
 c302: y_2 + y_14 + y_82 + y_83 + y_84 + y_85 - z_301 >= 0
 c303: y_22 + y_57 + y_65 + y_72 - z_302 >= 0
 c304: y_40 + y_83 + y_85 + y_92 - z_303 >= 0
 c305: y_16 + y_39 + y_40 + y_42 + y_54 + y_55 + y_63 + y_64 - z_304 >= 0
 c306: y_11 + y_24 + y_30 + y_43 + y_52 + y_59 + y_70 - z_305 >= 0
 c307: y_40 + y_83 + y_85 + y_92 - z_306 >= 0
 c308: y_7 + y_31 + y_37 + y_51 + y_62 + y_89 + y_99 - z_307 >= 0
 c309: y_3 + y_19 + y_33 + y_38 + y_44 + y_48 + y_90 - z_308 >= 0
 c310: y_6 + y_58 + y_91 - z_309 >= 0
 c311: y_16 + y_39 + y_53 + y_54 + y_55 + y_58 + y_63 + y_64 + y_66 - z_310 >= 
       0
 c312: y_25 + y_35 + y_40 + y_66 + y_77 + y_87 + y_92 - z_311 >= 0
 c313: y_12 + y_88 - z_312 >= 0
 c314: y_9 + y_26 + y_67 + y_68 + y_69 + y_97 - z_313 >= 0
 c315: y_11 + y_24 + y_43 + y_52 + y_59 + y_68 + y_70 + y_86 - z_314 >= 0
 c316: y_16 + y_25 + y_40 + y_50 + y_54 + y_56 + y_66 + y_87 - z_315 >= 0
 c317: y_17 + y_53 + y_91 + y_96 - z_316 >= 0
 c318: y_21 + y_30 + y_36 + y_43 + y_47 + y_94 - z_317 >= 0
 c319: y_40 + y_83 + y_85 + y_92 - z_318 >= 0
 c320: y_9 + y_71 - z_319 >= 0
 c321: y_50 + y_56 + y_65 - z_320 >= 0
 c322: y_25 + y_29 + y_50 + y_56 + y_77 - z_321 >= 0
 c323: y_4 + y_6 + y_22 + y_32 + y_90 - z_322 >= 0
 c324: y_71 + y_97 - z_323 >= 0
 c325: y_12 + y_71 + y_88 - z_324 >= 0
 c326: y_11 + y_52 + y_67 + y_68 + y_69 + y_97 - z_325 >= 0
 c327: y_1 + y_73 + y_96 - z_326 >= 0
 c328: y_7 + y_23 + y_31 + y_51 + y_62 + y_89 + y_98 + y_99 - z_327 >= 0
 c329: y_13 + y_28 + y_60 + y_76 + y_81 - z_328 >= 0
 c330: y_25 + y_29 + y_35 + y_50 + y_54 + y_56 + y_66 + y_77 + y_87 - z_329 >= 
       0
 c331: y_2 + y_14 + y_82 + y_83 + y_84 + y_85 - z_330 >= 0
 c332: y_4 + y_5 + y_6 + y_32 + y_44 + y_90 - z_331 >= 0
 c333: y_8 + y_20 + y_34 + y_75 + y_80 + y_93 + y_96 - z_332 >= 0
 c334: y_16 + y_39 + y_53 + y_58 + y_91 - z_333 >= 0
 c335: y_45 + y_96 - z_334 >= 0
 c336: y_2 + y_14 + y_27 + y_82 + y_83 - z_335 >= 0
 c337: y_0 + y_27 + y_42 + y_55 + y_63 + y_64 - z_336 >= 0
 c338: y_29 + y_77 - z_337 >= 0
 c339: y_0 + y_27 + y_42 + y_55 + y_63 + y_64 - z_338 >= 0
 c340: y_1 + y_23 + y_46 + y_49 + y_74 + y_98 - z_339 >= 0
 c341: y_1 + y_7 + y_23 + y_31 + y_37 + y_51 + y_73 + y_89 + y_98 + y_99 - z_340
        >= 0
 c342: y_8 + y_17 + y_73 + y_96 - z_341 >= 0
 c343: y_5 + y_34 + y_61 + y_93 - z_342 >= 0
 c344: y_5 + y_34 - z_343 >= 0
 c345: y_35 + y_40 + y_92 - z_344 >= 0
 c346: y_17 + y_73 + y_96 - z_345 >= 0
 c347: y_13 + y_57 + y_60 + y_72 + y_76 + y_78 + y_81 - z_346 >= 0
 c348: y_3 + y_11 + y_19 + y_26 + y_38 + y_43 + y_52 + y_59 + y_67 + y_68 + y_69
       - z_347 >= 0
 c349: y_1 + y_31 + y_37 + y_73 + y_89 + y_99 - z_348 >= 0
 c350: y_9 + y_26 + y_38 + y_67 + y_68 + y_69 - z_349 >= 0
 c351: y_65 - z_350 >= 0
 c352: y_2 + y_83 + y_84 + y_85 - z_351 >= 0
 c353: y_16 + y_50 + y_54 + y_56 + y_66 - z_352 >= 0
 c354: y_12 + y_22 + y_57 + y_65 + y_72 + y_88 - z_353 >= 0
 c355: y_46 + y_49 + y_74 + y_95 - z_354 >= 0
 c356: y_4 + y_9 + y_12 + y_32 + y_88 - z_355 >= 0
 c357: y_1 + y_23 + y_49 + y_74 + y_98 - z_356 >= 0
 c358: y_10 + y_12 + y_57 + y_72 + y_78 + y_88 - z_357 >= 0
 c359: y_5 + y_8 + y_20 + y_34 + y_61 + y_75 + y_80 + y_93 - z_358 >= 0
 c360: y_2 + y_14 + y_27 + y_42 + y_55 + y_82 + y_83 - z_359 >= 0
 c361: y_8 + y_17 + y_75 + y_96 - z_360 >= 0
 c362: y_1 + y_23 + y_31 + y_37 + y_73 + y_89 + y_98 + y_99 - z_361 >= 0
 c363: y_85 + y_92 - z_362 >= 0
 c364: y_5 + y_8 + y_17 + y_34 + y_80 - z_363 >= 0
 c365: y_1 + y_8 + y_46 + y_73 + y_75 + y_99 - z_364 >= 0
 c366: - z_365 >= 0
 c367: y_2 + y_14 + y_82 + y_83 + y_85 - z_366 >= 0
 c368: y_12 + y_22 + y_57 + y_72 + y_88 - z_367 >= 0
 c369: y_58 - z_368 >= 0
 c370: y_25 + y_35 + y_40 + y_77 + y_87 + y_92 - z_369 >= 0
 c371: y_3 + y_19 + y_21 + y_30 + y_33 + y_36 + y_38 + y_41 + y_43 + y_47 + y_48
       + y_94 - z_370 >= 0
 c372: y_25 + y_35 + y_40 + y_77 + y_87 + y_92 - z_371 >= 0
 c373: y_1 + y_31 + y_37 + y_73 + y_89 + y_96 + y_99 - z_372 >= 0
 c374: y_22 - z_373 >= 0
 c375: y_22 + y_50 + y_56 + y_65 - z_374 >= 0
 c376: y_25 + y_35 + y_40 + y_77 + y_87 + y_92 - z_375 >= 0
 c377: y_0 + y_27 + y_42 - z_376 >= 0
 c378: y_37 + y_45 + y_73 + y_96 - z_377 >= 0
 c379: y_6 + y_58 + y_90 + y_91 - z_378 >= 0
 c380: y_22 + y_57 + y_65 + y_72 - z_379 >= 0
 c381: y_4 + y_6 + y_9 + y_26 + y_32 + y_90 - z_380 >= 0
 c382: y_65 - z_381 >= 0
 c383: y_0 + y_17 + y_53 + y_63 + y_64 - z_382 >= 0
 c384: y_25 + y_29 + y_50 + y_56 + y_66 + y_77 + y_87 - z_383 >= 0
 c385: y_2 + y_83 + y_85 - z_384 >= 0
 c386: y_57 + y_65 + y_72 - z_385 >= 0
 c387: y_24 + y_70 + y_86 - z_386 >= 0
 c388: y_3 + y_19 + y_21 + y_33 + y_38 + y_43 + y_44 + y_48 + y_69 - z_387 >= 0
 c389: y_8 + y_34 + y_75 + y_80 + y_93 + y_96 - z_388 >= 0
 c390: y_13 + y_28 + y_60 + y_76 - z_389 >= 0
 c391: y_7 + y_31 + y_37 + y_89 + y_99 - z_390 >= 0
 c392: y_11 + y_24 + y_43 + y_52 + y_59 + y_67 + y_68 + y_69 + y_70 + y_86
       + y_97 - z_391 >= 0
 c393: y_30 + y_43 + y_52 + y_59 + y_70 + y_94 - z_392 >= 0
 c394: y_5 + y_8 + y_20 + y_34 + y_61 + y_75 + y_80 + y_93 - z_393 >= 0
 c395: y_15 + y_20 + y_21 + y_33 + y_36 + y_41 + y_47 + y_48 + y_61 + y_79
       + y_80 + y_93 + y_95 - z_394 >= 0
 c396: y_1 + y_31 + y_37 + y_45 + y_73 + y_89 + y_99 - z_395 >= 0
 c397: y_29 + y_50 + y_56 + y_65 - z_396 >= 0
 c398: y_2 + y_83 + y_85 - z_397 >= 0
 c399: y_16 + y_39 + y_53 + y_54 + y_55 + y_63 + y_64 + y_66 - z_398 >= 0
 c400: y_4 + y_6 + y_32 + y_90 - z_399 >= 0
 c401: y_5 + y_34 + y_44 + y_61 + y_90 + y_93 - z_400 >= 0
 c402: y_0 + y_17 + y_39 + y_53 + y_63 + y_64 + y_91 - z_401 >= 0
 c403: y_25 + y_29 + y_35 + y_77 - z_402 >= 0
 c404: y_57 + y_65 + y_72 - z_403 >= 0
 c405: y_17 + y_39 + y_53 + y_58 + y_63 + y_64 + y_91 - z_404 >= 0
 c406: y_4 + y_9 + y_19 + y_26 + y_32 + y_38 + y_44 + y_67 + y_69 - z_405 >= 0
 c407: y_12 + y_22 + y_57 + y_65 + y_72 + y_88 - z_406 >= 0
 c408: y_53 + y_58 + y_91 - z_407 >= 0
 c409: y_29 - z_408 >= 0
 c410: y_11 + y_52 + y_59 + y_67 + y_68 + y_69 + y_97 - z_409 >= 0
 c411: y_7 + y_23 + y_31 + y_51 + y_62 + y_98 - z_410 >= 0
 c412: y_16 + y_39 + y_50 + y_54 + y_56 + y_58 + y_66 + y_87 - z_411 >= 0
 c413: y_12 + y_22 + y_57 + y_72 + y_88 - z_412 >= 0
 c414: y_3 + y_15 + y_18 + y_20 + y_21 + y_33 + y_36 + y_41 + y_47 + y_48 + y_61
       + y_79 + y_93 + y_95 - z_413 >= 0
 c415: y_1 + y_8 + y_46 + y_49 + y_73 + y_75 + y_80 + y_95 - z_414 >= 0
 c416: y_29 + y_50 + y_56 + y_65 - z_415 >= 0
 c417: y_25 + y_29 + y_35 + y_50 + y_56 + y_77 - z_416 >= 0
 c418: y_18 + y_46 + y_49 + y_74 + y_95 - z_417 >= 0
 c419: y_11 + y_24 + y_43 + y_52 + y_59 + y_68 + y_69 + y_70 + y_86 - z_418 >= 
       0
 c420: y_11 + y_19 + y_38 + y_43 + y_52 + y_59 + y_67 + y_68 + y_69 + y_97
       - z_419 >= 0
 c421: y_6 + y_22 - z_420 >= 0
 c422: y_5 + y_6 + y_90 - z_421 >= 0
 c423: y_23 + y_49 + y_74 + y_98 - z_422 >= 0
 c424: y_2 + y_14 + y_82 + y_83 + y_84 + y_85 - z_423 >= 0
 c425: y_13 + y_28 + y_60 + y_76 + y_81 - z_424 >= 0
 c426: y_7 + y_23 + y_31 + y_51 + y_62 + y_89 + y_98 + y_99 - z_425 >= 0
 c427: y_12 + y_71 + y_88 - z_426 >= 0
 c428: y_13 + y_57 + y_60 + y_65 + y_72 + y_76 + y_78 - z_427 >= 0
 c429: y_73 + y_96 - z_428 >= 0
 c430: y_12 + y_71 + y_88 - z_429 >= 0
 c431: y_6 + y_90 - z_430 >= 0
 c432: y_8 + y_15 + y_20 + y_46 + y_49 + y_61 + y_75 + y_79 + y_80 + y_93 + y_95
       - z_431 >= 0
 c433: y_16 + y_25 + y_40 + y_50 + y_54 + y_56 + y_66 + y_77 + y_87 - z_432 >= 
       0
 c434: y_1 + y_37 + y_73 + y_96 - z_433 >= 0
 c435: y_24 + y_52 + y_59 + y_70 + y_86 - z_434 >= 0
 c436: y_58 + y_91 - z_435 >= 0
 c437: y_21 + y_30 + y_36 + y_41 + y_43 + y_47 + y_48 + y_94 - z_436 >= 0
 c438: y_2 + y_14 + y_82 + y_83 + y_84 + y_85 - z_437 >= 0
 c439: y_1 + y_7 + y_23 + y_31 + y_51 + y_62 + y_89 + y_98 + y_99 - z_438 >= 0
 c440: y_11 + y_24 + y_30 + y_43 + y_52 + y_59 + y_70 + y_94 - z_439 >= 0
 c441: y_2 + y_82 + y_83 + y_84 + y_85 - z_440 >= 0
 c442: y_7 + y_23 + y_51 + y_98 - z_441 >= 0
 c443: y_25 + y_29 + y_35 + y_77 - z_442 >= 0
 c444: y_12 + y_22 + y_57 + y_65 + y_72 + y_88 - z_443 >= 0
 c445: y_16 + y_39 + y_40 + y_54 + y_63 + y_66 + y_87 - z_444 >= 0
 c446: y_85 + y_92 - z_445 >= 0
 c447: y_0 + y_16 + y_39 + y_42 + y_53 + y_54 + y_55 + y_63 + y_64 - z_446 >= 0
 c448: y_0 + y_2 + y_27 + y_42 + y_55 - z_447 >= 0
 c449: y_5 + y_8 + y_20 + y_34 + y_61 + y_75 + y_80 + y_93 - z_448 >= 0
 c450: y_37 + y_45 - z_449 >= 0
 c451: y_16 + y_17 + y_39 + y_53 + y_58 + y_63 + y_64 + y_91 - z_450 >= 0
 c452: y_24 + y_70 + y_86 - z_451 >= 0
 c453: y_18 + y_21 + y_30 + y_36 + y_41 + y_43 + y_47 + y_48 + y_94 - z_452 >= 
       0
 c454: y_10 + y_57 + y_60 + y_72 + y_76 + y_78 + y_81 - z_453 >= 0
 c455: y_0 + y_27 + y_42 + y_55 + y_64 - z_454 >= 0
 c456: y_9 + y_11 + y_19 + y_26 + y_38 + y_67 + y_68 + y_69 - z_455 >= 0
 c457: y_29 - z_456 >= 0
 c458: y_1 + y_23 + y_46 + y_49 + y_74 + y_95 + y_98 - z_457 >= 0
 c459: y_24 + y_52 + y_70 + y_86 + y_97 - z_458 >= 0
 c460: y_4 + y_9 + y_26 + y_32 + y_67 + y_69 - z_459 >= 0
 c461: y_11 + y_24 + y_30 + y_43 + y_52 + y_59 + y_68 + y_70 - z_460 >= 0
 c462: y_1 + y_23 + y_46 + y_49 + y_74 + y_75 + y_95 - z_461 >= 0
 c463: y_4 + y_6 + y_32 + y_90 - z_462 >= 0
 c464: y_11 + y_43 + y_52 + y_59 + y_67 + y_68 + y_69 - z_463 >= 0
 c465: y_13 + y_60 + y_65 + y_72 + y_76 - z_464 >= 0
 c466: y_15 + y_18 + y_20 + y_21 + y_33 + y_36 + y_41 + y_47 + y_48 + y_61
       + y_79 + y_93 + y_95 - z_465 >= 0
 c467: y_17 + y_53 + y_58 + y_91 - z_466 >= 0
 c468: y_1 + y_7 + y_23 + y_31 + y_51 + y_62 + y_89 + y_98 + y_99 - z_467 >= 0
 c469: y_18 + y_21 + y_36 + y_41 + y_47 + y_94 - z_468 >= 0
 c470: y_13 + y_57 + y_60 + y_65 + y_72 + y_76 + y_78 + y_81 - z_469 >= 0
 c471: y_12 + y_22 + y_57 + y_65 + y_72 + y_88 - z_470 >= 0
 c472: y_37 + y_45 - z_471 >= 0
 c473: y_4 + y_5 + y_6 + y_32 + y_44 + y_90 - z_472 >= 0
 c474: y_16 + y_39 + y_53 + y_54 + y_58 + y_91 - z_473 >= 0
 c475: y_5 + y_8 + y_20 + y_34 + y_61 + y_79 + y_80 + y_93 - z_474 >= 0
 c476: y_9 + y_71 + y_97 - z_475 >= 0
 c477: y_8 + y_20 + y_34 + y_61 + y_75 + y_80 + y_93 - z_476 >= 0
 c478: y_15 + y_18 + y_20 + y_21 + y_36 + y_41 + y_47 + y_61 + y_79 + y_93
       + y_95 - z_477 >= 0
 c479: y_3 + y_4 + y_9 + y_19 + y_26 + y_32 + y_38 + y_44 + y_67 + y_69 - z_478
        >= 0
 c480: y_0 + y_17 + y_39 + y_53 + y_63 + y_64 - z_479 >= 0
 c481: y_2 + y_40 + y_55 + y_83 + y_85 + y_92 - z_480 >= 0
 c482: y_22 + y_65 - z_481 >= 0
 c483: y_16 + y_40 + y_54 + y_66 + y_87 + y_92 - z_482 >= 0
 c484: y_13 - z_483 >= 0
 c485: y_12 + y_71 + y_88 - z_484 >= 0
 c486: y_12 + y_22 + y_57 + y_88 - z_485 >= 0
 c487: y_40 + y_83 + y_85 + y_92 - z_486 >= 0
 c488: y_10 + y_13 + y_28 + y_60 + y_76 + y_78 + y_81 - z_487 >= 0
 c489: y_17 + y_96 - z_488 >= 0
 c490: y_16 + y_50 + y_54 + y_56 + y_66 + y_87 - z_489 >= 0
 c491: y_4 + y_9 + y_26 + y_32 + y_90 - z_490 >= 0
 c492: y_1 + y_7 + y_23 + y_31 + y_37 + y_51 + y_62 + y_89 + y_98 + y_99 - z_491
        >= 0
 c493: y_12 + y_22 + y_32 + y_88 - z_492 >= 0
 c494: y_0 + y_17 + y_53 + y_63 + y_64 - z_493 >= 0
 c495: y_12 + y_71 + y_88 - z_494 >= 0
 c496: y_7 + y_23 + y_31 + y_51 + y_62 + y_89 + y_98 + y_99 - z_495 >= 0
 c497: y_16 + y_39 + y_40 + y_54 + y_63 + y_66 + y_87 - z_496 >= 0
 c498: y_12 + y_22 + y_57 + y_65 + y_72 + y_88 - z_497 >= 0
 c499: y_6 + y_58 + y_90 + y_91 - z_498 >= 0
 c500: y_4 + y_6 + y_26 + y_32 + y_44 + y_90 - z_499 >= 0
 c501: y_0 + y_45 - z_500 >= 0
 c502: y_37 + y_45 - z_501 >= 0
 c503: y_46 + y_49 + y_74 + y_95 - z_502 >= 0
 c504: y_0 + y_27 + y_42 + y_55 + y_63 + y_64 - z_503 >= 0
 c505: y_16 + y_39 + y_50 + y_54 + y_56 + y_58 + y_66 - z_504 >= 0
 c506: y_8 + y_20 + y_46 + y_75 + y_80 + y_93 - z_505 >= 0
 c507: y_0 + y_45 - z_506 >= 0
 c508: y_25 + y_29 + y_35 + y_40 + y_77 + y_87 + y_92 - z_507 >= 0
 c509: y_0 + y_2 + y_14 + y_27 + y_42 + y_82 - z_508 >= 0
 c510: y_25 + y_29 + y_35 + y_77 + y_87 + y_92 - z_509 >= 0
 c511: y_0 + y_96 - z_510 >= 0
 c512: y_0 + y_27 + y_42 - z_511 >= 0
 c513: y_2 + y_40 + y_83 + y_85 + y_92 - z_512 >= 0
 c514: y_16 + y_39 + y_40 + y_54 + y_55 + y_66 + y_87 + y_92 - z_513 >= 0
 c515: y_25 + y_35 + y_77 + y_92 - z_514 >= 0
 c516: y_0 + y_64 - z_515 >= 0
 c517: y_8 + y_15 + y_20 + y_34 + y_41 + y_48 + y_61 + y_75 + y_79 + y_80 + y_93
       + y_95 - z_516 >= 0
 c518: y_10 + y_13 + y_57 + y_60 + y_72 + y_76 + y_78 + y_81 - z_517 >= 0
 c519: y_1 + y_23 + y_46 + y_49 + y_74 + y_98 + y_99 - z_518 >= 0
 c520: y_16 + y_39 + y_50 + y_54 + y_56 + y_58 + y_66 + y_87 - z_519 >= 0
 c521: y_57 + y_65 + y_72 - z_520 >= 0
 c522: y_10 + y_13 + y_28 + y_60 + y_76 + y_78 + y_81 - z_521 >= 0
 c523: y_8 + y_17 + y_73 + y_96 - z_522 >= 0
 c524: y_4 + y_9 + y_19 + y_26 + y_38 + y_44 + y_67 + y_69 - z_523 >= 0
 c525: y_7 + y_31 + y_37 + y_51 + y_89 + y_99 - z_524 >= 0
 c526: y_1 + y_8 + y_73 + y_75 + y_96 - z_525 >= 0
 c527: y_3 + y_4 + y_19 + y_26 + y_32 + y_33 + y_38 + y_44 + y_90 - z_526 >= 0
 c528: y_13 + y_28 + y_60 + y_76 + y_81 - z_527 >= 0
 c529: y_1 + y_23 + y_31 + y_46 + y_49 + y_73 + y_89 + y_98 + y_99 - z_528 >= 0
 c530: y_6 + y_22 - z_529 >= 0
 c531: y_2 + y_83 + y_85 - z_530 >= 0
 c532: y_0 + y_27 + y_42 + y_55 + y_64 - z_531 >= 0
 c533: y_7 + y_23 + y_31 + y_51 + y_62 + y_98 - z_532 >= 0
 c534: y_5 + y_8 + y_15 + y_20 + y_34 + y_61 + y_75 + y_80 + y_93 - z_533 >= 0
 c535: y_2 + y_14 + y_82 + y_83 + y_84 + y_85 - z_534 >= 0
 c536: y_10 + y_13 + y_60 + y_76 + y_78 + y_81 - z_535 >= 0
 c537: - z_536 >= 0
 c538: - z_537 >= 0
 c539: y_17 + y_39 + y_53 + y_58 + y_63 + y_91 - z_538 >= 0
 c540: y_17 + y_96 - z_539 >= 0
 c541: y_4 + y_6 + y_12 + y_22 + y_32 + y_88 - z_540 >= 0
 c542: y_4 + y_6 + y_32 + y_44 + y_90 - z_541 >= 0
 c543: y_12 + y_71 + y_88 - z_542 >= 0
 c544: y_1 + y_46 + y_49 + y_74 + y_75 + y_80 + y_95 - z_543 >= 0
 c545: y_21 + y_30 + y_36 + y_43 + y_47 + y_94 - z_544 >= 0
 c546: y_57 + y_65 + y_72 - z_545 >= 0
 c547: y_13 + y_28 + y_60 + y_76 + y_78 + y_81 - z_546 >= 0
 c548: y_25 + y_29 + y_35 + y_77 + y_87 + y_92 - z_547 >= 0
 c549: y_10 + y_13 + y_28 + y_60 + y_72 + y_76 + y_78 + y_81 - z_548 >= 0
 c550: y_23 + y_49 + y_74 + y_98 - z_549 >= 0
 c551: y_3 + y_11 + y_19 + y_26 + y_33 + y_38 + y_43 + y_44 + y_67 + y_68 + y_69
       - z_550 >= 0
 c552: y_4 + y_9 + y_26 + y_32 + y_71 - z_551 >= 0
 c553: y_0 + y_27 + y_42 + y_55 + y_63 + y_64 - z_552 >= 0
 c554: y_17 + y_39 + y_53 + y_58 + y_63 + y_91 - z_553 >= 0
 c555: y_0 + y_2 + y_27 + y_42 + y_55 - z_554 >= 0
 c556: y_10 + y_13 + y_28 + y_60 + y_76 + y_78 + y_81 - z_555 >= 0
 c557: y_0 + y_39 + y_42 + y_53 + y_55 + y_63 + y_64 - z_556 >= 0
 c558: y_1 + y_23 + y_46 + y_49 + y_73 + y_75 - z_557 >= 0
 c559: y_0 + y_27 + y_42 + y_55 + y_63 + y_64 - z_558 >= 0
 c560: y_40 + y_87 + y_92 - z_559 >= 0
 c561: y_18 + y_21 + y_36 + y_41 + y_47 + y_48 + y_94 - z_560 >= 0
 c562: y_4 + y_6 + y_32 + y_90 - z_561 >= 0
 c563: y_24 + y_52 + y_59 + y_70 + y_86 - z_562 >= 0
 c564: y_25 + y_29 + y_35 + y_40 + y_50 + y_66 + y_77 + y_87 + y_92 - z_563 >= 
       0
 c565: y_10 + y_12 + y_57 + y_78 + y_88 - z_564 >= 0
 c566: y_10 + y_12 + y_57 + y_72 + y_78 + y_88 - z_565 >= 0
 c567: y_10 + y_57 + y_60 + y_72 + y_76 + y_78 + y_81 - z_566 >= 0
 c568: y_7 + y_23 + y_31 + y_51 + y_62 + y_89 + y_98 + y_99 - z_567 >= 0
 c569: y_17 + y_39 + y_53 + y_58 + y_63 + y_91 - z_568 >= 0
 c570: y_4 + y_5 + y_6 + y_32 + y_44 + y_90 - z_569 >= 0
 c571: y_0 + y_27 + y_42 + y_55 + y_63 + y_64 - z_570 >= 0
 c572: y_17 + y_53 + y_96 - z_571 >= 0
 c573: y_0 + y_17 + y_39 + y_53 + y_63 + y_64 - z_572 >= 0
 c574: y_4 + y_5 + y_6 + y_32 + y_44 + y_90 - z_573 >= 0
 c575: y_83 + y_85 - z_574 >= 0
 c576: y_16 + y_40 + y_54 + y_55 + y_66 + y_87 + y_92 - z_575 >= 0
 c577: y_13 + y_28 + y_60 + y_76 + y_81 - z_576 >= 0
 c578: y_40 + y_92 - z_577 >= 0
 c579: y_2 + y_14 + y_27 + y_82 - z_578 >= 0
 c580: y_13 + y_28 + y_60 + y_76 - z_579 >= 0
 c581: y_16 + y_39 + y_40 + y_54 + y_63 + y_66 + y_87 - z_580 >= 0
 c582: y_3 + y_19 + y_33 + y_38 + y_44 + y_48 + y_61 + y_79 - z_581 >= 0
 c583: y_16 + y_50 + y_54 + y_56 + y_66 + y_87 - z_582 >= 0
 c584: y_16 + y_40 + y_54 + y_66 + y_87 + y_92 - z_583 >= 0
 c585: y_92 - z_584 >= 0
 c586: y_17 + y_96 - z_585 >= 0
 c587: y_4 + y_6 + y_32 + y_90 - z_586 >= 0
 c588: y_10 + y_13 + y_28 + y_60 + y_72 + y_76 + y_78 + y_81 - z_587 >= 0
 c589: y_0 + y_27 + y_45 - z_588 >= 0
 c590: y_1 + y_8 + y_46 + y_73 + y_75 + y_80 - z_589 >= 0
 c591: y_16 + y_39 + y_53 + y_58 + y_91 - z_590 >= 0
 c592: y_45 - z_591 >= 0
 c593: y_3 + y_5 + y_20 + y_33 + y_34 + y_44 + y_48 + y_61 + y_79 + y_80 + y_93
       - z_592 >= 0
 c594: y_16 + y_17 + y_39 + y_53 + y_54 + y_58 + y_63 + y_91 - z_593 >= 0
 c595: y_11 + y_67 + y_68 + y_97 - z_594 >= 0
 c596: y_5 + y_33 + y_34 + y_44 + y_61 + y_90 + y_93 - z_595 >= 0
 c597: y_11 + y_52 + y_68 + y_86 + y_97 - z_596 >= 0
 c598: y_4 + y_5 + y_6 + y_32 + y_44 + y_90 - z_597 >= 0
 c599: y_13 + y_28 + y_60 + y_76 + y_81 - z_598 >= 0
 c600: y_1 + y_23 + y_31 + y_46 + y_73 + y_75 + y_89 + y_99 - z_599 >= 0
 c601: y_9 + y_71 - z_600 >= 0
 c602: y_4 + y_6 + y_22 + y_32 + y_90 - z_601 >= 0
 c603: y_12 + y_71 - z_602 >= 0
 c604: y_15 + y_18 + y_36 + y_41 + y_46 + y_47 + y_49 + y_74 + y_95 - z_603 >= 
       0
 c605: y_2 + y_14 + y_27 + y_42 + y_55 + y_82 + y_83 - z_604 >= 0
 c606: y_0 + y_39 + y_42 + y_53 + y_55 + y_63 + y_64 - z_605 >= 0
 c607: y_8 + y_20 + y_75 + y_80 + y_93 + y_96 - z_606 >= 0
 c608: y_2 + y_82 + y_83 + y_84 + y_85 - z_607 >= 0
 c609: y_5 + y_6 + y_90 - z_608 >= 0
 c610: y_58 + y_91 - z_609 >= 0
 c611: y_30 + y_43 + y_52 + y_59 + y_94 - z_610 >= 0
 c612: y_10 + y_12 + y_57 + y_72 + y_78 + y_81 + y_88 - z_611 >= 0
 c613: y_0 + y_17 + y_53 + y_63 + y_64 - z_612 >= 0
 c614: y_1 + y_23 + y_31 + y_37 + y_73 + y_89 + y_98 + y_99 - z_613 >= 0
 c615: y_5 + y_20 + y_34 + y_61 + y_80 + y_93 - z_614 >= 0
 c616: y_17 + y_53 + y_58 + y_91 - z_615 >= 0
 c617: y_11 + y_24 + y_30 + y_43 + y_52 + y_59 + y_70 - z_616 >= 0
 c618: y_2 + y_14 + y_82 + y_83 - z_617 >= 0
 c619: y_4 + y_6 + y_32 + y_90 - z_618 >= 0
 c620: y_10 + y_13 + y_57 + y_60 + y_72 + y_76 + y_78 + y_81 - z_619 >= 0
 c621: y_1 + y_23 + y_31 + y_46 + y_49 + y_73 + y_89 + y_98 + y_99 - z_620 >= 0
 c622: y_17 + y_39 + y_53 + y_58 + y_63 + y_91 - z_621 >= 0
 c623: y_5 + y_17 + y_34 + y_53 + y_58 + y_91 - z_622 >= 0
 c624: y_18 + y_36 + y_47 + y_74 + y_95 - z_623 >= 0
 c625: y_13 + y_28 + y_60 + y_76 + y_81 - z_624 >= 0
 c626: y_50 + y_56 - z_625 >= 0
 c627: y_45 - z_626 >= 0
 c628: y_8 + y_20 + y_34 + y_61 + y_75 + y_80 + y_93 - z_627 >= 0
 c629: y_45 - z_628 >= 0
 c630: y_5 + y_17 + y_53 + y_58 + y_91 - z_629 >= 0
 c631: y_13 + y_28 + y_60 + y_72 + y_76 + y_78 + y_81 - z_630 >= 0
 c632: y_10 + y_57 + y_72 + y_78 + y_81 - z_631 >= 0
 c633: y_13 + y_28 + y_60 + y_76 + y_81 - z_632 >= 0
 c634: y_58 + y_91 - z_633 >= 0
 c635: y_5 + y_8 + y_17 + y_34 + y_80 + y_93 - z_634 >= 0
 c636: y_16 + y_39 + y_53 + y_54 + y_58 + y_63 + y_66 + y_91 - z_635 >= 0
 c637: y_25 + y_50 + y_56 + y_66 + y_87 - z_636 >= 0
 c638: y_83 + y_85 + y_92 - z_637 >= 0
 c639: y_0 + y_27 + y_39 + y_42 + y_55 + y_63 + y_64 - z_638 >= 0
 c640: y_11 + y_24 + y_52 + y_67 + y_68 + y_69 + y_70 + y_86 + y_97 - z_639 >= 
       0
 c641: y_4 + y_6 + y_32 + y_90 - z_640 >= 0
 c642: y_12 + y_57 + y_72 + y_88 - z_641 >= 0
 c643: y_31 + y_37 + y_89 - z_642 >= 0
 c644: y_24 + y_70 + y_86 - z_643 >= 0
 c645: y_4 + y_9 + y_26 + y_32 + y_90 - z_644 >= 0
 c646: y_16 + y_50 + y_54 + y_56 + y_58 + y_66 - z_645 >= 0
 c647: y_17 + y_53 + y_96 - z_646 >= 0
 c648: y_8 + y_15 + y_20 + y_34 + y_46 + y_61 + y_75 + y_80 + y_93 + y_95
       - z_647 >= 0
 c649: y_25 + y_29 + y_35 + y_50 + y_77 + y_87 + y_92 - z_648 >= 0
 c650: y_13 + y_28 + y_60 + y_72 + y_76 + y_78 + y_81 - z_649 >= 0
 c651: y_1 + y_8 + y_46 + y_73 + y_75 + y_96 - z_650 >= 0
 c652: y_25 + y_50 + y_56 + y_66 + y_87 - z_651 >= 0
 c653: y_2 + y_14 + y_27 + y_82 - z_652 >= 0
 c654: y_3 + y_19 + y_26 + y_33 + y_38 + y_44 + y_67 + y_69 - z_653 >= 0
 c655: y_16 + y_39 + y_53 + y_54 + y_58 + y_63 + y_66 + y_87 + y_91 - z_654 >= 
       0
 c656: y_15 + y_18 + y_36 + y_41 + y_46 + y_47 + y_49 + y_74 + y_95 - z_655 >= 
       0
 c657: y_1 + y_37 + y_73 + y_96 - z_656 >= 0
 c658: y_3 + y_11 + y_19 + y_33 + y_38 + y_43 + y_44 + y_48 + y_67 + y_69
       - z_657 >= 0
 c659: y_50 + y_56 + y_58 - z_658 >= 0
 c660: y_1 + y_73 + y_96 - z_659 >= 0
 c661: y_0 + y_2 + y_14 + y_27 + y_42 + y_55 + y_82 - z_660 >= 0
 c662: y_9 + y_71 + y_97 - z_661 >= 0
 c663: y_37 + y_73 + y_96 - z_662 >= 0
 c664: y_6 + y_22 - z_663 >= 0
 c665: y_17 + y_53 + y_63 + y_64 + y_96 - z_664 >= 0
 c666: y_58 + y_91 - z_665 >= 0
 c667: y_30 + y_43 + y_52 + y_59 + y_94 - z_666 >= 0
 c668: y_16 + y_40 + y_54 + y_55 + y_66 + y_87 + y_92 - z_667 >= 0
 c669: y_30 + y_43 + y_52 + y_59 + y_94 - z_668 >= 0
 c670: y_7 + y_31 + y_37 + y_51 + y_62 + y_89 + y_99 - z_669 >= 0
 c671: y_4 + y_6 + y_12 + y_22 + y_32 + y_88 + y_90 - z_670 >= 0
 c672: y_83 + y_85 + y_92 - z_671 >= 0
 c673: y_13 + y_28 + y_60 + y_76 - z_672 >= 0
 c674: y_37 + y_45 + y_73 + y_96 - z_673 >= 0
 c675: y_4 + y_5 + y_6 + y_33 + y_34 + y_44 + y_90 - z_674 >= 0
 c676: y_22 + y_57 + y_65 + y_72 - z_675 >= 0
 c677: y_0 + y_2 + y_14 + y_27 + y_42 + y_55 - z_676 >= 0
 c678: y_1 + y_31 + y_37 + y_73 + y_89 + y_99 - z_677 >= 0
 c679: y_2 + y_14 + y_27 + y_82 - z_678 >= 0
 c680: y_9 + y_11 + y_26 + y_67 + y_68 + y_69 + y_97 - z_679 >= 0
 c681: y_73 + y_96 - z_680 >= 0
 c682: y_13 + y_28 + y_60 - z_681 >= 0
 c683: y_8 + y_15 + y_20 + y_46 + y_49 + y_61 + y_75 + y_79 + y_80 + y_93 + y_95
       - z_682 >= 0
 c684: y_3 + y_11 + y_19 + y_38 + y_43 + y_52 + y_59 + y_67 + y_68 + y_69
       - z_683 >= 0
 c685: y_2 + y_40 + y_55 + y_83 + y_85 + y_92 - z_684 >= 0
 c686: y_25 + y_35 + y_40 + y_77 + y_87 + y_92 - z_685 >= 0
 c687: y_16 + y_17 + y_39 + y_53 + y_54 + y_58 + y_63 + y_64 + y_91 - z_686 >= 
       0
 c688: y_11 + y_24 + y_52 + y_59 + y_67 + y_68 + y_69 + y_70 + y_86 + y_97
       - z_687 >= 0
 c689: y_15 + y_18 + y_21 + y_36 + y_41 + y_47 + y_79 + y_95 - z_688 >= 0
 c690: y_15 + y_18 + y_20 + y_21 + y_33 + y_36 + y_41 + y_47 + y_48 + y_61
       + y_79 + y_80 + y_93 + y_95 - z_689 >= 0
 c691: y_8 + y_15 + y_20 + y_34 + y_46 + y_61 + y_75 + y_79 + y_80 + y_93 + y_95
       - z_690 >= 0
 c692: y_9 + y_12 + y_71 + y_88 - z_691 >= 0
 c693: y_13 + y_28 + y_60 + y_76 - z_692 >= 0
 c694: y_13 + y_60 - z_693 >= 0
 c695: y_12 + y_22 + y_57 + y_65 + y_72 + y_88 - z_694 >= 0
 c696: y_92 - z_695 >= 0
 c697: y_7 + y_23 + y_31 + y_51 + y_62 + y_89 + y_98 + y_99 - z_696 >= 0
 c698: y_9 + y_71 - z_697 >= 0
 c699: y_16 + y_39 + y_40 + y_42 + y_54 + y_55 + y_63 + y_64 - z_698 >= 0
 c700: y_4 + y_6 + y_32 + y_90 - z_699 >= 0
 c701: y_18 + y_21 + y_36 + y_41 + y_47 + y_94 - z_700 >= 0
 c702: y_25 + y_29 + y_35 + y_40 + y_77 + y_87 + y_92 - z_701 >= 0
 c703: y_3 + y_5 + y_19 + y_33 + y_34 + y_38 + y_44 + y_48 + y_61 + y_90 - z_702
        >= 0
 c704: y_7 + y_23 + y_31 + y_37 + y_51 + y_62 + y_89 + y_98 + y_99 - z_703 >= 0
 c705: y_16 + y_17 + y_39 + y_53 + y_54 + y_58 + y_63 + y_64 + y_91 - z_704 >= 
       0
 c706: y_16 + y_40 + y_54 + y_66 + y_87 + y_92 - z_705 >= 0
 c707: y_11 + y_43 + y_52 + y_59 + y_67 + y_68 + y_69 + y_97 - z_706 >= 0
 c708: y_16 + y_39 + y_40 + y_54 + y_55 + y_66 + y_87 + y_92 - z_707 >= 0
 c709: y_1 + y_7 + y_23 + y_31 + y_49 + y_51 + y_89 + y_98 + y_99 - z_708 >= 0
 c710: y_13 - z_709 >= 0
 c711: y_13 - z_710 >= 0
 c712: y_10 + y_13 + y_28 + y_60 + y_72 + y_76 + y_78 + y_81 - z_711 >= 0
 c713: y_2 + y_14 + y_82 + y_83 + y_85 - z_712 >= 0
 c714: y_8 + y_17 + y_75 + y_80 + y_96 - z_713 >= 0
 c715: y_18 + y_21 + y_36 + y_41 + y_47 + y_94 - z_714 >= 0
 c716: y_11 + y_24 + y_30 + y_43 + y_52 + y_59 + y_67 + y_68 + y_69 + y_70
       - z_715 >= 0
 c717: y_31 + y_37 + y_89 + y_99 - z_716 >= 0
 c718: y_0 + y_14 + y_27 + y_42 + y_82 - z_717 >= 0
 c719: y_15 + y_18 + y_21 + y_33 + y_36 + y_41 + y_47 + y_48 + y_61 + y_79
       + y_95 - z_718 >= 0
 c720: y_13 + y_28 + y_60 + y_76 - z_719 >= 0
 c721: y_3 + y_19 + y_21 + y_30 + y_38 + y_43 + y_48 + y_52 + y_59 + y_94
       - z_720 >= 0
 c722: y_4 + y_12 + y_22 + y_32 + y_88 - z_721 >= 0
 c723: y_23 + y_46 + y_49 + y_74 + y_95 - z_722 >= 0
 c724: y_17 + y_39 + y_53 + y_58 + y_63 + y_91 - z_723 >= 0
 c725: y_1 + y_7 + y_23 + y_31 + y_51 + y_89 + y_98 + y_99 - z_724 >= 0
 c726: y_25 + y_29 + y_35 + y_77 + y_87 + y_92 - z_725 >= 0
 c727: y_37 + y_45 + y_73 + y_89 + y_99 - z_726 >= 0
 c728: y_11 + y_19 + y_38 + y_43 + y_52 + y_59 + y_67 + y_68 + y_69 - z_727 >= 
       0
 c729: y_1 + y_7 + y_23 + y_31 + y_51 + y_73 + y_89 + y_98 + y_99 - z_728 >= 0
 c730: y_50 + y_56 + y_66 - z_729 >= 0
 c731: y_37 + y_45 + y_73 + y_96 - z_730 >= 0
 c732: y_11 + y_26 + y_43 + y_52 + y_59 + y_67 + y_68 + y_69 + y_97 - z_731 >= 
       0
 c733: y_25 + y_29 + y_35 + y_50 + y_56 + y_77 - z_732 >= 0
 c734: y_11 + y_24 + y_43 + y_52 + y_59 + y_67 + y_68 + y_69 + y_70 + y_86
       + y_97 - z_733 >= 0
 c735: y_2 + y_14 + y_27 + y_82 - z_734 >= 0
 c736: y_2 + y_14 + y_27 + y_42 + y_55 + y_82 + y_83 - z_735 >= 0
 c737: y_13 + y_57 + y_60 + y_72 + y_76 + y_78 + y_81 - z_736 >= 0
 c738: y_1 + y_8 + y_46 + y_49 + y_74 + y_75 + y_80 + y_95 - z_737 >= 0
 c739: y_10 + y_12 + y_57 + y_72 + y_78 + y_88 - z_738 >= 0
 c740: y_21 + y_30 + y_36 + y_41 + y_43 + y_47 + y_94 - z_739 >= 0
 c741: y_11 + y_19 + y_30 + y_43 + y_52 + y_59 + y_94 - z_740 >= 0
 c742: y_2 + y_14 + y_82 + y_83 + y_84 + y_85 - z_741 >= 0
 c743: y_16 + y_25 + y_40 + y_50 + y_54 + y_66 + y_77 + y_87 + y_92 - z_742 >= 
       0
 c744: y_27 + y_45 - z_743 >= 0
 c745: y_71 - z_744 >= 0
 c746: y_1 + y_23 + y_46 + y_49 + y_73 + y_75 + y_98 + y_99 - z_745 >= 0
 c747: y_11 + y_24 + y_43 + y_52 + y_59 + y_68 + y_70 + y_86 - z_746 >= 0
 c748: y_17 + y_53 + y_58 + y_63 + y_91 - z_747 >= 0
 c749: y_31 + y_37 + y_89 - z_748 >= 0
 c750: y_18 + y_21 + y_30 + y_36 + y_41 + y_47 + y_94 - z_749 >= 0
 c751: y_10 + y_72 + y_76 + y_78 + y_81 - z_750 >= 0
 c752: y_13 + y_57 + y_65 + y_72 - z_751 >= 0
 c753: y_15 + y_18 + y_21 + y_36 + y_41 + y_47 + y_48 + y_79 - z_752 >= 0
 c754: y_9 + y_71 - z_753 >= 0
 c755: y_12 + y_22 + y_57 + y_65 + y_72 + y_88 - z_754 >= 0
 c756: y_6 + y_58 + y_90 + y_91 - z_755 >= 0
 c757: y_4 + y_12 + y_22 + y_32 + y_88 - z_756 >= 0
 c758: y_8 + y_15 + y_20 + y_46 + y_49 + y_61 + y_74 + y_75 + y_80 + y_93 + y_95
       - z_757 >= 0
 c759: y_5 + y_8 + y_17 + y_34 + y_91 - z_758 >= 0
 c760: y_4 + y_6 + y_26 + y_32 + y_38 + y_44 + y_90 - z_759 >= 0
 c761: y_13 + y_28 + y_60 + y_76 + y_81 - z_760 >= 0
 c762: y_25 + y_29 + y_35 + y_50 + y_56 + y_77 + y_87 - z_761 >= 0
 c763: y_2 + y_82 + y_83 + y_84 + y_85 - z_762 >= 0
 c764: y_46 + y_49 + y_74 + y_95 - z_763 >= 0
 c765: y_7 + y_23 + y_51 + y_98 - z_764 >= 0
 c766: y_7 + y_23 + y_31 + y_51 + y_62 + y_89 + y_98 + y_99 - z_765 >= 0
 c767: y_13 + y_65 + y_72 - z_766 >= 0
 c768: y_9 + y_11 + y_26 + y_67 + y_68 + y_69 + y_97 - z_767 >= 0
 c769: y_10 + y_13 + y_28 + y_60 + y_76 + y_78 + y_81 - z_768 >= 0
 c770: y_22 + y_57 + y_65 + y_72 + y_88 - z_769 >= 0
 c771: y_5 + y_20 + y_33 + y_34 + y_44 + y_61 + y_80 + y_93 - z_770 >= 0
 c772: y_1 + y_8 + y_73 + y_75 + y_96 - z_771 >= 0
 c773: y_10 + y_12 + y_57 + y_72 + y_88 - z_772 >= 0
 c774: y_5 + y_8 + y_15 + y_20 + y_34 + y_61 + y_75 + y_79 + y_80 + y_93 - z_773
        >= 0
 c775: y_7 + y_23 + y_31 + y_37 + y_51 + y_62 + y_89 + y_98 + y_99 - z_774 >= 0
 c776: y_21 + y_30 + y_36 + y_41 + y_43 + y_47 + y_94 - z_775 >= 0
 c777: y_1 + y_7 + y_31 + y_37 + y_73 + y_89 + y_98 + y_99 - z_776 >= 0
 c778: y_11 + y_24 + y_52 + y_59 + y_67 + y_68 + y_69 + y_70 + y_86 + y_97
       - z_777 >= 0
 c779: y_1 + y_31 + y_37 + y_73 + y_89 + y_99 - z_778 >= 0
 c780: y_1 + y_8 + y_73 + y_75 + y_96 - z_779 >= 0
 c781: y_8 + y_73 + y_75 + y_96 - z_780 >= 0
 c782: y_18 + y_46 + y_49 + y_74 + y_95 - z_781 >= 0
 c783: y_1 + y_37 + y_73 + y_96 - z_782 >= 0
 c784: y_1 + y_8 + y_46 + y_49 + y_74 + y_75 + y_80 + y_95 - z_783 >= 0
 c785: y_1 + y_7 + y_23 + y_31 + y_49 + y_51 + y_89 + y_98 + y_99 - z_784 >= 0
 c786: y_10 + y_12 + y_57 + y_72 + y_78 + y_88 - z_785 >= 0
 c787: y_15 + y_20 + y_41 + y_46 + y_49 + y_61 + y_75 + y_79 + y_80 + y_93
       + y_95 - z_786 >= 0
 c788: y_97 - z_787 >= 0
 c789: y_4 + y_9 + y_26 + y_32 + y_71 - z_788 >= 0
 c790: y_25 + y_29 + y_50 + y_56 + y_77 - z_789 >= 0
 c791: y_3 + y_5 + y_19 + y_20 + y_33 + y_34 + y_38 + y_44 + y_48 + y_61 + y_79
       + y_93 - z_790 >= 0
 c792: y_10 + y_12 + y_57 + y_72 + y_78 + y_81 + y_88 - z_791 >= 0
 c793: y_25 + y_29 + y_35 + y_50 + y_56 + y_66 + y_77 + y_87 - z_792 >= 0
 c794: y_12 + y_71 + y_88 - z_793 >= 0
 c795: y_1 + y_7 + y_23 + y_31 + y_37 + y_51 + y_62 + y_89 + y_98 + y_99 - z_794
        >= 0
 c796: y_9 + y_26 + y_67 + y_69 - z_795 >= 0
 c797: y_5 + y_15 + y_20 + y_33 + y_34 + y_41 + y_48 + y_61 + y_79 + y_80 + y_93
       - z_796 >= 0
 c798: y_16 + y_39 + y_40 + y_53 + y_54 + y_63 + y_66 + y_87 - z_797 >= 0
 c799: y_50 + y_56 + y_66 - z_798 >= 0
 c800: y_10 + y_12 + y_57 + y_72 + y_78 + y_88 - z_799 >= 0
 c801: y_22 + y_57 + y_65 + y_72 + y_78 + y_88 - z_800 >= 0
 c802: y_8 + y_15 + y_20 + y_34 + y_46 + y_61 + y_75 + y_79 + y_80 + y_93 + y_95
       - z_801 >= 0
 c803: y_9 + y_26 + y_71 - z_802 >= 0
 c804: y_50 + y_56 + y_66 - z_803 >= 0
 c805: y_11 + y_24 + y_43 + y_52 + y_59 + y_67 + y_68 + y_69 + y_70 - z_804 >= 
       0
 c806: y_4 + y_5 + y_6 + y_32 + y_90 - z_805 >= 0
 c807: y_17 + y_39 + y_53 + y_58 + y_63 + y_91 - z_806 >= 0
 c808: y_2 + y_40 + y_83 + y_85 + y_92 - z_807 >= 0
 c809: y_46 + y_49 + y_74 + y_95 - z_808 >= 0
 c810: y_5 + y_17 + y_34 + y_58 + y_91 - z_809 >= 0
 c811: y_1 + y_8 + y_73 + y_75 + y_96 - z_810 >= 0
 c812: y_22 + y_57 + y_65 + y_72 + y_78 + y_88 - z_811 >= 0
 c813: y_3 + y_15 + y_20 + y_21 + y_33 + y_36 + y_41 + y_47 + y_48 + y_61 + y_79
       + y_80 + y_93 - z_812 >= 0
 c814: y_15 + y_18 + y_36 + y_41 + y_46 + y_47 + y_49 + y_74 + y_79 + y_95
       - z_813 >= 0
 c815: y_9 + y_11 + y_26 + y_67 + y_68 + y_69 + y_97 - z_814 >= 0
 c816: y_12 + y_22 + y_57 + y_65 + y_72 + y_88 - z_815 >= 0
 c817: y_31 + y_37 + y_89 + y_99 - z_816 >= 0
 c818: y_13 + y_28 + y_60 + y_76 + y_81 - z_817 >= 0
 c819: y_4 + y_6 + y_32 + y_44 + y_90 - z_818 >= 0
 c820: y_4 + y_6 + y_22 + y_32 + y_90 - z_819 >= 0
 c821: y_3 + y_5 + y_19 + y_20 + y_33 + y_34 + y_38 + y_44 + y_48 + y_61 + y_79
       + y_93 - z_820 >= 0
 c822: y_28 + y_60 + y_76 - z_821 >= 0
 c823: y_11 + y_19 + y_30 + y_38 + y_43 + y_52 + y_59 + y_67 + y_68 + y_69
       - z_822 >= 0
 c824: y_11 + y_24 + y_43 + y_52 + y_59 + y_67 + y_68 + y_69 + y_70 - z_823 >= 
       0
 c825: y_1 + y_8 + y_73 + y_75 + y_96 - z_824 >= 0
 c826: y_4 + y_5 + y_6 + y_32 + y_90 - z_825 >= 0
 c827: y_4 + y_5 + y_6 + y_32 + y_44 + y_90 - z_826 >= 0
 c828: y_1 + y_23 + y_31 + y_46 + y_49 + y_73 + y_89 + y_98 + y_99 - z_827 >= 0
 c829: y_22 + y_50 + y_56 - z_828 >= 0
 c830: y_17 + y_53 + y_96 - z_829 >= 0
 c831: y_24 + y_70 + y_86 - z_830 >= 0
 c832: y_7 + y_23 + y_31 + y_51 + y_62 + y_98 + y_99 - z_831 >= 0
 c833: y_23 + y_46 + y_49 + y_74 + y_98 - z_832 >= 0
 c834: y_13 + y_28 + y_60 + y_76 + y_81 - z_833 >= 0
 c835: y_16 + y_50 + y_54 + y_56 + y_58 + y_66 - z_834 >= 0
 c836: y_15 + y_18 + y_36 + y_41 + y_46 + y_47 + y_49 + y_74 + y_79 + y_95
       - z_835 >= 0
 c837: y_9 + y_71 - z_836 >= 0
 c838: y_2 + y_14 + y_27 + y_42 + y_82 - z_837 >= 0
 c839: y_25 + y_29 + y_35 + y_77 - z_838 >= 0
 c840: y_10 + y_13 + y_57 + y_60 + y_72 + y_76 + y_78 + y_81 - z_839 >= 0
 c841: y_17 + y_96 - z_840 >= 0
 c842: y_40 + y_54 + y_66 + y_87 + y_92 - z_841 >= 0
 c843: y_12 + y_71 + y_88 - z_842 >= 0
 c844: y_45 - z_843 >= 0
 c845: y_1 + y_73 + y_96 + y_99 - z_844 >= 0
 c846: y_11 + y_52 + y_67 + y_68 + y_69 + y_86 + y_97 - z_845 >= 0
 c847: y_23 + y_46 + y_49 + y_74 + y_75 + y_95 - z_846 >= 0
 c848: y_0 + y_27 + y_39 + y_42 + y_53 + y_55 + y_63 + y_64 - z_847 >= 0
 c849: y_1 + y_31 + y_37 + y_73 + y_89 + y_99 - z_848 >= 0
 c850: y_50 + y_56 + y_58 - z_849 >= 0
 c851: y_24 + y_52 + y_59 + y_70 + y_86 - z_850 >= 0
 c852: y_13 + y_57 + y_60 + y_65 + y_72 - z_851 >= 0
 c853: y_16 + y_25 + y_35 + y_40 + y_50 + y_54 + y_56 + y_66 + y_77 + y_87
       + y_92 - z_852 >= 0
 c854: y_18 + y_21 + y_36 + y_41 + y_47 + y_94 - z_853 >= 0
 c855: y_4 + y_6 + y_9 + y_26 + y_32 + y_90 - z_854 >= 0
 c856: y_13 + y_28 + y_60 + y_76 - z_855 >= 0
 c857: y_11 + y_24 + y_52 + y_67 + y_68 + y_69 + y_70 + y_86 + y_97 - z_856 >= 
       0
 c858: y_13 + y_57 + y_60 + y_65 + y_72 + y_76 + y_78 + y_81 - z_857 >= 0
 c859: y_57 + y_65 + y_72 - z_858 >= 0
 c860: y_40 + y_92 - z_859 >= 0
 c861: y_1 + y_31 + y_37 + y_73 + y_89 + y_99 - z_860 >= 0
 c862: y_45 + y_96 - z_861 >= 0
 c863: y_5 + y_8 + y_17 + y_34 + y_96 - z_862 >= 0
 c864: y_0 + y_27 - z_863 >= 0
 c865: y_6 + y_22 - z_864 >= 0
 c866: y_0 + y_53 + y_63 + y_64 - z_865 >= 0
 c867: y_29 + y_35 + y_77 - z_866 >= 0
 c868: y_18 + y_46 + y_49 + y_74 + y_95 - z_867 >= 0
 c869: y_13 + y_28 + y_60 + y_76 - z_868 >= 0
 c870: y_0 + y_27 - z_869 >= 0
 c871: y_25 + y_29 + y_35 + y_40 + y_77 + y_87 + y_92 - z_870 >= 0
 c872: y_5 + y_33 + y_34 + y_44 + y_61 + y_90 + y_93 - z_871 >= 0
 c873: y_37 + y_45 + y_73 + y_96 - z_872 >= 0
 c874: y_2 + y_40 + y_83 + y_85 - z_873 >= 0
 c875: y_0 + y_96 - z_874 >= 0
 c876: y_9 + y_11 + y_19 + y_26 + y_38 + y_67 + y_68 + y_69 - z_875 >= 0
 c877: y_13 - z_876 >= 0
 c878: y_3 + y_11 + y_19 + y_30 + y_38 + y_43 + y_52 + y_59 + y_68 + y_69
       - z_877 >= 0
 c879: y_16 + y_40 + y_54 + y_66 + y_87 + y_92 - z_878 >= 0
 c880: - z_879 >= 0
 c881: y_25 + y_29 + y_35 + y_40 + y_77 + y_87 + y_92 - z_880 >= 0
 c882: y_18 + y_21 + y_36 + y_41 + y_47 - z_881 >= 0
 c883: y_13 + y_28 + y_60 + y_76 + y_78 + y_81 - z_882 >= 0
 c884: y_2 + y_14 + y_27 + y_82 - z_883 >= 0
 c885: y_11 + y_24 + y_30 + y_43 + y_52 + y_59 + y_68 + y_70 - z_884 >= 0
 c886: y_1 + y_8 + y_46 + y_73 + y_75 + y_80 + y_96 - z_885 >= 0
 c887: y_2 + y_14 + y_82 + y_83 + y_84 + y_85 - z_886 >= 0
 c888: y_3 + y_15 + y_19 + y_21 + y_33 + y_36 + y_41 + y_47 + y_48 + y_61 + y_79
       - z_887 >= 0
 c889: y_40 + y_42 + y_54 + y_55 + y_92 - z_888 >= 0
 c890: y_45 - z_889 >= 0
 c891: y_40 + y_55 + y_87 + y_92 - z_890 >= 0
 c892: y_24 + y_30 + y_43 + y_52 + y_59 + y_70 + y_94 - z_891 >= 0
 c893: y_4 + y_6 + y_12 + y_22 + y_32 + y_88 - z_892 >= 0
 c894: y_1 + y_7 + y_23 + y_31 + y_49 + y_51 + y_89 + y_98 + y_99 - z_893 >= 0
 c895: y_25 + y_35 + y_40 + y_77 + y_87 + y_92 - z_894 >= 0
 c896: y_2 + y_14 + y_27 + y_42 + y_82 + y_83 - z_895 >= 0
 c897: y_12 + y_22 + y_57 + y_88 - z_896 >= 0
 c898: y_22 + y_57 + y_65 + y_72 - z_897 >= 0
 c899: y_16 + y_25 + y_50 + y_54 + y_56 + y_66 + y_77 + y_87 - z_898 >= 0
 c900: y_5 + y_8 + y_20 + y_34 + y_61 + y_80 + y_93 - z_899 >= 0
 c901: y_10 + y_13 + y_57 + y_60 + y_72 + y_76 + y_78 + y_81 - z_900 >= 0
 c902: y_25 + y_29 + y_35 + y_77 - z_901 >= 0
 c903: y_3 + y_19 + y_21 + y_33 + y_38 + y_43 + y_48 - z_902 >= 0
 c904: y_83 + y_84 + y_85 - z_903 >= 0
 c905: y_11 + y_24 + y_52 + y_59 + y_68 + y_70 + y_86 + y_97 - z_904 >= 0
 c906: y_8 + y_15 + y_20 + y_34 + y_46 + y_61 + y_75 + y_79 + y_80 + y_93 + y_95
       - z_905 >= 0
 c907: y_11 + y_52 + y_67 + y_68 + y_69 + y_97 - z_906 >= 0
 c908: y_0 + y_16 + y_39 + y_42 + y_54 + y_55 + y_63 + y_64 - z_907 >= 0
 c909: y_4 + y_6 + y_9 + y_26 + y_32 + y_90 - z_908 >= 0
 c910: y_11 + y_30 + y_43 + y_52 + y_59 + y_68 + y_70 - z_909 >= 0
 c911: y_40 + y_87 + y_92 - z_910 >= 0
 c912: y_11 + y_24 + y_43 + y_52 + y_59 + y_67 + y_68 + y_69 + y_70 + y_97
       - z_911 >= 0
 c913: y_16 + y_39 + y_53 + y_54 + y_58 + y_66 + y_91 - z_912 >= 0
 c914: y_13 + y_28 + y_60 + y_76 + y_81 - z_913 >= 0
 c915: y_5 + y_17 + y_34 - z_914 >= 0
 c916: y_8 + y_73 + y_96 - z_915 >= 0
 c917: y_40 + y_83 + y_85 + y_92 - z_916 >= 0
 c918: y_40 + y_87 + y_92 - z_917 >= 0
 c919: y_45 - z_918 >= 0
 c920: y_13 + y_28 + y_60 + y_76 - z_919 >= 0
 c921: y_3 + y_5 + y_15 + y_20 + y_33 + y_34 + y_44 + y_48 + y_61 + y_79 + y_80
       + y_93 - z_920 >= 0
 c922: y_0 + y_96 - z_921 >= 0
 c923: y_5 + y_17 + y_34 + y_91 - z_922 >= 0
 c924: y_1 + y_31 + y_37 + y_73 + y_89 + y_96 + y_99 - z_923 >= 0
 c925: y_13 + y_28 + y_60 + y_76 - z_924 >= 0
 c926: y_8 + y_15 + y_20 + y_46 + y_49 + y_61 + y_75 + y_80 + y_93 + y_95
       - z_925 >= 0
 c927: y_11 + y_26 + y_52 + y_67 + y_68 + y_69 + y_97 - z_926 >= 0
 c928: y_8 + y_34 + y_75 + y_80 + y_96 - z_927 >= 0
 c929: y_9 + y_11 + y_26 + y_67 + y_68 + y_69 + y_97 - z_928 >= 0
 c930: y_8 + y_73 + y_75 + y_96 - z_929 >= 0
 c931: y_4 + y_6 + y_22 + y_32 + y_90 - z_930 >= 0
 c932: y_65 - z_931 >= 0
 c933: y_18 + y_46 + y_49 + y_74 + y_95 - z_932 >= 0
 c934: y_4 + y_9 + y_26 + y_32 - z_933 >= 0
 c935: y_16 + y_39 + y_50 + y_53 + y_54 + y_58 + y_63 + y_66 + y_91 - z_934 >= 
       0
 c936: y_25 + y_35 + y_77 + y_92 - z_935 >= 0
 c937: y_12 + y_71 + y_88 - z_936 >= 0
 c938: y_5 + y_17 + y_34 + y_91 - z_937 >= 0
 c939: y_14 + y_27 + y_82 - z_938 >= 0
 c940: y_65 - z_939 >= 0
 c941: y_21 + y_30 + y_36 + y_41 + y_43 + y_47 + y_48 + y_94 - z_940 >= 0
 c942: y_0 + y_45 - z_941 >= 0
 c943: y_17 + y_96 - z_942 >= 0
 c944: y_11 + y_19 + y_26 + y_38 + y_43 + y_52 + y_59 + y_67 + y_68 + y_69
       + y_97 - z_943 >= 0
 c945: y_3 + y_19 + y_21 + y_30 + y_33 + y_36 + y_41 + y_43 + y_47 + y_48 + y_94
       - z_944 >= 0
 c946: y_5 + y_20 + y_33 + y_34 + y_44 + y_61 + y_90 + y_93 - z_945 >= 0
 c947: y_3 + y_19 + y_33 + y_38 + y_44 + y_48 - z_946 >= 0
 c948: y_1 + y_23 + y_46 + y_49 + y_74 + y_98 + y_99 - z_947 >= 0
 c949: y_23 + y_46 + y_49 + y_74 + y_98 - z_948 >= 0
 c950: y_16 + y_50 + y_54 + y_56 + y_66 - z_949 >= 0
 c951: y_65 - z_950 >= 0
 c952: y_22 + y_57 + y_65 + y_88 - z_951 >= 0
 c953: y_15 + y_20 + y_41 + y_46 + y_48 + y_61 + y_75 + y_79 + y_80 + y_93
       + y_95 - z_952 >= 0
 c954: y_0 + y_45 - z_953 >= 0
 c955: y_13 + y_57 + y_60 + y_72 + y_76 + y_78 + y_81 - z_954 >= 0
 c956: y_17 + y_53 + y_58 + y_63 + y_91 - z_955 >= 0
 c957: y_9 + y_26 + y_32 + y_71 - z_956 >= 0
 c958: y_11 + y_68 + y_86 + y_97 - z_957 >= 0
 c959: y_10 + y_13 + y_57 + y_60 + y_72 + y_76 + y_78 + y_81 - z_958 >= 0
 c960: y_17 + y_39 + y_53 + y_58 + y_63 + y_91 - z_959 >= 0
 c961: y_13 + y_28 + y_60 + y_76 + y_81 - z_960 >= 0
 c962: y_12 + y_57 + y_88 - z_961 >= 0
 c963: y_1 + y_23 + y_31 + y_46 + y_49 + y_98 + y_99 - z_962 >= 0
 c964: y_4 + y_6 + y_32 + y_90 - z_963 >= 0
 c965: y_1 + y_23 + y_31 + y_37 + y_73 + y_89 + y_98 + y_99 - z_964 >= 0
 c966: y_40 + y_83 + y_85 + y_92 - z_965 >= 0
 c967: y_2 + y_83 + y_84 + y_85 - z_966 >= 0
 c968: y_58 + y_91 - z_967 >= 0
 c969: y_0 + y_27 + y_42 + y_55 + y_64 - z_968 >= 0
 c970: y_83 + y_84 + y_85 - z_969 >= 0
 c971: y_5 + y_8 + y_17 + y_34 + y_91 - z_970 >= 0
 c972: y_5 + y_8 + y_15 + y_20 + y_34 + y_61 + y_75 + y_79 + y_80 + y_93 - z_971
        >= 0
 c973: y_4 + y_9 + y_26 + y_32 + y_71 - z_972 >= 0
 c974: y_16 + y_50 + y_54 + y_56 + y_66 + y_87 - z_973 >= 0
 c975: y_40 + y_85 + y_92 - z_974 >= 0
 c976: y_1 + y_8 + y_46 + y_49 + y_73 + y_75 - z_975 >= 0
 c977: y_11 + y_43 + y_52 + y_59 + y_67 + y_68 + y_69 + y_97 - z_976 >= 0
 c978: y_11 + y_24 + y_30 + y_43 + y_52 + y_59 + y_68 + y_70 - z_977 >= 0
 c979: y_17 + y_53 + y_63 + y_64 + y_91 - z_978 >= 0
 c980: y_4 + y_5 + y_6 + y_90 - z_979 >= 0
 c981: y_57 + y_65 + y_72 - z_980 >= 0
 c982: y_16 + y_40 + y_54 + y_66 + y_87 + y_92 - z_981 >= 0
 c983: y_13 + y_57 + y_65 + y_72 - z_982 >= 0
 c984: y_25 + y_40 + y_66 + y_77 + y_87 + y_92 - z_983 >= 0
 c985: y_5 + y_17 + y_34 + y_91 - z_984 >= 0
 c986: y_13 + y_57 + y_60 + y_72 + y_76 + y_78 + y_81 - z_985 >= 0
 c987: y_9 + y_11 + y_19 + y_26 + y_38 + y_67 + y_68 + y_69 + y_97 - z_986 >= 0
 c988: y_0 + y_2 + y_27 + y_42 + y_55 - z_987 >= 0
 c989: y_6 + y_12 + y_22 + y_32 + y_88 - z_988 >= 0
 c990: y_25 + y_29 + y_35 + y_77 - z_989 >= 0
 c991: y_16 + y_50 + y_54 + y_56 + y_58 + y_66 + y_87 - z_990 >= 0
 c992: y_37 + y_73 + y_96 - z_991 >= 0
 c993: y_13 + y_28 + y_60 + y_76 - z_992 >= 0
 c994: y_8 + y_15 + y_20 + y_34 + y_46 + y_61 + y_75 + y_79 + y_80 + y_93 + y_95
       - z_993 >= 0
 c995: y_15 + y_18 + y_21 + y_36 + y_41 + y_47 + y_95 - z_994 >= 0
 c996: y_3 + y_19 + y_21 + y_33 + y_38 + y_43 + y_44 + y_48 - z_995 >= 0
 c997: y_24 + y_30 + y_43 + y_52 + y_59 + y_70 + y_94 - z_996 >= 0
 c998: y_27 - z_997 >= 0
 c999: y_9 + y_26 + y_67 + y_69 - z_998 >= 0
 c1000: y_5 + y_8 + y_20 + y_34 + y_61 + y_75 + y_80 + y_93 - z_999 >= 0
 c1001: y_3 + y_11 + y_19 + y_26 + y_38 + y_67 + y_68 + y_69 - z_1000 >= 0
 c1002: y_0 + y_27 + y_42 + y_55 + y_64 - z_1001 >= 0
 c1003: y_3 + y_5 + y_15 + y_20 + y_33 + y_34 + y_41 + y_44 + y_48 + y_61 + y_79
        + y_80 + y_93 - z_1002 >= 0
 c1004: y_1 + y_8 + y_46 + y_73 + y_75 + y_80 + y_93 + y_96 - z_1003 >= 0
 c1005: y_10 + y_13 + y_57 + y_60 + y_72 + y_76 + y_78 + y_81 - z_1004 >= 0
 c1006: y_1 + y_8 + y_73 + y_96 - z_1005 >= 0
 c1007: y_5 + y_17 + y_34 + y_91 - z_1006 >= 0
 c1008: y_4 + y_6 + y_32 + y_38 + y_44 + y_90 - z_1007 >= 0
 c1009: y_15 + y_18 + y_20 + y_36 + y_41 + y_46 + y_47 + y_49 + y_74 + y_79
        + y_80 + y_93 + y_95 - z_1008 >= 0
 c1010: y_25 + y_29 + y_35 + y_77 - z_1009 >= 0
 c1011: y_1 + y_31 + y_37 + y_73 + y_89 + y_99 - z_1010 >= 0
 c1012: y_83 + y_85 - z_1011 >= 0
 c1013: y_1 + y_23 + y_46 + y_49 + y_74 + y_75 + y_95 - z_1012 >= 0
 c1014: y_15 + y_18 + y_20 + y_21 + y_33 + y_36 + y_41 + y_47 + y_48 + y_61
        + y_79 + y_93 + y_95 - z_1013 >= 0
 c1015: y_25 + y_29 + y_35 + y_77 - z_1014 >= 0
 c1016: y_5 + y_8 + y_20 + y_34 + y_61 + y_75 + y_80 + y_93 - z_1015 >= 0
 c1017: y_0 + y_39 + y_42 + y_53 + y_55 + y_63 + y_64 - z_1016 >= 0
 c1018: y_10 + y_13 + y_57 + y_60 + y_72 + y_76 + y_78 + y_81 - z_1017 >= 0
 c1019: y_9 + y_11 + y_19 + y_26 + y_38 + y_67 + y_68 + y_69 + y_97 - z_1018
         >= 0
 c1020: y_0 + y_2 + y_14 + y_27 + y_42 + y_82 - z_1019 >= 0
 c1021: y_37 + y_45 + y_89 - z_1020 >= 0
 c1022: y_45 - z_1021 >= 0
 c1023: y_12 + y_22 + y_57 + y_65 + y_72 + y_88 - z_1022 >= 0
 c1024: y_11 + y_24 + y_43 + y_52 + y_59 + y_67 + y_68 + y_69 + y_70 + y_86
        + y_97 - z_1023 >= 0
 c1025: y_4 + y_9 + y_12 + y_32 + y_88 - z_1024 >= 0
 c1026: y_2 + y_83 + y_84 + y_85 - z_1025 >= 0
 c1027: y_3 + y_11 + y_19 + y_26 + y_38 + y_43 + y_67 + y_68 + y_69 - z_1026
         >= 0
 c1028: y_11 + y_24 + y_30 + y_43 + y_52 + y_59 + y_68 + y_70 + y_86 - z_1027
         >= 0
 c1029: y_5 + y_17 + y_34 + y_91 - z_1028 >= 0
 c1030: y_40 + y_83 + y_85 + y_92 - z_1029 >= 0
 c1031: y_16 + y_39 + y_53 + y_54 + y_58 + y_63 + y_66 + y_91 - z_1030 >= 0
 c1032: y_0 + y_27 + y_39 + y_42 + y_55 + y_63 + y_64 - z_1031 >= 0
 c1033: y_1 + y_23 + y_31 + y_46 + y_49 + y_73 + y_98 + y_99 - z_1032 >= 0
 c1034: y_15 + y_18 + y_36 + y_41 + y_46 + y_47 + y_49 + y_74 + y_95 - z_1033
         >= 0
 c1035: y_17 + y_53 + y_58 + y_91 - z_1034 >= 0
 c1036: y_4 + y_6 + y_9 + y_26 + y_32 + y_90 - z_1035 >= 0
 c1037: y_22 + y_57 + y_65 + y_72 - z_1036 >= 0
 c1038: y_71 - z_1037 >= 0
 c1039: y_25 + y_29 + y_35 + y_40 + y_50 + y_66 + y_77 + y_87 + y_92 - z_1038
         >= 0
 c1040: y_3 + y_19 + y_33 + y_38 + y_43 + y_44 + y_48 - z_1039 >= 0
 c1041: y_16 + y_40 + y_54 + y_66 + y_87 + y_92 - z_1040 >= 0
 c1042: y_1 + y_7 + y_23 + y_31 + y_51 + y_73 + y_89 + y_98 + y_99 - z_1041 >= 
        0
 c1043: y_7 + y_31 + y_51 + y_62 + y_98 - z_1042 >= 0
 c1044: y_96 - z_1043 >= 0
 c1045: y_5 + y_17 + y_34 + y_91 - z_1044 >= 0
 c1046: y_25 + y_40 + y_66 + y_87 + y_92 - z_1045 >= 0
 c1047: y_0 + y_27 + y_42 - z_1046 >= 0
 c1048: y_5 + y_20 + y_33 + y_34 + y_44 + y_61 + y_79 + y_80 + y_93 - z_1047
         >= 0
 c1049: - z_1048 >= 0
 c1050: y_8 + y_15 + y_20 + y_46 + y_49 + y_74 + y_75 + y_80 + y_93 + y_95
        - z_1049 >= 0
 c1051: y_15 + y_18 + y_20 + y_36 + y_41 + y_46 + y_47 + y_49 + y_74 + y_79
        + y_80 + y_93 + y_95 - z_1050 >= 0
 c1052: y_3 + y_15 + y_19 + y_20 + y_21 + y_33 + y_38 + y_41 + y_44 + y_48
        + y_61 + y_79 + y_93 - z_1051 >= 0
 c1053: y_12 + y_71 + y_88 - z_1052 >= 0
 c1054: y_3 + y_19 + y_26 + y_33 + y_38 + y_44 + y_67 + y_69 - z_1053 >= 0
 c1055: y_5 + y_17 + y_34 + y_91 - z_1054 >= 0
 c1056: y_25 + y_29 + y_50 + y_56 + y_66 + y_77 + y_87 - z_1055 >= 0
 c1057: y_0 + y_27 + y_39 + y_42 + y_55 + y_63 + y_64 - z_1056 >= 0
 c1058: y_11 + y_67 + y_68 + y_69 + y_97 - z_1057 >= 0
 c1059: y_3 + y_19 + y_21 + y_33 + y_38 + y_41 + y_43 + y_47 + y_48 + y_79
        - z_1058 >= 0
 c1060: y_3 + y_19 + y_21 + y_30 + y_33 + y_38 + y_43 + y_48 + y_59 + y_94
        - z_1059 >= 0
 c1061: y_15 + y_18 + y_21 + y_36 + y_41 + y_47 + y_48 + y_79 + y_94 - z_1060
         >= 0
 c1062: y_14 + y_27 + y_82 - z_1061 >= 0
 c1063: y_4 + y_6 + y_32 + y_90 - z_1062 >= 0
 c1064: y_9 + y_71 + y_97 - z_1063 >= 0
 c1065: y_5 + y_8 + y_20 + y_34 + y_61 + y_80 + y_93 - z_1064 >= 0
 c1066: y_25 + y_29 + y_35 + y_50 + y_77 + y_87 - z_1065 >= 0
 c1067: y_15 + y_18 + y_20 + y_36 + y_41 + y_46 + y_47 + y_74 + y_79 + y_95
        - z_1066 >= 0
 c1068: y_1 + y_37 + y_45 + y_73 + y_96 - z_1067 >= 0
 c1069: y_29 + y_65 - z_1068 >= 0
 c1070: y_3 + y_15 + y_18 + y_21 + y_33 + y_36 + y_41 + y_47 + y_48 + y_79
        + y_94 - z_1069 >= 0
 c1071: y_46 + y_49 + y_74 + y_75 + y_95 - z_1070 >= 0
 c1072: y_12 + y_71 + y_88 - z_1071 >= 0
 c1073: y_13 + y_57 + y_60 + y_65 + y_72 - z_1072 >= 0
 c1074: y_4 + y_9 + y_26 + y_32 + y_71 - z_1073 >= 0
 c1075: y_71 - z_1074 >= 0
 c1076: y_6 + y_58 - z_1075 >= 0
 c1077: y_6 + y_22 + y_90 - z_1076 >= 0
 c1078: y_1 + y_8 + y_73 + y_75 + y_96 + y_99 - z_1077 >= 0
 c1079: y_1 + y_31 + y_37 + y_73 + y_89 + y_99 - z_1078 >= 0
 c1080: y_6 + y_22 + y_90 - z_1079 >= 0
 c1081: y_15 + y_18 + y_21 + y_36 + y_41 + y_47 + y_48 + y_79 - z_1080 >= 0
 c1082: y_15 + y_18 + y_21 + y_36 + y_41 + y_47 + y_95 - z_1081 >= 0
 c1083: y_0 + y_27 + y_42 + y_55 + y_63 + y_64 - z_1082 >= 0
 c1084: y_40 + y_66 + y_87 + y_92 - z_1083 >= 0
 c1085: y_25 + y_29 + y_35 + y_77 - z_1084 >= 0
 c1086: y_10 + y_13 + y_28 + y_60 + y_76 + y_78 + y_81 - z_1085 >= 0
 c1087: y_2 + y_14 + y_82 + y_83 + y_84 + y_85 - z_1086 >= 0
 c1088: y_16 + y_25 + y_29 + y_35 + y_50 + y_54 + y_56 + y_66 + y_77 + y_87
        - z_1087 >= 0
 c1089: y_3 + y_4 + y_19 + y_26 + y_33 + y_38 + y_44 + y_67 + y_69 - z_1088 >= 
        0
 c1090: y_16 + y_39 + y_40 + y_42 + y_54 + y_55 + y_63 + y_64 - z_1089 >= 0
 c1091: y_10 + y_13 + y_57 + y_60 + y_72 + y_76 + y_78 + y_81 - z_1090 >= 0
 c1092: y_17 + y_53 + y_63 + y_91 + y_96 - z_1091 >= 0
 c1093: y_17 + y_39 + y_53 + y_58 + y_63 + y_91 - z_1092 >= 0
 c1094: y_4 + y_6 + y_12 + y_22 + y_32 + y_88 + y_90 - z_1093 >= 0
 c1095: y_4 + y_9 + y_19 + y_26 + y_32 + y_38 + y_44 + y_67 + y_69 - z_1094 >= 
        0
 c1096: y_37 + y_45 + y_73 - z_1095 >= 0
 c1097: y_16 + y_39 + y_53 + y_54 + y_58 + y_63 + y_91 - z_1096 >= 0
 c1098: y_16 + y_39 + y_53 + y_54 + y_58 + y_63 + y_64 + y_91 - z_1097 >= 0
 c1099: y_0 + y_16 + y_39 + y_42 + y_54 + y_55 + y_63 + y_64 - z_1098 >= 0
 c1100: y_16 + y_25 + y_50 + y_54 + y_56 + y_66 + y_77 + y_87 - z_1099 >= 0
 c1101: y_4 + y_6 + y_32 + y_44 + y_90 - z_1100 >= 0
 c1102: y_22 + y_57 + y_65 - z_1101 >= 0
 c1103: y_1 + y_8 + y_46 + y_49 + y_74 + y_75 + y_80 + y_95 - z_1102 >= 0
 c1104: y_15 + y_18 + y_21 + y_36 + y_41 + y_47 + y_79 + y_95 - z_1103 >= 0
 c1105: y_16 + y_25 + y_50 + y_54 + y_56 + y_66 + y_77 + y_87 - z_1104 >= 0
 c1106: y_4 + y_9 + y_19 + y_26 + y_32 + y_38 + y_44 + y_67 + y_69 - z_1105 >= 
        0
 c1107: y_18 + y_21 + y_30 + y_36 + y_41 + y_47 + y_48 + y_94 - z_1106 >= 0
 c1108: y_24 + y_30 + y_43 + y_52 + y_59 + y_70 - z_1107 >= 0
 c1109: y_6 + y_22 + y_90 - z_1108 >= 0
 c1110: y_5 + y_6 + y_33 + y_34 + y_44 + y_90 - z_1109 >= 0
 c1111: y_10 + y_12 + y_57 + y_72 + y_78 + y_88 - z_1110 >= 0
 c1112: y_3 + y_4 + y_19 + y_26 + y_32 + y_33 + y_38 + y_44 + y_90 - z_1111 >= 
        0
 c1113: y_23 + y_46 + y_49 + y_74 + y_98 - z_1112 >= 0
 c1114: y_12 + y_71 - z_1113 >= 0
 c1115: y_4 + y_6 + y_9 + y_26 + y_32 + y_90 - z_1114 >= 0
 c1116: y_8 + y_17 + y_96 - z_1115 >= 0
 c1117: y_24 + y_30 + y_52 + y_59 + y_70 + y_86 - z_1116 >= 0
 c1118: y_1 + y_31 + y_37 + y_73 + y_89 + y_99 - z_1117 >= 0
 c1119: y_0 + y_27 + y_42 + y_55 + y_64 - z_1118 >= 0
 c1120: y_0 + y_16 + y_39 + y_42 + y_53 + y_55 + y_63 + y_64 - z_1119 >= 0
 c1121: y_18 + y_46 + y_49 + y_74 + y_95 - z_1120 >= 0
 c1122: y_24 + y_52 + y_70 + y_86 - z_1121 >= 0
 c1123: y_2 + y_14 + y_82 + y_83 + y_85 - z_1122 >= 0
 c1124: y_0 + y_2 + y_14 + y_27 + y_42 + y_55 + y_82 - z_1123 >= 0
 c1125: y_16 + y_39 + y_53 + y_54 + y_58 + y_63 + y_64 + y_66 - z_1124 >= 0
 c1126: y_31 + y_37 + y_45 + y_73 + y_89 + y_99 - z_1125 >= 0
 c1127: y_16 + y_39 + y_40 + y_54 + y_66 + y_87 + y_92 - z_1126 >= 0
 c1128: y_22 - z_1127 >= 0
 c1129: y_12 + y_22 + y_88 - z_1128 >= 0
 c1130: y_0 + y_27 + y_42 + y_55 + y_63 + y_64 - z_1129 >= 0
 c1131: y_45 - z_1130 >= 0
 c1132: y_13 + y_28 + y_60 + y_76 + y_78 + y_81 - z_1131 >= 0
 c1133: y_15 + y_18 + y_21 + y_36 + y_41 + y_47 + y_48 + y_79 + y_95 - z_1132
         >= 0
 c1134: y_0 + y_2 + y_27 + y_42 + y_55 + y_64 - z_1133 >= 0
 c1135: y_4 + y_6 + y_26 + y_32 + y_44 + y_90 - z_1134 >= 0
 c1136: y_46 + y_49 + y_74 + y_75 + y_95 - z_1135 >= 0
 c1137: y_5 + y_8 + y_20 + y_34 + y_61 + y_75 + y_80 + y_93 - z_1136 >= 0
 c1138: y_0 + y_27 + y_42 + y_64 - z_1137 >= 0
 c1139: y_1 + y_31 + y_37 + y_73 + y_89 + y_99 - z_1138 >= 0
 c1140: y_17 + y_96 - z_1139 >= 0
 c1141: y_9 + y_11 + y_26 + y_67 + y_68 + y_69 + y_97 - z_1140 >= 0
 c1142: y_3 + y_19 + y_26 + y_33 + y_38 + y_44 + y_67 + y_69 - z_1141 >= 0
 c1143: y_37 + y_45 - z_1142 >= 0
 c1144: y_13 + y_28 + y_60 + y_76 + y_78 + y_81 - z_1143 >= 0
 c1145: y_11 + y_24 + y_52 + y_59 + y_68 + y_70 + y_86 + y_97 - z_1144 >= 0
 c1146: y_25 + y_29 + y_35 + y_77 - z_1145 >= 0
 c1147: y_4 + y_6 + y_32 + y_90 - z_1146 >= 0
 c1148: y_11 + y_52 + y_59 + y_67 + y_68 + y_69 + y_97 - z_1147 >= 0
 c1149: y_15 + y_18 + y_21 + y_36 + y_41 + y_47 + y_79 + y_94 - z_1148 >= 0
 c1150: y_11 + y_26 + y_67 + y_68 + y_69 + y_97 - z_1149 >= 0
 c1151: y_5 + y_8 + y_15 + y_20 + y_34 + y_61 + y_75 + y_79 + y_80 + y_93 + y_95
        - z_1150 >= 0
 c1152: y_25 + y_35 + y_40 + y_77 + y_87 + y_92 - z_1151 >= 0
 c1153: y_6 + y_58 + y_90 - z_1152 >= 0
 c1154: y_16 + y_39 + y_50 + y_53 + y_54 + y_58 + y_66 + y_91 - z_1153 >= 0
 c1155: y_12 + y_22 + y_57 + y_65 + y_72 + y_88 - z_1154 >= 0
 c1156: y_0 + y_2 + y_27 + y_42 + y_55 + y_64 - z_1155 >= 0
 c1157: y_2 + y_14 + y_82 + y_83 + y_84 + y_85 - z_1156 >= 0
 c1158: y_7 + y_31 + y_51 + y_62 + y_89 - z_1157 >= 0
 c1159: y_40 + y_85 + y_92 - z_1158 >= 0
 c1160: y_7 + y_31 + y_37 + y_51 + y_62 + y_89 + y_99 - z_1159 >= 0
 c1161: y_0 + y_27 + y_45 - z_1160 >= 0
 c1162: y_0 + y_2 + y_27 + y_42 + y_55 + y_64 - z_1161 >= 0
 c1163: y_7 + y_31 + y_51 + y_62 + y_89 - z_1162 >= 0
 c1164: y_12 + y_71 + y_88 - z_1163 >= 0
 c1165: y_2 + y_14 + y_82 + y_83 + y_85 - z_1164 >= 0
 c1166: y_12 + y_88 - z_1165 >= 0
 c1167: y_1 + y_7 + y_31 + y_37 + y_51 + y_73 + y_89 + y_99 - z_1166 >= 0
 c1168: y_16 + y_39 + y_50 + y_54 + y_56 + y_58 + y_66 + y_91 - z_1167 >= 0
 c1169: - z_1168 >= 0
 c1170: y_17 + y_53 + y_63 + y_91 + y_96 - z_1169 >= 0
 c1171: y_4 + y_5 + y_6 + y_32 + y_90 - z_1170 >= 0
 c1172: y_0 + y_27 + y_42 + y_55 + y_63 + y_64 - z_1171 >= 0
 c1173: y_1 + y_8 + y_15 + y_20 + y_46 + y_49 + y_75 + y_80 + y_93 + y_95
        - z_1172 >= 0
 c1174: y_6 + y_12 + y_22 + y_88 - z_1173 >= 0
 c1175: y_0 + y_2 + y_27 + y_42 + y_55 - z_1174 >= 0
 c1176: y_3 + y_11 + y_19 + y_26 + y_38 + y_43 + y_52 + y_59 + y_67 + y_68
        + y_69 - z_1175 >= 0
 c1177: y_40 + y_92 - z_1176 >= 0
 c1178: y_11 + y_67 + y_68 + y_69 + y_97 - z_1177 >= 0
 c1179: y_2 + y_14 + y_82 + y_83 + y_84 + y_85 - z_1178 >= 0
 c1180: y_11 + y_24 + y_43 + y_52 + y_59 + y_67 + y_68 + y_69 + y_70 + y_86
        - z_1179 >= 0
 c1181: y_22 + y_57 + y_65 + y_72 - z_1180 >= 0
 c1182: y_57 + y_65 + y_72 - z_1181 >= 0
 c1183: y_11 + y_24 + y_52 + y_59 + y_67 + y_68 + y_69 + y_70 + y_86 + y_97
        - z_1182 >= 0
 c1184: y_16 + y_39 + y_53 + y_54 + y_58 + y_63 + y_66 + y_91 - z_1183 >= 0
 c1185: y_2 + y_14 + y_27 + y_42 + y_55 + y_82 + y_83 - z_1184 >= 0
 c1186: y_0 + y_2 + y_14 + y_27 + y_42 + y_55 + y_82 - z_1185 >= 0
 c1187: y_1 + y_8 + y_73 + y_75 + y_96 - z_1186 >= 0
 c1188: y_16 + y_17 + y_39 + y_53 + y_54 + y_58 + y_63 + y_64 + y_91 - z_1187
         >= 0
 c1189: y_15 + y_18 + y_21 + y_36 + y_41 + y_47 + y_79 + y_95 - z_1188 >= 0
 c1190: y_0 + y_27 + y_42 + y_55 + y_63 + y_64 - z_1189 >= 0
 c1191: y_30 + y_43 + y_52 + y_59 + y_94 - z_1190 >= 0
 c1192: y_24 + y_30 + y_43 + y_52 + y_59 + y_70 + y_86 - z_1191 >= 0
 c1193: y_10 + y_13 + y_28 + y_60 + y_76 + y_78 + y_81 - z_1192 >= 0
 c1194: y_35 + y_92 - z_1193 >= 0
 c1195: y_3 + y_11 + y_19 + y_33 + y_38 + y_43 + y_44 + y_48 + y_67 + y_69
        - z_1194 >= 0
 c1196: y_45 - z_1195 >= 0
 c1197: y_10 + y_13 + y_60 + y_72 + y_76 + y_78 + y_81 - z_1196 >= 0
 c1198: y_40 + y_55 + y_83 + y_92 - z_1197 >= 0
 c1199: y_2 + y_14 + y_27 + y_82 - z_1198 >= 0
 c1200: y_15 + y_18 + y_20 + y_36 + y_41 + y_46 + y_47 + y_49 + y_61 + y_74
        + y_79 + y_80 + y_93 + y_95 - z_1199 >= 0
 c1201: y_17 + y_53 + y_58 + y_91 - z_1200 >= 0
 c1202: y_12 + y_57 + y_65 + y_72 + y_78 + y_88 - z_1201 >= 0
 c1203: y_11 + y_24 + y_43 + y_52 + y_59 + y_67 + y_68 + y_69 + y_70 + y_97
        - z_1202 >= 0
 c1204: y_8 + y_17 + y_96 - z_1203 >= 0
 c1205: y_0 + y_42 + y_53 + y_63 + y_64 - z_1204 >= 0
 c1206: y_7 + y_51 + y_62 + y_98 - z_1205 >= 0
 c1207: y_25 + y_29 + y_35 + y_77 - z_1206 >= 0
 c1208: y_0 + y_45 - z_1207 >= 0
 c1209: y_4 + y_9 + y_26 + y_32 + y_67 - z_1208 >= 0
 c1210: y_6 + y_58 + y_91 - z_1209 >= 0
 c1211: y_22 - z_1210 >= 0
 c1212: y_71 - z_1211 >= 0
 c1213: y_8 + y_15 + y_20 + y_34 + y_41 + y_48 + y_61 + y_75 + y_79 + y_80
        + y_93 + y_95 - z_1212 >= 0
 c1214: y_17 + y_53 + y_63 + y_91 + y_96 - z_1213 >= 0
 c1215: y_10 + y_13 + y_57 + y_60 + y_72 + y_76 + y_78 + y_81 - z_1214 >= 0
 c1216: y_5 + y_6 + y_33 + y_34 + y_44 + y_90 - z_1215 >= 0
 c1217: y_17 + y_53 + y_96 - z_1216 >= 0
 c1218: y_1 + y_7 + y_31 + y_37 + y_51 + y_73 + y_89 + y_98 + y_99 - z_1217 >= 
        0
 c1219: y_4 + y_5 + y_6 + y_32 + y_44 + y_90 - z_1218 >= 0
 c1220: y_25 + y_29 + y_50 + y_56 + y_65 + y_77 - z_1219 >= 0
 c1221: y_10 + y_12 + y_88 - z_1220 >= 0
 c1222: y_4 + y_9 + y_12 + y_32 + y_71 + y_88 - z_1221 >= 0
 c1223: y_25 + y_29 + y_35 + y_50 + y_56 + y_77 - z_1222 >= 0
 c1224: y_37 + y_45 - z_1223 >= 0
 c1225: y_0 + y_17 + y_39 + y_53 + y_63 + y_64 + y_91 - z_1224 >= 0
 c1226: y_13 + y_28 + y_60 + y_76 + y_78 + y_81 - z_1225 >= 0
 c1227: y_2 + y_40 + y_83 + y_85 + y_92 - z_1226 >= 0
 c1228: y_16 + y_39 + y_53 + y_54 + y_58 + y_63 + y_66 + y_91 - z_1227 >= 0
 c1229: y_2 + y_14 + y_27 + y_42 + y_55 + y_82 + y_83 - z_1228 >= 0
 c1230: y_7 + y_23 + y_51 + y_62 + y_98 - z_1229 >= 0
 c1231: y_16 + y_50 + y_54 + y_56 + y_66 + y_87 - z_1230 >= 0
 c1232: y_16 + y_25 + y_40 + y_54 + y_66 + y_77 + y_87 + y_92 - z_1231 >= 0
 c1233: y_0 + y_45 + y_96 - z_1232 >= 0
 c1234: y_2 + y_14 + y_27 + y_82 + y_83 - z_1233 >= 0
 c1235: y_12 + y_88 - z_1234 >= 0
 c1236: y_25 + y_29 + y_50 + y_56 + y_77 - z_1235 >= 0
 c1237: y_17 + y_96 - z_1236 >= 0
 c1238: y_16 + y_25 + y_35 + y_40 + y_50 + y_54 + y_66 + y_77 + y_87 + y_92
        - z_1237 >= 0
 c1239: y_17 + y_53 + y_96 - z_1238 >= 0
 c1240: y_0 + y_27 + y_42 + y_53 + y_55 + y_63 + y_64 - z_1239 >= 0
 c1241: y_11 + y_24 + y_52 + y_68 + y_70 + y_86 + y_97 - z_1240 >= 0
 c1242: y_15 + y_20 + y_21 + y_36 + y_41 + y_46 + y_47 + y_48 + y_61 + y_75
        + y_79 + y_80 + y_93 + y_95 - z_1241 >= 0
 c1243: y_2 + y_14 + y_82 + y_83 + y_84 + y_85 - z_1242 >= 0
 c1244: y_11 + y_24 + y_30 + y_43 + y_52 + y_59 + y_67 + y_68 + y_69 + y_70
        - z_1243 >= 0
 c1245: y_29 - z_1244 >= 0
 c1246: y_1 + y_7 + y_23 + y_31 + y_51 + y_89 + y_98 + y_99 - z_1245 >= 0
 c1247: y_4 + y_6 + y_22 + y_32 + y_90 - z_1246 >= 0
 c1248: y_10 + y_13 + y_28 + y_60 + y_76 + y_78 + y_81 - z_1247 >= 0
 c1249: y_7 + y_51 + y_62 - z_1248 >= 0
 c1250: y_29 - z_1249 >= 0
 c1251: y_3 + y_19 + y_21 + y_33 + y_38 + y_41 + y_44 + y_48 + y_61 + y_79
        - z_1250 >= 0
 c1252: y_13 + y_60 + y_72 + y_76 - z_1251 >= 0
 c1253: y_3 + y_19 + y_21 + y_33 + y_38 + y_41 + y_44 + y_48 + y_79 - z_1252
         >= 0
 c1254: - z_1253 >= 0
 c1255: y_29 - z_1254 >= 0
 c1256: y_56 + y_58 - z_1255 >= 0
 c1257: y_7 + y_23 + y_31 + y_51 + y_62 + y_98 + y_99 - z_1256 >= 0
 c1258: y_11 + y_30 + y_43 + y_52 + y_59 + y_67 + y_68 + y_69 + y_70 - z_1257
         >= 0
 c1259: y_10 + y_12 + y_57 + y_88 - z_1258 >= 0
 c1260: y_0 + y_17 + y_53 + y_63 + y_64 - z_1259 >= 0
 c1261: y_4 + y_5 + y_6 + y_32 + y_44 + y_90 - z_1260 >= 0
 c1262: y_3 + y_4 + y_19 + y_33 + y_38 + y_44 + y_90 - z_1261 >= 0
 c1263: y_10 + y_12 + y_88 - z_1262 >= 0
 c1264: y_83 + y_85 + y_92 - z_1263 >= 0
 c1265: y_56 + y_65 - z_1264 >= 0
 c1266: y_9 + y_11 + y_26 + y_38 + y_67 + y_68 + y_69 + y_97 - z_1265 >= 0
 c1267: y_0 + y_27 + y_42 - z_1266 >= 0
 c1268: y_0 + y_2 + y_27 + y_42 + y_55 + y_64 - z_1267 >= 0
 c1269: y_13 + y_28 + y_60 + y_76 + y_78 + y_81 - z_1268 >= 0
 c1270: y_4 + y_6 + y_32 + y_90 - z_1269 >= 0
 c1271: y_11 + y_26 + y_38 + y_52 + y_67 + y_68 + y_69 + y_97 - z_1270 >= 0
 c1272: y_83 + y_84 + y_85 - z_1271 >= 0
 c1273: y_40 + y_92 - z_1272 >= 0
 c1274: y_1 + y_7 + y_31 + y_37 + y_51 + y_62 + y_89 + y_99 - z_1273 >= 0
 c1275: y_3 + y_5 + y_33 + y_34 + y_44 + y_61 + y_90 - z_1274 >= 0
 c1276: y_3 + y_19 + y_33 + y_38 + y_43 + y_44 + y_48 + y_69 - z_1275 >= 0
 c1277: y_4 + y_9 + y_26 + y_32 + y_38 + y_44 + y_90 - z_1276 >= 0
 c1278: y_16 + y_50 + y_56 + y_66 - z_1277 >= 0
 c1279: y_2 + y_14 + y_27 + y_82 - z_1278 >= 0
 c1280: y_22 + y_56 + y_65 - z_1279 >= 0
 c1281: y_5 + y_6 + y_58 + y_90 + y_91 - z_1280 >= 0
 c1282: y_71 - z_1281 >= 0
 c1283: y_1 + y_7 + y_23 + y_31 + y_37 + y_51 + y_73 + y_89 + y_98 + y_99
        - z_1282 >= 0
 c1284: y_92 - z_1283 >= 0
 c1285: y_7 + y_23 + y_51 + y_62 + y_98 - z_1284 >= 0
 c1286: y_25 + y_29 + y_35 + y_77 + y_87 - z_1285 >= 0
 c1287: y_0 + y_39 + y_42 + y_53 + y_55 + y_63 + y_64 - z_1286 >= 0
 c1288: y_9 + y_12 + y_71 + y_88 - z_1287 >= 0
 c1289: y_25 + y_29 + y_35 + y_77 - z_1288 >= 0
 c1290: y_3 + y_19 + y_21 + y_30 + y_33 + y_38 + y_43 + y_48 + y_59 + y_94
        - z_1289 >= 0
 c1291: y_17 + y_96 - z_1290 >= 0
 c1292: y_23 + y_46 + y_49 + y_74 + y_95 - z_1291 >= 0
 c1293: y_13 + y_57 + y_60 + y_65 + y_72 + y_76 + y_78 + y_81 - z_1292 >= 0
 c1294: y_13 + y_57 + y_60 + y_65 + y_72 + y_76 - z_1293 >= 0
 c1295: y_5 + y_6 + y_34 + y_44 + y_90 - z_1294 >= 0
 c1296: y_15 + y_18 + y_20 + y_21 + y_36 + y_41 + y_47 + y_48 + y_61 + y_79
        + y_95 - z_1295 >= 0
 c1297: y_9 + y_12 + y_71 + y_88 - z_1296 >= 0
 c1298: y_30 + y_43 + y_59 + y_94 - z_1297 >= 0
 c1299: y_21 + y_30 + y_36 + y_43 + y_59 + y_94 - z_1298 >= 0
 c1300: y_2 + y_14 + y_82 - z_1299 >= 0
 c1301: y_45 - z_1300 >= 0
 c1302: y_3 + y_19 + y_26 + y_33 + y_38 + y_44 + y_69 - z_1301 >= 0
 c1303: y_0 + y_27 + y_42 - z_1302 >= 0
 c1304: y_12 + y_22 + y_57 + y_88 - z_1303 >= 0
 c1305: y_6 + y_58 + y_90 + y_91 - z_1304 >= 0
 c1306: y_13 + y_57 + y_65 + y_72 - z_1305 >= 0
 c1307: y_24 + y_52 + y_59 + y_70 + y_86 - z_1306 >= 0
 c1308: y_10 + y_13 + y_57 + y_60 + y_72 + y_76 + y_78 + y_81 - z_1307 >= 0
 c1309: y_10 + y_12 + y_57 + y_72 + y_78 + y_88 - z_1308 >= 0
 c1310: y_4 + y_6 + y_32 + y_90 - z_1309 >= 0
 c1311: y_7 + y_31 + y_37 + y_51 + y_62 + y_89 + y_98 + y_99 - z_1310 >= 0
 c1312: y_29 - z_1311 >= 0
 c1313: y_3 + y_4 + y_19 + y_26 + y_32 + y_33 + y_38 + y_44 + y_90 - z_1312 >= 
        0
 c1314: y_9 + y_71 + y_97 - z_1313 >= 0
 c1315: y_25 + y_35 + y_77 + y_92 - z_1314 >= 0
 c1316: y_45 + y_96 - z_1315 >= 0
 c1317: y_25 + y_29 + y_35 + y_50 + y_56 + y_66 + y_77 + y_87 - z_1316 >= 0
 c1318: y_4 + y_6 + y_12 + y_22 + y_32 + y_88 - z_1317 >= 0
 c1319: y_16 + y_39 + y_53 + y_58 + y_91 - z_1318 >= 0
 c1320: y_83 + y_85 - z_1319 >= 0
 c1321: y_2 + y_83 + y_84 + y_85 - z_1320 >= 0
 c1322: y_11 + y_24 + y_30 + y_43 + y_52 + y_59 + y_68 + y_70 - z_1321 >= 0
 c1323: y_10 + y_78 + y_81 - z_1322 >= 0
 c1324: y_13 + y_28 + y_60 + y_76 + y_78 + y_81 - z_1323 >= 0
 c1325: y_17 + y_53 + y_58 + y_91 - z_1324 >= 0
 c1326: y_17 + y_53 + y_58 + y_91 - z_1325 >= 0
 c1327: y_21 + y_30 + y_36 + y_41 + y_43 + y_47 + y_94 - z_1326 >= 0
 c1328: y_5 + y_8 + y_20 + y_34 + y_61 + y_75 + y_80 + y_93 - z_1327 >= 0
 c1329: y_17 + y_34 + y_53 + y_91 - z_1328 >= 0
 c1330: y_22 + y_57 + y_65 + y_72 - z_1329 >= 0
 c1331: y_25 + y_29 + y_35 + y_40 + y_77 + y_87 + y_92 - z_1330 >= 0
 c1332: y_40 + y_83 + y_85 + y_92 - z_1331 >= 0
 c1333: y_13 - z_1332 >= 0
 c1334: y_8 + y_15 + y_20 + y_34 + y_46 + y_61 + y_75 + y_79 + y_80 + y_93
        + y_95 - z_1333 >= 0
 c1335: y_58 - z_1334 >= 0
 c1336: y_0 + y_27 + y_39 + y_42 + y_55 + y_63 + y_64 - z_1335 >= 0
 c1337: y_15 + y_18 + y_21 + y_36 + y_41 + y_47 + y_79 + y_95 - z_1336 >= 0
 c1338: y_4 + y_6 + y_9 + y_12 + y_32 + y_88 + y_90 - z_1337 >= 0
 c1339: y_12 + y_22 + y_57 + y_72 + y_88 - z_1338 >= 0
 c1340: y_8 + y_15 + y_20 + y_46 + y_49 + y_61 + y_75 + y_79 + y_80 + y_93
        + y_95 - z_1339 >= 0
 c1341: y_2 + y_14 + y_82 + y_83 + y_85 - z_1340 >= 0
 c1342: y_22 + y_56 + y_65 - z_1341 >= 0
 c1343: y_11 + y_24 + y_30 + y_43 + y_52 + y_59 + y_68 + y_70 + y_86 - z_1342
         >= 0
 c1344: y_1 + y_31 + y_37 + y_73 + y_89 + y_99 - z_1343 >= 0
 c1345: y_25 + y_29 + y_50 + y_56 + y_66 + y_77 + y_87 - z_1344 >= 0
 c1346: y_83 + y_84 + y_85 - z_1345 >= 0
 c1347: y_3 + y_19 + y_26 + y_33 + y_38 + y_44 + y_67 + y_69 - z_1346 >= 0
 c1348: y_9 + y_12 + y_32 + y_71 + y_88 - z_1347 >= 0
 c1349: y_1 + y_8 + y_73 + y_75 + y_96 - z_1348 >= 0
 c1350: y_57 + y_65 + y_72 - z_1349 >= 0
 c1351: y_13 + y_28 + y_60 + y_76 + y_81 - z_1350 >= 0
 c1352: y_5 + y_17 + y_34 + y_91 - z_1351 >= 0
 c1353: y_31 + y_37 + y_89 + y_99 - z_1352 >= 0
 c1354: y_10 + y_13 + y_60 + y_72 + y_76 + y_78 + y_81 - z_1353 >= 0
 c1355: y_9 + y_26 + y_67 + y_68 + y_69 + y_97 - z_1354 >= 0
 c1356: y_7 + y_51 + y_62 - z_1355 >= 0
 c1357: y_0 + y_27 + y_42 + y_55 + y_64 - z_1356 >= 0
 c1358: y_30 + y_43 + y_52 + y_59 + y_94 - z_1357 >= 0
 c1359: y_13 + y_60 + y_65 + y_72 + y_76 - z_1358 >= 0
 c1360: y_1 + y_8 + y_73 + y_75 + y_96 - z_1359 >= 0
 c1361: y_3 + y_19 + y_26 + y_33 + y_38 + y_44 + y_69 - z_1360 >= 0
 c1362: y_17 + y_96 - z_1361 >= 0
 c1363: y_15 + y_18 + y_20 + y_21 + y_33 + y_36 + y_41 + y_47 + y_48 + y_61
        + y_79 + y_95 - z_1362 >= 0
 c1364: y_10 + y_13 + y_60 + y_72 + y_76 + y_78 + y_81 - z_1363 >= 0
 c1365: y_16 + y_39 + y_50 + y_53 + y_54 + y_58 + y_63 + y_66 + y_87 + y_91
        - z_1364 >= 0
 c1366: y_3 + y_5 + y_33 + y_34 + y_38 + y_44 + y_90 - z_1365 >= 0
 c1367: y_3 + y_19 + y_21 + y_30 + y_33 + y_36 + y_41 + y_43 + y_47 + y_48
        + y_79 + y_94 - z_1366 >= 0
 c1368: y_12 + y_22 + y_57 + y_65 + y_72 + y_88 - z_1367 >= 0
 c1369: y_16 + y_39 + y_40 + y_54 + y_63 + y_64 + y_66 + y_87 - z_1368 >= 0
 c1370: y_5 + y_8 + y_15 + y_20 + y_33 + y_34 + y_48 + y_61 + y_75 + y_79 + y_80
        + y_93 - z_1369 >= 0
 c1371: y_0 + y_45 - z_1370 >= 0
 c1372: y_1 + y_8 + y_46 + y_73 + y_75 - z_1371 >= 0
 c1373: y_23 + y_49 + y_98 - z_1372 >= 0
 c1374: y_85 + y_92 - z_1373 >= 0
 c1375: y_12 + y_71 + y_88 - z_1374 >= 0
 c1376: y_0 + y_16 + y_39 + y_42 + y_53 + y_54 + y_55 + y_63 + y_64 - z_1375
         >= 0
 c1377: y_12 + y_71 + y_88 - z_1376 >= 0
 c1378: y_37 + y_45 - z_1377 >= 0
 c1379: - z_1378 >= 0
 c1380: y_1 + y_23 + y_31 + y_49 + y_89 + y_98 + y_99 - z_1379 >= 0
 c1381: y_56 + y_65 - z_1380 >= 0
 c1382: y_5 + y_8 + y_20 + y_34 + y_61 + y_75 + y_80 + y_93 - z_1381 >= 0
 c1383: y_11 + y_52 + y_67 + y_68 + y_69 + y_97 - z_1382 >= 0
 c1384: y_37 + y_89 - z_1383 >= 0
 c1385: y_9 + y_12 + y_71 + y_88 - z_1384 >= 0
 c1386: y_25 + y_29 + y_35 + y_77 - z_1385 >= 0
 c1387: y_2 + y_14 + y_82 + y_83 - z_1386 >= 0
 c1388: y_1 + y_23 + y_31 + y_73 + y_89 + y_99 - z_1387 >= 0
 c1389: y_4 + y_9 + y_12 + y_32 + y_71 + y_88 - z_1388 >= 0
 c1390: y_0 + y_2 + y_27 + y_42 + y_55 + y_64 - z_1389 >= 0
 c1391: y_45 - z_1390 >= 0
 c1392: y_25 + y_40 + y_54 + y_66 + y_77 + y_87 + y_92 - z_1391 >= 0
 c1393: y_45 - z_1392 >= 0
 c1394: y_0 + y_16 + y_39 + y_42 + y_54 + y_55 + y_63 + y_64 - z_1393 >= 0
 c1395: y_5 + y_17 + y_53 + y_58 + y_91 - z_1394 >= 0
 c1396: y_11 + y_30 + y_43 + y_52 + y_59 + y_68 + y_94 - z_1395 >= 0
 c1397: y_1 + y_8 + y_46 + y_73 + y_75 - z_1396 >= 0
 c1398: y_8 + y_15 + y_20 + y_46 + y_61 + y_75 + y_79 + y_80 + y_93 + y_95
        - z_1397 >= 0
 c1399: y_5 + y_17 + y_34 + y_91 - z_1398 >= 0
 c1400: y_5 + y_8 + y_17 + y_34 - z_1399 >= 0
 c1401: y_13 + y_28 + y_60 + y_76 - z_1400 >= 0
 c1402: y_25 + y_35 + y_77 + y_92 - z_1401 >= 0
 c1403: y_12 + y_22 + y_57 + y_88 - z_1402 >= 0
 c1404: y_0 + y_27 + y_42 + y_55 + y_64 - z_1403 >= 0
 c1405: y_37 + y_45 - z_1404 >= 0
 c1406: y_46 + y_49 + y_74 + y_95 - z_1405 >= 0
 c1407: y_12 + y_22 + y_57 + y_65 + y_72 + y_88 - z_1406 >= 0
 c1408: y_10 + y_13 + y_60 + y_72 + y_76 + y_78 + y_81 - z_1407 >= 0
 c1409: y_1 + y_23 + y_31 + y_37 + y_73 + y_89 + y_98 + y_99 - z_1408 >= 0
 c1410: y_58 + y_91 - z_1409 >= 0
 c1411: y_3 + y_19 + y_26 + y_33 + y_38 + y_44 + y_48 - z_1410 >= 0
 c1412: y_29 - z_1411 >= 0
 c1413: y_15 + y_18 + y_21 + y_36 + y_41 + y_47 + y_48 + y_79 + y_95 - z_1412
         >= 0
 c1414: y_83 + y_84 + y_85 - z_1413 >= 0
 c1415: y_58 + y_91 - z_1414 >= 0
 c1416: y_17 + y_53 + y_91 - z_1415 >= 0
 c1417: y_50 + y_56 + y_65 - z_1416 >= 0
 c1418: y_5 + y_8 + y_17 + y_20 + y_34 + y_75 + y_80 + y_93 - z_1417 >= 0
 c1419: y_16 + y_17 + y_39 + y_53 + y_54 + y_58 + y_63 + y_64 + y_91 - z_1418
         >= 0
 c1420: y_9 + y_71 - z_1419 >= 0
 c1421: y_9 + y_26 + y_67 + y_68 + y_69 + y_97 - z_1420 >= 0
 c1422: y_16 + y_50 + y_54 + y_56 + y_66 + y_87 - z_1421 >= 0
 c1423: y_45 - z_1422 >= 0
 c1424: y_3 + y_15 + y_19 + y_20 + y_21 + y_33 + y_36 + y_41 + y_47 + y_48
        + y_61 + y_79 + y_93 - z_1423 >= 0
 c1425: y_3 + y_19 + y_21 + y_30 + y_36 + y_41 + y_43 + y_47 + y_48 + y_94
        - z_1424 >= 0
 c1426: y_3 + y_4 + y_19 + y_26 + y_32 + y_33 + y_38 + y_44 + y_69 + y_90
        - z_1425 >= 0
 c1427: y_5 + y_8 + y_17 + y_34 + y_80 - z_1426 >= 0
 c1428: y_40 + y_92 - z_1427 >= 0
 c1429: y_5 + y_17 + y_34 + y_91 - z_1428 >= 0
 c1430: y_13 + y_28 + y_60 + y_76 - z_1429 >= 0
 c1431: y_31 + y_37 + y_89 - z_1430 >= 0
 c1432: y_16 + y_39 + y_53 + y_58 + y_63 + y_91 - z_1431 >= 0
 c1433: y_2 + y_14 + y_82 + y_83 + y_84 + y_85 - z_1432 >= 0
 c1434: y_9 + y_26 + y_67 + y_69 + y_71 + y_97 - z_1433 >= 0
 c1435: y_25 + y_29 + y_35 + y_50 + y_77 + y_87 - z_1434 >= 0
 c1436: y_4 + y_6 + y_9 + y_26 + y_32 + y_44 + y_90 - z_1435 >= 0
 c1437: y_1 + y_73 + y_75 + y_96 + y_99 - z_1436 >= 0
 c1438: y_1 + y_31 + y_37 + y_73 + y_89 + y_99 - z_1437 >= 0
 c1439: y_22 + y_57 + y_65 + y_72 - z_1438 >= 0
 c1440: y_5 + y_8 + y_17 + y_20 + y_34 + y_75 + y_80 + y_93 - z_1439 >= 0
 c1441: y_11 + y_24 + y_43 + y_52 + y_59 + y_67 + y_68 + y_69 + y_70 - z_1440
         >= 0
 c1442: y_3 + y_19 + y_33 + y_38 + y_44 + y_48 - z_1441 >= 0
 c1443: y_25 + y_29 + y_35 + y_77 - z_1442 >= 0
 c1444: y_83 + y_85 - z_1443 >= 0
 c1445: y_15 + y_18 + y_46 + y_49 + y_74 + y_95 - z_1444 >= 0
 c1446: y_9 + y_71 - z_1445 >= 0
 c1447: y_17 + y_96 - z_1446 >= 0
 c1448: y_97 - z_1447 >= 0
 c1449: y_40 + y_92 - z_1448 >= 0
 c1450: y_22 + y_56 + y_65 - z_1449 >= 0
 c1451: y_4 + y_9 + y_26 + y_32 + y_71 - z_1450 >= 0
 c1452: y_1 + y_7 + y_23 + y_31 + y_51 + y_89 + y_98 + y_99 - z_1451 >= 0
 c1453: y_3 + y_4 + y_19 + y_32 + y_33 + y_38 + y_44 + y_90 - z_1452 >= 0
 c1454: y_8 + y_17 + y_75 + y_96 - z_1453 >= 0
 c1455: y_2 + y_14 + y_27 + y_42 + y_55 + y_82 + y_83 - z_1454 >= 0
 c1456: - z_1455 >= 0
 c1457: y_9 + y_26 + y_71 - z_1456 >= 0
 c1458: y_96 - z_1457 >= 0
 c1459: y_5 + y_8 + y_17 + y_34 + y_75 + y_80 + y_96 - z_1458 >= 0
 c1460: y_16 + y_40 + y_50 + y_54 + y_66 + y_87 - z_1459 >= 0
 c1461: y_5 + y_8 + y_17 + y_34 + y_80 - z_1460 >= 0
 c1462: y_2 + y_40 + y_42 + y_55 + y_83 - z_1461 >= 0
 c1463: y_11 + y_19 + y_38 + y_43 + y_52 + y_59 + y_67 + y_68 + y_69 - z_1462
         >= 0
 c1464: y_7 + y_23 + y_31 + y_51 + y_62 + y_89 + y_98 + y_99 - z_1463 >= 0
 c1465: y_2 + y_14 + y_27 + y_42 + y_55 + y_83 - z_1464 >= 0
 c1466: y_13 + y_28 + y_60 + y_76 - z_1465 >= 0
 c1467: y_7 + y_23 + y_31 + y_51 + y_98 - z_1466 >= 0
 c1468: y_2 + y_14 + y_82 + y_83 + y_84 + y_85 - z_1467 >= 0
 c1469: y_8 + y_17 + y_91 + y_96 - z_1468 >= 0
 c1470: y_96 - z_1469 >= 0
 c1471: y_2 + y_83 + y_85 - z_1470 >= 0
 c1472: y_15 + y_18 + y_46 + y_49 + y_74 + y_95 - z_1471 >= 0
 c1473: y_16 + y_39 + y_53 + y_54 + y_55 + y_58 + y_63 + y_64 + y_91 - z_1472
         >= 0
 c1474: y_16 + y_50 + y_54 + y_56 + y_58 + y_66 + y_87 - z_1473 >= 0
 c1475: y_10 + y_13 + y_28 + y_60 + y_76 + y_78 + y_81 - z_1474 >= 0
 c1476: y_5 + y_34 - z_1475 >= 0
 c1477: y_16 + y_39 + y_42 + y_54 + y_55 + y_63 + y_64 - z_1476 >= 0
 c1478: y_1 + y_7 + y_23 + y_31 + y_49 + y_51 + y_89 + y_98 + y_99 - z_1477 >= 
        0
 c1479: y_9 + y_11 + y_26 + y_67 + y_68 + y_69 + y_97 - z_1478 >= 0
 c1480: y_23 + y_98 - z_1479 >= 0
 c1481: y_7 + y_31 + y_51 + y_62 + y_89 + y_98 - z_1480 >= 0
 c1482: y_7 + y_31 + y_37 + y_51 + y_89 + y_99 - z_1481 >= 0
 c1483: y_7 + y_23 + y_31 + y_51 + y_62 + y_89 + y_98 + y_99 - z_1482 >= 0
 c1484: y_45 - z_1483 >= 0
 c1485: y_5 + y_15 + y_20 + y_33 + y_34 + y_41 + y_48 + y_61 + y_79 + y_80
        + y_93 - z_1484 >= 0
 c1486: y_10 + y_12 + y_57 + y_72 + y_78 + y_88 - z_1485 >= 0
 c1487: y_37 + y_45 + y_73 + y_96 - z_1486 >= 0
 c1488: y_4 + y_6 + y_9 + y_32 + y_90 - z_1487 >= 0
 c1489: y_11 + y_67 + y_68 + y_69 + y_97 - z_1488 >= 0
 c1490: y_83 + y_85 + y_92 - z_1489 >= 0
 c1491: y_0 + y_2 + y_27 + y_42 + y_55 + y_64 - z_1490 >= 0
 c1492: y_8 + y_17 + y_96 - z_1491 >= 0
 c1493: y_17 + y_39 + y_53 + y_58 + y_63 + y_91 - z_1492 >= 0
 c1494: y_5 + y_15 + y_20 + y_33 + y_34 + y_48 + y_61 + y_79 + y_80 + y_93
        - z_1493 >= 0
 c1495: y_12 + y_22 + y_57 + y_65 + y_72 + y_88 - z_1494 >= 0
 c1496: y_40 + y_87 + y_92 - z_1495 >= 0
 c1497: y_3 + y_19 + y_26 + y_33 + y_38 + y_44 + y_67 + y_69 - z_1496 >= 0
 c1498: y_2 + y_14 + y_82 + y_83 + y_84 + y_85 - z_1497 >= 0
 c1499: y_15 + y_18 + y_20 + y_46 + y_49 + y_74 + y_75 + y_80 + y_95 - z_1498
         >= 0
 c1500: y_40 + y_92 - z_1499 >= 0
 c1501: y_1 + y_8 + y_15 + y_20 + y_46 + y_49 + y_75 + y_80 + y_93 + y_95
        - z_1500 >= 0
 c1502: y_4 + y_6 + y_90 - z_1501 >= 0
 c1503: y_5 + y_20 + y_34 + y_44 + y_61 + y_93 - z_1502 >= 0
 c1504: y_71 - z_1503 >= 0
 c1505: y_3 + y_15 + y_19 + y_20 + y_21 + y_33 + y_36 + y_41 + y_47 + y_48
        + y_61 + y_79 - z_1504 >= 0
 c1506: y_16 + y_39 + y_40 + y_50 + y_54 + y_66 + y_87 - z_1505 >= 0
 c1507: y_10 + y_13 + y_57 + y_60 + y_72 + y_76 + y_78 + y_81 - z_1506 >= 0
 c1508: y_1 + y_31 + y_37 + y_73 + y_89 + y_99 - z_1507 >= 0
 c1509: y_0 + y_16 + y_39 + y_42 + y_53 + y_54 + y_55 + y_63 + y_64 - z_1508
         >= 0
 c1510: y_15 + y_18 + y_20 + y_21 + y_36 + y_41 + y_47 + y_79 + y_95 - z_1509
         >= 0
 c1511: y_16 + y_39 + y_40 + y_54 + y_66 + y_87 + y_92 - z_1510 >= 0
 c1512: y_11 + y_24 + y_52 + y_59 + y_68 + y_70 + y_86 - z_1511 >= 0
 c1513: y_7 + y_23 + y_51 + y_62 + y_98 - z_1512 >= 0
 c1514: y_9 + y_71 - z_1513 >= 0
 c1515: y_1 + y_31 + y_37 + y_73 + y_89 + y_99 - z_1514 >= 0
 c1516: y_17 + y_53 + y_58 + y_91 - z_1515 >= 0
 c1517: y_25 + y_29 + y_35 + y_77 + y_92 - z_1516 >= 0
 c1518: y_13 + y_28 + y_60 + y_76 + y_81 - z_1517 >= 0
 c1519: y_25 + y_35 + y_40 + y_92 - z_1518 >= 0
 c1520: y_25 + y_29 + y_35 + y_77 + y_87 + y_92 - z_1519 >= 0
 c1521: y_2 + y_83 + y_85 - z_1520 >= 0
 c1522: y_21 + y_30 + y_36 + y_47 + y_94 - z_1521 >= 0
 c1523: y_25 + y_29 + y_50 + y_56 + y_65 + y_77 - z_1522 >= 0
 c1524: y_40 + y_83 + y_85 + y_92 - z_1523 >= 0
 c1525: y_16 + y_50 + y_54 + y_56 + y_66 + y_87 - z_1524 >= 0
 c1526: y_10 + y_13 + y_28 + y_60 + y_76 + y_78 + y_81 - z_1525 >= 0
 c1527: y_25 + y_29 + y_35 + y_50 + y_56 + y_77 + y_87 - z_1526 >= 0
 c1528: y_12 + y_71 - z_1527 >= 0
 c1529: y_13 + y_28 + y_60 + y_76 + y_78 + y_81 - z_1528 >= 0
 c1530: y_7 + y_51 + y_62 + y_98 - z_1529 >= 0
 c1531: y_45 + y_96 - z_1530 >= 0
 c1532: y_17 + y_53 + y_58 + y_91 - z_1531 >= 0
 c1533: y_5 + y_17 + y_34 + y_53 + y_58 + y_91 - z_1532 >= 0
 c1534: y_16 + y_25 + y_50 + y_54 + y_56 + y_66 + y_87 - z_1533 >= 0
 c1535: y_25 + y_29 + y_35 + y_40 + y_77 + y_87 + y_92 - z_1534 >= 0
 c1536: y_4 + y_6 + y_12 + y_22 + y_32 + y_88 + y_90 - z_1535 >= 0
 c1537: y_4 + y_9 + y_26 + y_32 + y_38 + y_44 + y_90 - z_1536 >= 0
 c1538: y_5 + y_20 + y_33 + y_34 + y_44 + y_61 + y_93 - z_1537 >= 0
 c1539: y_2 + y_40 + y_42 + y_55 + y_83 - z_1538 >= 0
 c1540: y_0 + y_2 + y_27 + y_42 + y_55 + y_64 - z_1539 >= 0
 c1541: y_15 + y_18 + y_20 + y_21 + y_33 + y_36 + y_41 + y_47 + y_48 + y_61
        + y_79 + y_80 + y_93 + y_95 - z_1540 >= 0
 c1542: y_18 + y_21 + y_36 + y_41 + y_47 + y_94 - z_1541 >= 0
 c1543: y_0 + y_27 - z_1542 >= 0
 c1544: y_25 + y_29 + y_35 + y_77 - z_1543 >= 0
 c1545: y_16 + y_39 + y_53 + y_54 + y_58 + y_66 + y_91 - z_1544 >= 0
 c1546: y_12 + y_71 + y_88 - z_1545 >= 0
 c1547: y_45 - z_1546 >= 0
 c1548: y_0 + y_27 - z_1547 >= 0
 c1549: y_12 + y_57 + y_88 - z_1548 >= 0
 c1550: y_1 + y_8 + y_73 + y_75 + y_96 - z_1549 >= 0
 c1551: y_25 + y_29 + y_35 + y_77 - z_1550 >= 0
 c1552: y_9 + y_11 + y_26 + y_67 + y_68 + y_69 + y_97 - z_1551 >= 0
 c1553: y_17 + y_34 + y_91 + y_96 - z_1552 >= 0
 c1554: y_6 + y_22 - z_1553 >= 0
 c1555: y_2 + y_40 + y_55 + y_83 + y_92 - z_1554 >= 0
 c1556: y_16 + y_39 + y_40 + y_54 + y_55 + y_63 + y_64 + y_66 + y_87 - z_1555
         >= 0
 c1557: y_10 + y_13 + y_28 + y_60 + y_76 + y_78 + y_81 - z_1556 >= 0
 c1558: y_30 + y_43 + y_59 + y_94 - z_1557 >= 0
 c1559: y_5 + y_8 + y_20 + y_34 + y_61 + y_75 + y_80 + y_93 - z_1558 >= 0
 c1560: y_13 + y_28 + y_60 + y_76 + y_78 + y_81 - z_1559 >= 0
 c1561: y_13 + y_28 + y_60 + y_76 + y_81 - z_1560 >= 0
 c1562: y_15 + y_18 + y_21 + y_36 + y_41 + y_47 + y_79 + y_95 - z_1561 >= 0
 c1563: y_16 + y_39 + y_53 + y_54 + y_58 + y_63 + y_66 + y_91 - z_1562 >= 0
 c1564: y_3 + y_5 + y_20 + y_33 + y_34 + y_44 + y_48 + y_61 + y_79 + y_93
        - z_1563 >= 0
 c1565: y_40 + y_87 + y_92 - z_1564 >= 0
 c1566: y_29 + y_50 + y_56 + y_65 - z_1565 >= 0
 c1567: y_9 + y_12 + y_32 + y_71 + y_88 - z_1566 >= 0
 c1568: y_1 + y_31 + y_37 + y_73 + y_89 + y_99 - z_1567 >= 0
 c1569: y_10 + y_13 + y_57 + y_60 + y_72 + y_76 + y_78 + y_81 - z_1568 >= 0
 c1570: y_11 + y_24 + y_30 + y_43 + y_52 + y_59 + y_67 + y_68 + y_69 + y_70
        - z_1569 >= 0
 c1571: y_3 + y_15 + y_18 + y_20 + y_21 + y_33 + y_36 + y_41 + y_47 + y_48
        + y_61 + y_79 - z_1570 >= 0
 c1572: y_12 + y_71 + y_88 - z_1571 >= 0
 c1573: y_0 + y_27 - z_1572 >= 0
 c1574: y_5 + y_6 + y_90 - z_1573 >= 0
 c1575: y_12 + y_71 + y_88 - z_1574 >= 0
 c1576: y_25 + y_35 + y_40 + y_77 + y_87 + y_92 - z_1575 >= 0
 c1577: y_25 + y_29 + y_35 + y_50 + y_56 + y_77 + y_87 - z_1576 >= 0
 c1578: y_13 + y_28 + y_60 + y_76 + y_78 + y_81 - z_1577 >= 0
 c1579: y_6 + y_58 + y_90 + y_91 - z_1578 >= 0
 c1580: y_40 + y_83 + y_92 - z_1579 >= 0
 c1581: y_25 + y_35 + y_40 + y_66 + y_77 + y_87 + y_92 - z_1580 >= 0
 c1582: y_3 + y_19 + y_33 + y_38 + y_44 + y_48 - z_1581 >= 0
 c1583: y_16 + y_40 + y_54 + y_66 + y_87 + y_92 - z_1582 >= 0
 c1584: y_5 + y_8 + y_15 + y_20 + y_34 + y_61 + y_75 + y_79 + y_80 + y_93
        - z_1583 >= 0
 c1585: y_3 + y_5 + y_33 + y_34 + y_38 + y_44 + y_48 + y_61 + y_93 - z_1584 >= 
        0
 c1586: y_8 + y_15 + y_20 + y_46 + y_49 + y_61 + y_75 + y_79 + y_80 + y_93
        + y_95 - z_1585 >= 0
 c1587: y_5 + y_8 + y_15 + y_20 + y_34 + y_61 + y_75 + y_79 + y_80 + y_93
        - z_1586 >= 0
 c1588: y_4 + y_6 + y_32 + y_90 - z_1587 >= 0
 c1589: y_9 + y_11 + y_26 + y_67 + y_68 + y_69 + y_97 - z_1588 >= 0
 c1590: y_10 + y_13 + y_60 + y_72 + y_76 + y_78 + y_81 - z_1589 >= 0
 c1591: y_9 + y_11 + y_26 + y_38 + y_67 + y_68 + y_69 + y_97 - z_1590 >= 0
 c1592: y_3 + y_4 + y_19 + y_26 + y_32 + y_33 + y_38 + y_44 + y_90 - z_1591 >= 
        0
 c1593: y_0 + y_27 + y_42 + y_55 + y_63 + y_64 - z_1592 >= 0
 c1594: y_16 + y_39 + y_40 + y_42 + y_54 + y_55 + y_63 + y_64 + y_66 - z_1593
         >= 0
 c1595: y_0 + y_64 - z_1594 >= 0
 c1596: y_6 + y_58 + y_91 - z_1595 >= 0
 c1597: y_8 + y_15 + y_20 + y_46 + y_61 + y_75 + y_80 + y_93 + y_95 - z_1596
         >= 0
 c1598: y_12 + y_22 + y_57 + y_65 + y_72 + y_78 + y_88 - z_1597 >= 0
 c1599: y_31 + y_37 + y_45 + y_73 + y_89 + y_99 - z_1598 >= 0
 c1600: y_14 + y_27 + y_82 - z_1599 >= 0
 c1601: y_4 + y_5 + y_6 + y_34 + y_44 + y_90 - z_1600 >= 0
 c1602: y_24 + y_30 + y_43 + y_52 + y_59 + y_70 + y_94 - z_1601 >= 0
 c1603: y_4 + y_6 + y_22 + y_32 + y_90 - z_1602 >= 0
 c1604: y_6 + y_58 + y_91 - z_1603 >= 0
 c1605: y_4 + y_9 + y_12 + y_26 + y_32 + y_71 + y_88 - z_1604 >= 0
 c1606: y_16 + y_39 + y_53 + y_54 + y_55 + y_58 + y_63 + y_64 + y_66 - z_1605
         >= 0
 c1607: y_30 + y_43 + y_52 + y_59 + y_94 - z_1606 >= 0
 c1608: y_83 + y_84 + y_85 - z_1607 >= 0
 c1609: y_3 + y_19 + y_26 + y_33 + y_38 + y_44 + y_48 - z_1608 >= 0
 c1610: y_65 - z_1609 >= 0
 c1611: y_11 + y_19 + y_26 + y_38 + y_52 + y_67 + y_68 + y_69 - z_1610 >= 0
 c1612: y_8 + y_15 + y_20 + y_46 + y_61 + y_75 + y_79 + y_80 + y_93 + y_95
        - z_1611 >= 0
 c1613: y_8 + y_15 + y_20 + y_33 + y_34 + y_41 + y_48 + y_61 + y_75 + y_79
        + y_80 + y_93 + y_95 - z_1612 >= 0
 c1614: y_12 + y_71 + y_88 - z_1613 >= 0
 c1615: y_25 + y_29 + y_35 + y_77 - z_1614 >= 0
 c1616: y_1 + y_23 + y_31 + y_46 + y_49 + y_98 + y_99 - z_1615 >= 0
 c1617: y_46 + y_49 + y_74 + y_95 - z_1616 >= 0
 c1618: y_7 + y_23 + y_31 + y_51 + y_62 + y_98 - z_1617 >= 0
 c1619: y_50 + y_56 - z_1618 >= 0
 c1620: y_5 + y_6 + y_34 + y_44 + y_90 - z_1619 >= 0
 c1621: y_2 + y_83 + y_85 - z_1620 >= 0
 c1622: y_2 + y_82 + y_83 + y_84 + y_85 - z_1621 >= 0
 c1623: y_24 + y_52 + y_59 + y_70 + y_86 - z_1622 >= 0
 c1624: y_12 + y_71 + y_88 - z_1623 >= 0
 c1625: y_16 + y_17 + y_39 + y_53 + y_54 + y_58 + y_63 + y_64 + y_91 - z_1624
         >= 0
 c1626: y_8 + y_15 + y_20 + y_41 + y_46 + y_61 + y_75 + y_79 + y_80 + y_93
        + y_95 - z_1625 >= 0
 c1627: y_13 + y_60 + y_72 + y_76 + y_78 + y_81 - z_1626 >= 0
 c1628: y_8 + y_20 + y_34 + y_75 + y_80 + y_93 + y_96 - z_1627 >= 0
 c1629: y_37 + y_45 + y_73 + y_89 + y_99 - z_1628 >= 0
 c1630: y_12 + y_71 + y_88 - z_1629 >= 0
 c1631: y_1 + y_23 + y_46 + y_49 + y_74 + y_98 + y_99 - z_1630 >= 0
 c1632: y_6 + y_22 + y_32 - z_1631 >= 0
 c1633: y_2 + y_14 + y_82 + y_83 + y_85 - z_1632 >= 0
 c1634: y_22 + y_50 + y_56 + y_65 - z_1633 >= 0
 c1635: y_15 + y_18 + y_20 + y_21 + y_33 + y_36 + y_41 + y_47 + y_48 + y_61
        + y_79 + y_80 + y_93 + y_95 - z_1634 >= 0
 c1636: y_0 + y_2 + y_27 + y_42 + y_55 - z_1635 >= 0
 c1637: y_7 + y_31 + y_51 + y_62 + y_89 + y_98 + y_99 - z_1636 >= 0
 c1638: y_25 + y_29 + y_35 + y_77 - z_1637 >= 0
 c1639: y_0 + y_96 - z_1638 >= 0
 c1640: y_6 + y_58 + y_90 + y_91 - z_1639 >= 0
 c1641: y_7 + y_51 + y_62 + y_98 - z_1640 >= 0
 c1642: y_13 + y_65 - z_1641 >= 0
 c1643: y_11 + y_24 + y_30 + y_43 + y_52 + y_59 + y_68 + y_70 + y_86 - z_1642
         >= 0
 c1644: y_83 + y_85 + y_92 - z_1643 >= 0
 c1645: y_15 + y_18 + y_20 + y_46 + y_49 + y_74 + y_95 - z_1644 >= 0
 c1646: y_50 + y_56 + y_58 - z_1645 >= 0
 c1647: y_1 + y_31 + y_37 + y_73 + y_89 + y_99 - z_1646 >= 0
 c1648: y_1 + y_8 + y_73 + y_96 - z_1647 >= 0
 c1649: y_2 + y_14 + y_82 + y_83 + y_84 + y_85 - z_1648 >= 0
 c1650: y_0 + y_27 - z_1649 >= 0
 c1651: y_7 + y_31 + y_51 + y_62 + y_89 + y_99 - z_1650 >= 0
 c1652: y_1 + y_23 + y_46 + y_49 + y_74 + y_98 - z_1651 >= 0
 c1653: y_40 + y_92 - z_1652 >= 0
 c1654: y_45 - z_1653 >= 0
 c1655: y_16 + y_17 + y_39 + y_53 + y_55 + y_58 + y_63 + y_64 + y_91 - z_1654
         >= 0
 c1656: y_37 + y_45 - z_1655 >= 0
 c1657: y_50 + y_56 + y_65 - z_1656 >= 0
 c1658: y_17 + y_53 + y_96 - z_1657 >= 0
 c1659: y_9 + y_12 + y_32 + y_71 + y_88 - z_1658 >= 0
 c1660: y_8 + y_15 + y_20 + y_34 + y_61 + y_75 + y_80 + y_93 - z_1659 >= 0
 c1661: y_25 + y_29 + y_35 + y_77 - z_1660 >= 0
 c1662: y_10 + y_13 + y_57 + y_60 + y_72 + y_76 + y_78 + y_81 - z_1661 >= 0
 c1663: y_1 + y_23 + y_31 + y_73 + y_89 + y_98 + y_99 - z_1662 >= 0
 c1664: y_1 + y_31 + y_37 + y_73 + y_89 + y_99 - z_1663 >= 0
 c1665: y_7 + y_31 + y_51 + y_62 + y_89 + y_99 - z_1664 >= 0
 c1666: y_24 + y_30 + y_43 + y_52 + y_59 + y_70 - z_1665 >= 0
 c1667: y_1 + y_23 + y_46 + y_49 + y_74 + y_98 - z_1666 >= 0
 c1668: y_0 + y_27 + y_45 - z_1667 >= 0
 c1669: y_11 + y_24 + y_52 + y_59 + y_68 + y_69 + y_70 + y_86 + y_97 - z_1668
         >= 0
 c1670: y_11 + y_67 + y_68 + y_69 + y_97 - z_1669 >= 0
 c1671: - z_1670 >= 0
 c1672: y_3 + y_5 + y_33 + y_34 + y_38 + y_44 + y_61 + y_90 - z_1671 >= 0
 c1673: y_65 - z_1672 >= 0
 c1674: y_12 + y_22 + y_32 + y_88 - z_1673 >= 0
 c1675: y_8 + y_15 + y_20 + y_46 + y_49 + y_61 + y_75 + y_80 + y_93 + y_95
        - z_1674 >= 0
 c1676: y_13 + y_28 + y_60 + y_76 - z_1675 >= 0
 c1677: y_2 + y_27 + y_42 + y_55 + y_83 - z_1676 >= 0
 c1678: y_4 + y_9 + y_26 + y_32 + y_38 + y_44 + y_67 + y_69 - z_1677 >= 0
 c1679: y_13 + y_28 + y_60 + y_76 + y_78 + y_81 - z_1678 >= 0
 c1680: y_25 + y_29 + y_77 - z_1679 >= 0
 c1681: y_45 - z_1680 >= 0
 c1682: y_9 + y_67 + y_68 + y_69 + y_97 - z_1681 >= 0
 c1683: y_15 + y_18 + y_21 + y_36 + y_41 + y_47 + y_79 + y_95 - z_1682 >= 0
 c1684: y_4 + y_9 + y_26 + y_32 + y_71 - z_1683 >= 0
 c1685: y_2 + y_40 + y_42 + y_55 + y_83 - z_1684 >= 0
 c1686: y_29 - z_1685 >= 0
 c1687: y_3 + y_11 + y_19 + y_26 + y_33 + y_38 + y_44 + y_67 + y_68 + y_69
        - z_1686 >= 0
 c1688: y_17 + y_53 + y_96 - z_1687 >= 0
 c1689: y_7 + y_23 + y_31 + y_51 + y_62 + y_89 + y_98 + y_99 - z_1688 >= 0
 c1690: y_0 + y_27 + y_45 - z_1689 >= 0
 c1691: y_40 + y_92 - z_1690 >= 0
 c1692: y_5 + y_6 + y_34 + y_90 - z_1691 >= 0
 c1693: y_3 + y_19 + y_33 + y_38 + y_44 + y_48 - z_1692 >= 0
 c1694: y_4 + y_12 + y_22 + y_32 + y_88 - z_1693 >= 0
 c1695: y_73 + y_96 - z_1694 >= 0
 c1696: y_5 + y_15 + y_20 + y_33 + y_34 + y_41 + y_48 + y_61 + y_79 + y_80
        + y_93 + y_95 - z_1695 >= 0
 c1697: y_4 + y_9 + y_12 + y_26 + y_32 + y_71 - z_1696 >= 0
 c1698: y_5 + y_34 + y_44 + y_61 + y_90 - z_1697 >= 0
 c1699: y_5 + y_20 + y_34 + y_44 + y_61 + y_93 - z_1698 >= 0
 c1700: y_12 + y_22 + y_57 + y_65 + y_72 + y_78 + y_88 - z_1699 >= 0
 c1701: y_0 + y_45 - z_1700 >= 0
 c1702: y_29 + y_65 - z_1701 >= 0
 c1703: y_13 - z_1702 >= 0
 c1704: y_25 + y_35 + y_40 + y_77 + y_87 + y_92 - z_1703 >= 0
 c1705: y_9 + y_71 - z_1704 >= 0
 c1706: y_8 + y_15 + y_20 + y_34 + y_46 + y_61 + y_75 + y_79 + y_80 + y_93
        + y_95 - z_1705 >= 0
 c1707: y_40 + y_92 - z_1706 >= 0
 c1708: y_29 - z_1707 >= 0
 c1709: y_17 + y_96 - z_1708 >= 0
 c1710: y_5 + y_6 + y_34 + y_90 - z_1709 >= 0
 c1711: y_24 + y_30 + y_43 + y_52 + y_59 + y_70 - z_1710 >= 0
 c1712: y_22 + y_56 + y_65 - z_1711 >= 0
 c1713: y_15 + y_20 + y_34 + y_41 + y_47 + y_48 + y_61 + y_75 + y_79 + y_80
        + y_93 + y_95 - z_1712 >= 0
 c1714: y_7 + y_23 + y_51 + y_62 + y_98 - z_1713 >= 0
 c1715: y_25 + y_29 + y_35 + y_50 + y_56 + y_77 - z_1714 >= 0
 c1716: y_12 + y_22 + y_57 + y_65 + y_72 + y_88 - z_1715 >= 0
 c1717: y_8 + y_17 + y_34 + y_96 - z_1716 >= 0
 c1718: y_3 + y_15 + y_18 + y_20 + y_21 + y_33 + y_36 + y_41 + y_47 + y_48
        + y_61 + y_79 + y_93 + y_95 - z_1717 >= 0
 c1719: y_40 + y_87 + y_92 - z_1718 >= 0
 c1720: y_37 + y_45 + y_89 - z_1719 >= 0
 c1721: y_17 + y_53 + y_63 + y_91 + y_96 - z_1720 >= 0
 c1722: y_58 - z_1721 >= 0
 c1723: y_8 + y_15 + y_20 + y_34 + y_46 + y_61 + y_75 + y_79 + y_80 + y_93
        + y_95 - z_1722 >= 0
 c1724: y_50 + y_56 - z_1723 >= 0
 c1725: y_19 + y_21 + y_30 + y_36 + y_41 + y_43 + y_47 + y_48 + y_59 + y_94
        - z_1724 >= 0
 c1726: y_0 + y_27 - z_1725 >= 0
 c1727: y_0 + y_2 + y_14 + y_27 + y_42 + y_55 + y_82 + y_83 - z_1726 >= 0
 c1728: y_0 + y_39 + y_42 + y_53 + y_55 + y_63 + y_64 - z_1727 >= 0
 c1729: y_9 + y_26 + y_67 + y_68 + y_69 + y_97 - z_1728 >= 0
 c1730: y_4 + y_5 + y_6 + y_32 + y_90 - z_1729 >= 0
 c1731: y_1 + y_73 + y_96 - z_1730 >= 0
 c1732: y_0 + y_27 + y_42 + y_55 + y_64 - z_1731 >= 0
 c1733: y_22 + y_57 + y_65 + y_72 - z_1732 >= 0
 c1734: y_30 + y_43 + y_52 + y_59 + y_94 - z_1733 >= 0
 c1735: y_50 + y_56 + y_65 - z_1734 >= 0
 c1736: y_35 + y_40 + y_92 - z_1735 >= 0
 c1737: y_40 + y_92 - z_1736 >= 0
 c1738: y_50 + y_56 - z_1737 >= 0
 c1739: y_1 + y_7 + y_23 + y_31 + y_37 + y_51 + y_62 + y_89 + y_98 + y_99
        - z_1738 >= 0
 c1740: y_16 + y_40 + y_54 + y_66 + y_87 + y_92 - z_1739 >= 0
 c1741: y_17 + y_96 - z_1740 >= 0
 c1742: y_8 + y_17 + y_75 + y_80 + y_96 - z_1741 >= 0
 c1743: y_0 + y_27 + y_42 + y_55 + y_64 - z_1742 >= 0
 c1744: y_11 + y_24 + y_52 + y_59 + y_68 + y_70 + y_86 - z_1743 >= 0
 c1745: y_12 + y_71 + y_88 - z_1744 >= 0
 c1746: y_3 + y_15 + y_18 + y_21 + y_33 + y_36 + y_41 + y_47 + y_48 + y_61
        + y_79 - z_1745 >= 0
 c1747: y_10 + y_12 + y_57 + y_72 + y_76 + y_78 + y_81 + y_88 - z_1746 >= 0
 c1748: y_12 + y_22 + y_57 + y_88 - z_1747 >= 0
 c1749: y_5 + y_17 + y_53 + y_58 + y_91 - z_1748 >= 0
 c1750: y_21 + y_30 + y_36 + y_41 + y_43 + y_47 + y_48 + y_94 - z_1749 >= 0
 c1751: y_85 + y_92 - z_1750 >= 0
 c1752: y_45 - z_1751 >= 0
 c1753: y_12 + y_57 + y_88 - z_1752 >= 0
 c1754: y_85 + y_92 - z_1753 >= 0
 c1755: y_12 + y_22 + y_32 + y_88 - z_1754 >= 0
 c1756: y_30 + y_43 + y_59 + y_94 - z_1755 >= 0
 c1757: y_7 + y_31 + y_51 + y_62 + y_89 + y_99 - z_1756 >= 0
 c1758: y_1 + y_8 + y_20 + y_46 + y_49 + y_75 + y_80 + y_93 + y_95 - z_1757 >= 
        0
 c1759: y_3 + y_19 + y_26 + y_33 + y_38 + y_44 + y_48 - z_1758 >= 0
 c1760: y_0 + y_16 + y_39 + y_53 + y_54 + y_55 + y_63 + y_64 + y_91 - z_1759
         >= 0
 c1761: y_13 + y_28 + y_60 + y_72 + y_76 + y_78 + y_81 - z_1760 >= 0
 c1762: y_22 + y_57 + y_65 + y_72 - z_1761 >= 0
 c1763: y_4 + y_5 + y_6 + y_32 + y_90 - z_1762 >= 0
 c1764: y_23 + y_46 + y_49 + y_74 + y_95 - z_1763 >= 0
 c1765: y_13 + y_28 + y_60 + y_76 + y_81 - z_1764 >= 0
 c1766: y_1 + y_23 + y_31 + y_37 + y_73 + y_89 + y_98 + y_99 - z_1765 >= 0
 c1767: y_11 + y_24 + y_52 + y_68 + y_70 + y_86 + y_97 - z_1766 >= 0
 c1768: y_57 + y_65 + y_72 - z_1767 >= 0
 c1769: y_13 + y_60 + y_76 - z_1768 >= 0
 c1770: y_4 + y_12 + y_22 + y_32 + y_88 - z_1769 >= 0
 c1771: y_6 + y_58 + y_91 - z_1770 >= 0
 c1772: y_6 + y_58 + y_90 + y_91 - z_1771 >= 0
 c1773: y_29 - z_1772 >= 0
 c1774: y_4 + y_9 + y_19 + y_26 + y_32 + y_38 + y_44 + y_67 + y_69 - z_1773 >= 
        0
 c1775: y_23 + y_31 + y_49 + y_98 + y_99 - z_1774 >= 0
 c1776: y_24 + y_52 + y_70 + y_86 - z_1775 >= 0
 c1777: y_10 + y_57 + y_72 + y_78 + y_81 + y_88 - z_1776 >= 0
 c1778: y_4 + y_6 + y_12 + y_22 + y_32 + y_88 - z_1777 >= 0
 c1779: y_1 + y_7 + y_23 + y_31 + y_49 + y_51 + y_89 + y_98 + y_99 - z_1778 >= 
        0
 c1780: y_3 + y_15 + y_18 + y_21 + y_33 + y_36 + y_41 + y_47 + y_48 + y_79
        - z_1779 >= 0
 c1781: y_2 + y_14 + y_27 + y_42 + y_82 + y_83 - z_1780 >= 0
 c1782: y_46 + y_49 + y_74 + y_95 - z_1781 >= 0
 c1783: y_24 + y_52 + y_59 + y_70 + y_86 - z_1782 >= 0
 c1784: y_10 + y_12 + y_57 + y_72 + y_78 + y_88 - z_1783 >= 0
 c1785: y_14 + y_27 + y_82 - z_1784 >= 0
 c1786: y_0 + y_17 + y_53 + y_63 + y_64 - z_1785 >= 0
 c1787: y_2 + y_40 + y_83 + y_85 + y_92 - z_1786 >= 0
 c1788: y_2 + y_14 + y_82 + y_83 + y_84 + y_85 - z_1787 >= 0
 c1789: y_13 + y_57 + y_65 + y_72 - z_1788 >= 0
 c1790: y_40 + y_85 + y_92 - z_1789 >= 0
 c1791: y_11 + y_52 + y_59 + y_67 + y_68 + y_69 + y_97 - z_1790 >= 0
 c1792: y_10 + y_13 + y_60 + y_76 + y_78 + y_81 - z_1791 >= 0
 c1793: y_10 + y_57 + y_60 + y_72 + y_76 + y_78 + y_81 - z_1792 >= 0
 c1794: y_15 + y_46 + y_49 + y_74 + y_75 + y_95 - z_1793 >= 0
 c1795: y_13 + y_28 + y_60 + y_76 - z_1794 >= 0
 c1796: y_40 + y_83 + y_85 + y_92 - z_1795 >= 0
 c1797: y_4 + y_6 + y_12 + y_22 + y_32 + y_88 + y_90 - z_1796 >= 0
 c1798: y_10 + y_12 + y_57 + y_88 - z_1797 >= 0
 c1799: y_50 + y_56 + y_65 - z_1798 >= 0
 c1800: y_16 + y_17 + y_39 + y_53 + y_54 + y_58 + y_63 + y_64 + y_91 - z_1799
         >= 0
 c1801: y_16 + y_39 + y_53 + y_54 + y_58 + y_63 + y_66 + y_91 - z_1800 >= 0
 c1802: y_0 + y_27 + y_42 + y_55 + y_64 - z_1801 >= 0
 c1803: y_8 + y_15 + y_20 + y_34 + y_48 + y_61 + y_75 + y_79 + y_80 + y_93
        + y_95 - z_1802 >= 0
 c1804: y_3 + y_15 + y_20 + y_21 + y_33 + y_34 + y_41 + y_48 + y_61 + y_79
        + y_80 + y_93 + y_95 - z_1803 >= 0
 c1805: y_2 + y_14 + y_27 + y_82 + y_83 - z_1804 >= 0
 c1806: y_83 + y_85 - z_1805 >= 0
 c1807: y_11 + y_24 + y_52 + y_68 + y_70 + y_86 + y_97 - z_1806 >= 0
 c1808: y_13 + y_60 + y_76 - z_1807 >= 0
 c1809: y_11 + y_24 + y_43 + y_52 + y_59 + y_67 + y_68 + y_69 + y_70 + y_86
        + y_97 - z_1808 >= 0
 c1810: y_2 + y_14 + y_27 + y_82 - z_1809 >= 0
 c1811: y_1 + y_31 + y_37 + y_73 + y_89 + y_99 - z_1810 >= 0
 c1812: y_29 + y_50 + y_56 + y_65 - z_1811 >= 0
 c1813: y_4 + y_9 + y_12 + y_32 + y_88 - z_1812 >= 0
 c1814: y_5 + y_17 + y_34 - z_1813 >= 0
 c1815: y_40 + y_87 + y_92 - z_1814 >= 0
 c1816: y_2 + y_14 + y_27 + y_82 - z_1815 >= 0
 c1817: y_15 + y_20 + y_41 + y_46 + y_47 + y_48 + y_61 + y_75 + y_79 + y_80
        + y_93 + y_95 - z_1816 >= 0
 c1818: y_25 + y_35 + y_40 + y_77 + y_87 + y_92 - z_1817 >= 0
 c1819: y_25 + y_29 + y_35 + y_40 + y_66 + y_77 + y_87 + y_92 - z_1818 >= 0
 c1820: y_0 + y_45 - z_1819 >= 0
 c1821: y_3 + y_4 + y_19 + y_33 + y_38 + y_44 + y_90 - z_1820 >= 0
 c1822: y_16 + y_39 + y_53 + y_54 + y_58 + y_63 + y_66 + y_91 - z_1821 >= 0
 c1823: y_8 + y_15 + y_20 + y_34 + y_41 + y_48 + y_61 + y_75 + y_79 + y_80
        + y_93 + y_95 - z_1822 >= 0
 c1824: y_5 + y_34 + y_44 + y_61 + y_90 + y_93 - z_1823 >= 0
 c1825: y_17 + y_39 + y_53 + y_58 + y_63 + y_91 - z_1824 >= 0
 c1826: y_0 + y_45 - z_1825 >= 0
 c1827: y_12 + y_22 + y_57 + y_65 + y_72 + y_88 - z_1826 >= 0
 c1828: y_16 + y_17 + y_39 + y_53 + y_54 + y_58 + y_63 + y_64 + y_91 - z_1827
         >= 0
 c1829: y_2 + y_40 + y_55 + y_83 + y_85 + y_92 - z_1828 >= 0
 c1830: y_45 - z_1829 >= 0
 c1831: y_21 + y_30 + y_36 + y_41 + y_43 + y_47 + y_94 - z_1830 >= 0
 c1832: y_1 + y_23 + y_31 + y_49 + y_73 + y_89 + y_98 + y_99 - z_1831 >= 0
 c1833: y_0 + y_42 + y_53 + y_63 + y_64 - z_1832 >= 0
 c1834: y_0 + y_27 + y_42 + y_55 - z_1833 >= 0
 c1835: y_8 + y_15 + y_20 + y_34 + y_46 + y_61 + y_75 + y_79 + y_80 + y_93
        + y_95 - z_1834 >= 0
 c1836: y_7 + y_23 + y_31 + y_51 + y_62 + y_89 + y_98 + y_99 - z_1835 >= 0
 c1837: y_6 + y_58 + y_90 - z_1836 >= 0
 c1838: y_30 + y_43 + y_59 + y_94 - z_1837 >= 0
 c1839: y_3 + y_11 + y_19 + y_26 + y_38 + y_44 + y_67 + y_68 + y_69 - z_1838
         >= 0
 c1840: y_8 + y_15 + y_20 + y_46 + y_49 + y_61 + y_74 + y_75 + y_80 + y_93
        + y_95 - z_1839 >= 0
 c1841: y_4 + y_9 + y_12 + y_26 + y_32 + y_71 + y_88 - z_1840 >= 0
 c1842: y_6 + y_22 - z_1841 >= 0
 c1843: y_7 + y_23 + y_51 + y_98 - z_1842 >= 0
 c1844: y_73 + y_96 - z_1843 >= 0
 c1845: y_11 + y_19 + y_26 + y_38 + y_43 + y_52 + y_59 + y_67 + y_68 + y_69
        + y_97 - z_1844 >= 0
 c1846: y_4 + y_9 + y_12 + y_32 + y_71 + y_88 - z_1845 >= 0
 c1847: y_23 + y_46 + y_49 + y_74 + y_98 - z_1846 >= 0
 c1848: y_4 + y_6 + y_32 + y_90 - z_1847 >= 0
 c1849: y_50 + y_56 + y_65 - z_1848 >= 0
 c1850: y_7 + y_23 + y_51 + y_62 + y_98 - z_1849 >= 0
 c1851: y_37 + y_89 - z_1850 >= 0
 c1852: y_0 + y_27 + y_42 - z_1851 >= 0
 c1853: y_13 + y_57 + y_60 + y_65 + y_72 + y_76 + y_78 + y_81 - z_1852 >= 0
 c1854: y_6 + y_22 - z_1853 >= 0
 c1855: y_7 + y_23 + y_31 + y_51 + y_62 + y_98 - z_1854 >= 0
 c1856: y_13 + y_60 - z_1855 >= 0
 c1857: y_5 + y_17 + y_34 + y_91 - z_1856 >= 0
 c1858: y_56 + y_58 - z_1857 >= 0
 c1859: y_16 + y_39 + y_50 + y_54 + y_56 + y_66 + y_87 - z_1858 >= 0
 c1860: y_97 - z_1859 >= 0
 c1861: y_10 + y_13 + y_60 + y_76 + y_78 + y_81 - z_1860 >= 0
 c1862: y_3 + y_11 + y_19 + y_26 + y_38 + y_67 + y_68 + y_69 - z_1861 >= 0
 c1863: y_9 + y_12 + y_32 + y_71 - z_1862 >= 0
 c1864: y_4 + y_6 + y_9 + y_26 + y_32 + y_90 - z_1863 >= 0
 c1865: y_40 + y_83 + y_85 + y_92 - z_1864 >= 0
 c1866: y_8 + y_15 + y_20 + y_34 + y_61 + y_75 + y_79 + y_80 + y_93 + y_95
        - z_1865 >= 0
 c1867: y_0 + y_27 + y_42 + y_55 + y_64 - z_1866 >= 0
 c1868: y_13 + y_28 - z_1867 >= 0
 c1869: y_5 + y_8 + y_17 + y_34 + y_91 - z_1868 >= 0
 c1870: y_4 + y_6 + y_90 - z_1869 >= 0
 c1871: y_5 + y_8 + y_17 + y_20 + y_34 + y_75 + y_80 + y_93 - z_1870 >= 0
 c1872: y_25 + y_29 + y_35 + y_40 + y_77 + y_87 + y_92 - z_1871 >= 0
 c1873: y_13 + y_60 - z_1872 >= 0
 c1874: y_3 + y_15 + y_20 + y_21 + y_33 + y_34 + y_41 + y_44 + y_48 + y_61
        + y_79 + y_80 + y_93 - z_1873 >= 0
 c1875: y_4 + y_6 + y_12 + y_22 + y_32 + y_88 + y_90 - z_1874 >= 0
 c1876: y_16 + y_50 + y_54 + y_56 + y_58 + y_66 - z_1875 >= 0
 c1877: y_8 + y_20 + y_34 + y_75 + y_80 + y_93 + y_96 - z_1876 >= 0
 c1878: y_11 + y_67 + y_68 + y_69 + y_97 - z_1877 >= 0
 c1879: y_12 + y_22 + y_57 + y_65 + y_72 + y_88 - z_1878 >= 0
 c1880: y_21 + y_30 + y_43 + y_94 - z_1879 >= 0
 c1881: y_3 + y_15 + y_19 + y_21 + y_33 + y_36 + y_41 + y_47 + y_48 + y_61
        + y_79 - z_1880 >= 0
 c1882: y_40 + y_42 + y_55 + y_64 - z_1881 >= 0
 c1883: y_21 + y_30 + y_43 + y_59 + y_94 - z_1882 >= 0
 c1884: y_11 + y_19 + y_30 + y_43 + y_52 + y_59 + y_94 - z_1883 >= 0
 c1885: y_5 + y_8 + y_20 + y_34 + y_61 + y_75 + y_80 + y_93 - z_1884 >= 0
 c1886: y_25 + y_29 + y_50 + y_56 + y_65 + y_77 - z_1885 >= 0
 c1887: y_21 + y_30 + y_43 + y_59 + y_94 - z_1886 >= 0
 c1888: y_4 + y_6 + y_9 + y_12 + y_32 + y_88 - z_1887 >= 0
 c1889: y_97 - z_1888 >= 0
 c1890: y_22 + y_57 + y_65 + y_72 - z_1889 >= 0
 c1891: y_11 + y_26 + y_52 + y_67 + y_68 + y_69 + y_97 - z_1890 >= 0
 c1892: y_8 + y_15 + y_20 + y_34 + y_46 + y_61 + y_75 + y_80 + y_93 + y_95
        - z_1891 >= 0
 c1893: y_5 + y_33 + y_34 + y_44 + y_61 + y_90 - z_1892 >= 0
 c1894: y_5 + y_8 + y_20 + y_34 + y_61 + y_80 + y_93 - z_1893 >= 0
 c1895: y_7 + y_31 + y_37 + y_51 + y_62 + y_89 + y_99 - z_1894 >= 0
 c1896: y_16 + y_39 + y_53 + y_54 + y_55 + y_58 + y_63 + y_64 + y_66 + y_91
        - z_1895 >= 0
 c1897: y_16 + y_17 + y_39 + y_53 + y_58 + y_63 + y_64 + y_91 - z_1896 >= 0
 c1898: y_15 + y_18 + y_36 + y_46 + y_47 + y_49 + y_74 + y_95 - z_1897 >= 0
 c1899: y_3 + y_15 + y_19 + y_21 + y_33 + y_36 + y_38 + y_41 + y_44 + y_47
        + y_48 + y_61 + y_79 - z_1898 >= 0
 c1900: y_7 + y_23 + y_31 + y_51 + y_62 + y_89 + y_98 + y_99 - z_1899 >= 0
 c1901: y_50 + y_56 + y_66 - z_1900 >= 0
 c1902: y_11 + y_67 + y_68 + y_69 + y_97 - z_1901 >= 0
 c1903: y_12 + y_22 + y_57 + y_65 + y_72 + y_88 - z_1902 >= 0
 c1904: y_22 + y_57 + y_65 + y_72 - z_1903 >= 0
 c1905: y_45 - z_1904 >= 0
 c1906: y_25 + y_29 + y_35 + y_50 + y_56 + y_77 + y_87 - z_1905 >= 0
 c1907: y_13 - z_1906 >= 0
 c1908: y_37 + y_45 + y_73 + y_89 - z_1907 >= 0
 c1909: y_0 + y_39 + y_42 + y_53 + y_55 + y_63 + y_64 - z_1908 >= 0
 c1910: y_3 + y_4 + y_19 + y_33 + y_38 + y_44 + y_90 - z_1909 >= 0
 c1911: y_30 + y_43 + y_52 + y_59 + y_94 - z_1910 >= 0
 c1912: y_24 + y_52 + y_70 + y_86 - z_1911 >= 0
 c1913: y_4 + y_5 + y_6 + y_34 + y_44 + y_90 - z_1912 >= 0
 c1914: y_1 + y_23 + y_31 + y_37 + y_73 + y_89 + y_98 + y_99 - z_1913 >= 0
 c1915: y_3 + y_5 + y_19 + y_33 + y_34 + y_38 + y_44 + y_48 + y_61 + y_79
        - z_1914 >= 0
 c1916: y_1 + y_23 + y_46 + y_49 + y_73 + y_74 + y_75 + y_98 - z_1915 >= 0
 c1917: y_7 + y_31 + y_37 + y_51 + y_89 + y_99 - z_1916 >= 0
 c1918: y_16 + y_25 + y_40 + y_50 + y_54 + y_66 + y_77 + y_87 + y_92 - z_1917
         >= 0
 c1919: y_11 + y_24 + y_52 + y_59 + y_67 + y_68 + y_69 + y_70 + y_86 + y_97
        - z_1918 >= 0
 c1920: y_25 + y_29 + y_77 - z_1919 >= 0
 c1921: y_3 + y_19 + y_21 + y_30 + y_36 + y_41 + y_43 + y_47 + y_48 + y_94
        - z_1920 >= 0
 c1922: y_4 + y_9 + y_26 + y_32 - z_1921 >= 0
 c1923: y_82 + y_83 + y_84 + y_85 - z_1922 >= 0
 c1924: y_3 + y_19 + y_26 + y_33 + y_38 + y_44 + y_67 + y_69 - z_1923 >= 0
 c1925: y_5 + y_6 + y_34 + y_44 + y_90 - z_1924 >= 0
 c1926: y_3 + y_5 + y_33 + y_34 + y_44 + y_48 + y_61 + y_90 + y_93 - z_1925 >= 
        0
 c1927: y_16 + y_17 + y_39 + y_53 + y_58 + y_63 + y_91 - z_1926 >= 0
 c1928: y_25 + y_29 + y_35 + y_77 - z_1927 >= 0
 c1929: y_71 - z_1928 >= 0
 c1930: y_0 + y_27 + y_42 + y_55 + y_63 + y_64 - z_1929 >= 0
 c1931: y_9 + y_12 + y_32 + y_71 + y_88 - z_1930 >= 0
 c1932: y_13 - z_1931 >= 0
 c1933: y_3 + y_19 + y_21 + y_33 + y_38 + y_41 + y_43 + y_48 - z_1932 >= 0
 c1934: y_12 + y_22 + y_32 + y_88 - z_1933 >= 0
 c1935: y_8 + y_17 + y_75 + y_80 + y_96 - z_1934 >= 0
 c1936: y_18 + y_21 + y_36 + y_41 + y_47 - z_1935 >= 0
 c1937: y_5 + y_8 + y_20 + y_34 + y_61 + y_75 + y_80 + y_93 - z_1936 >= 0
 c1938: y_5 + y_17 + y_34 + y_53 + y_58 + y_91 - z_1937 >= 0
 c1939: y_1 + y_23 + y_46 + y_49 + y_73 + y_75 + y_98 + y_99 - z_1938 >= 0
 c1940: y_57 + y_65 + y_72 - z_1939 >= 0
 c1941: y_3 + y_5 + y_20 + y_33 + y_34 + y_44 + y_48 + y_61 + y_79 + y_80 + y_93
        - z_1940 >= 0
 c1942: y_83 + y_84 + y_85 - z_1941 >= 0
 c1943: y_12 + y_71 + y_88 - z_1942 >= 0
 c1944: y_10 + y_13 + y_28 + y_60 + y_76 + y_78 + y_81 - z_1943 >= 0
 c1945: y_1 + y_7 + y_23 + y_31 + y_37 + y_51 + y_62 + y_73 + y_89 + y_98 + y_99
        - z_1944 >= 0
 c1946: y_25 + y_29 + y_35 + y_77 - z_1945 >= 0
 c1947: y_3 + y_19 + y_21 + y_33 + y_38 + y_41 + y_44 + y_47 + y_48 + y_61
        + y_79 - z_1946 >= 0
 c1948: y_9 + y_11 + y_26 + y_67 + y_68 + y_69 + y_97 - z_1947 >= 0
 c1949: y_16 + y_39 + y_53 + y_54 + y_58 + y_63 + y_64 + y_66 + y_91 - z_1948
         >= 0
 c1950: y_10 + y_12 + y_57 + y_72 + y_78 + y_88 - z_1949 >= 0
 c1951: y_9 + y_71 - z_1950 >= 0
 c1952: y_4 + y_6 + y_32 + y_44 + y_90 - z_1951 >= 0
 c1953: y_11 + y_30 + y_43 + y_52 + y_59 + y_68 + y_94 - z_1952 >= 0
 c1954: y_24 + y_30 + y_43 + y_52 + y_59 + y_70 + y_86 - z_1953 >= 0
 c1955: y_0 + y_39 + y_42 + y_53 + y_55 + y_63 + y_64 - z_1954 >= 0
 c1956: y_13 + y_57 + y_60 + y_72 + y_76 + y_78 + y_81 - z_1955 >= 0
 c1957: y_13 + y_28 + y_60 + y_76 - z_1956 >= 0
 c1958: y_22 + y_57 + y_65 + y_72 - z_1957 >= 0
 c1959: y_16 + y_50 + y_56 + y_58 + y_66 - z_1958 >= 0
 c1960: y_22 + y_56 - z_1959 >= 0
 c1961: y_24 + y_30 + y_43 + y_52 + y_59 + y_70 - z_1960 >= 0
 c1962: y_4 + y_6 + y_32 + y_90 - z_1961 >= 0
 c1963: y_0 + y_63 + y_64 - z_1962 >= 0
 c1964: y_12 + y_22 + y_32 + y_88 - z_1963 >= 0
 c1965: y_0 + y_2 + y_27 + y_42 + y_55 + y_64 - z_1964 >= 0
 c1966: y_1 + y_23 + y_46 + y_49 + y_73 + y_74 + y_98 + y_99 - z_1965 >= 0
 c1967: y_83 + y_85 - z_1966 >= 0
 c1968: y_25 + y_29 + y_35 + y_77 - z_1967 >= 0
 c1969: y_37 + y_45 - z_1968 >= 0
 c1970: y_97 - z_1969 >= 0
 c1971: y_10 + y_13 + y_60 + y_76 + y_78 + y_81 - z_1970 >= 0
 c1972: y_2 + y_14 + y_82 + y_83 + y_84 + y_85 - z_1971 >= 0
 c1973: y_13 + y_57 + y_60 + y_65 + y_72 + y_76 + y_78 + y_81 - z_1972 >= 0
 c1974: y_3 + y_5 + y_33 + y_34 + y_44 + y_61 + y_90 - z_1973 >= 0
 c1975: y_15 + y_20 + y_21 + y_33 + y_36 + y_41 + y_47 + y_48 + y_61 + y_79
        + y_80 + y_93 + y_95 - z_1974 >= 0
 c1976: y_9 + y_71 + y_97 - z_1975 >= 0
 c1977: y_0 + y_27 + y_42 + y_55 + y_63 + y_64 - z_1976 >= 0
 c1978: y_4 + y_9 + y_26 + y_32 + y_71 - z_1977 >= 0
 c1979: y_0 + y_27 + y_42 + y_55 + y_64 - z_1978 >= 0
 c1980: y_97 - z_1979 >= 0
 c1981: y_8 + y_15 + y_20 + y_34 + y_46 + y_61 + y_75 + y_80 + y_93 + y_95
        - z_1980 >= 0
 c1982: y_17 + y_39 + y_53 + y_58 + y_91 - z_1981 >= 0
 c1983: y_23 + y_51 + y_98 - z_1982 >= 0
 c1984: y_15 + y_20 + y_21 + y_33 + y_34 + y_41 + y_47 + y_48 + y_61 + y_79
        + y_80 + y_93 + y_95 - z_1983 >= 0
 c1985: y_17 + y_53 + y_58 + y_91 - z_1984 >= 0
 c1986: y_5 + y_34 - z_1985 >= 0
 c1987: y_16 + y_17 + y_39 + y_53 + y_54 + y_58 + y_63 + y_64 + y_91 - z_1986
         >= 0
 c1988: y_1 + y_23 + y_46 + y_49 + y_73 + y_75 + y_98 + y_99 - z_1987 >= 0
 c1989: y_25 + y_29 + y_35 + y_40 + y_50 + y_56 + y_66 + y_77 + y_87 + y_92
        - z_1988 >= 0
 c1990: y_25 + y_29 + y_35 + y_77 - z_1989 >= 0
 c1991: y_45 - z_1990 >= 0
 c1992: y_1 + y_8 + y_20 + y_46 + y_49 + y_75 + y_80 + y_93 + y_95 - z_1991 >= 
        0
 c1993: y_1 + y_7 + y_31 + y_37 + y_73 + y_89 + y_99 - z_1992 >= 0
 c1994: y_3 + y_19 + y_33 + y_38 + y_44 + y_48 + y_61 + y_79 - z_1993 >= 0
 c1995: y_12 + y_57 + y_72 + y_88 - z_1994 >= 0
 c1996: y_3 + y_5 + y_15 + y_19 + y_20 + y_33 + y_34 + y_38 + y_41 + y_44 + y_48
        + y_61 + y_79 + y_93 - z_1995 >= 0
 c1997: y_24 + y_30 + y_43 + y_52 + y_59 + y_70 + y_86 - z_1996 >= 0
 c1998: y_24 + y_30 + y_43 + y_52 + y_59 + y_70 + y_94 - z_1997 >= 0
 c1999: y_37 + y_45 - z_1998 >= 0
 c2000: y_17 + y_96 - z_1999 >= 0
 c2001: y_57 + y_60 + y_65 + y_72 + y_76 + y_78 + y_88 - z_2000 >= 0
 c2002: y_11 + y_43 + y_52 + y_59 + y_67 + y_68 + y_69 + y_97 - z_2001 >= 0
 c2003: y_46 + y_49 + y_74 + y_75 + y_95 - z_2002 >= 0
 c2004: y_16 + y_39 + y_40 + y_54 + y_66 + y_87 + y_92 - z_2003 >= 0
 c2005: y_10 + y_13 + y_28 + y_60 + y_76 + y_78 + y_81 - z_2004 >= 0
 c2006: - z_2005 >= 0
 c2007: y_46 + y_49 + y_74 + y_75 + y_95 - z_2006 >= 0
 c2008: y_96 - z_2007 >= 0
 c2009: y_40 + y_66 + y_87 + y_92 - z_2008 >= 0
 c2010: y_3 + y_19 + y_33 + y_38 + y_43 + y_44 + y_48 + y_69 - z_2009 >= 0
 c2011: y_5 + y_8 + y_15 + y_20 + y_34 + y_61 + y_75 + y_79 + y_80 + y_93
        - z_2010 >= 0
 c2012: y_5 + y_8 + y_20 + y_34 + y_61 + y_80 + y_93 - z_2011 >= 0
 c2013: y_1 + y_8 + y_46 + y_73 + y_75 + y_80 + y_96 - z_2012 >= 0
 c2014: y_5 + y_8 + y_17 + y_34 + y_75 + y_80 + y_93 - z_2013 >= 0
 c2015: y_22 + y_56 - z_2014 >= 0
 c2016: y_4 + y_9 + y_26 + y_32 - z_2015 >= 0
 c2017: y_16 + y_39 + y_53 + y_54 + y_58 + y_63 + y_66 + y_91 - z_2016 >= 0
 c2018: y_22 + y_50 + y_56 + y_65 - z_2017 >= 0
 c2019: y_13 - z_2018 >= 0
 c2020: y_50 + y_56 + y_66 + y_87 - z_2019 >= 0
 c2021: y_9 + y_11 + y_26 + y_38 + y_67 + y_68 + y_69 + y_97 - z_2020 >= 0
 c2022: y_3 + y_11 + y_19 + y_26 + y_33 + y_38 + y_43 + y_52 + y_59 + y_67
        + y_68 + y_69 - z_2021 >= 0
 c2023: y_25 + y_35 + y_77 + y_92 - z_2022 >= 0
 c2024: y_22 + y_56 + y_65 - z_2023 >= 0
 c2025: y_4 + y_9 + y_26 + y_32 + y_67 + y_69 - z_2024 >= 0
 c2026: y_9 + y_11 + y_26 + y_67 + y_68 + y_69 + y_97 - z_2025 >= 0
 c2027: y_3 + y_4 + y_6 + y_19 + y_26 + y_32 + y_33 + y_38 + y_44 + y_90
        - z_2026 >= 0
 c2028: y_29 - z_2027 >= 0
 c2029: y_18 + y_21 + y_30 + y_36 + y_41 + y_47 + y_48 + y_94 - z_2028 >= 0
 c2030: y_1 + y_8 + y_20 + y_46 + y_75 + y_80 + y_93 + y_95 - z_2029 >= 0
 c2031: y_3 + y_19 + y_21 + y_30 + y_33 + y_38 + y_43 + y_48 + y_59 - z_2030
         >= 0
 c2032: y_3 + y_19 + y_21 + y_30 + y_33 + y_36 + y_41 + y_43 + y_47 + y_48
        + y_94 - z_2031 >= 0
 c2033: y_9 + y_11 + y_19 + y_26 + y_38 + y_67 + y_68 + y_69 - z_2032 >= 0
 c2034: y_12 + y_22 + y_57 + y_88 - z_2033 >= 0
 c2035: y_8 + y_17 + y_73 + y_96 - z_2034 >= 0
 c2036: y_8 + y_15 + y_20 + y_46 + y_49 + y_74 + y_75 + y_80 + y_93 + y_95
        - z_2035 >= 0
 c2037: y_3 + y_19 + y_21 + y_33 + y_36 + y_41 + y_43 + y_47 + y_48 + y_79
        + y_94 - z_2036 >= 0
 c2038: y_46 + y_49 + y_74 + y_95 - z_2037 >= 0
 c2039: y_7 + y_23 + y_31 + y_51 + y_62 + y_98 - z_2038 >= 0
 c2040: y_13 - z_2039 >= 0
 c2041: y_16 + y_39 + y_53 + y_54 + y_58 + y_63 + y_66 + y_91 - z_2040 >= 0
 c2042: y_1 + y_23 + y_46 + y_49 + y_74 + y_98 - z_2041 >= 0
 c2043: y_13 + y_28 + y_60 + y_76 + y_78 + y_81 - z_2042 >= 0
 c2044: y_0 + y_27 + y_42 - z_2043 >= 0
 c2045: y_9 + y_71 - z_2044 >= 0
 c2046: y_12 + y_22 + y_57 + y_72 + y_78 + y_88 - z_2045 >= 0
 c2047: y_6 + y_58 + y_90 + y_91 - z_2046 >= 0
 c2048: y_4 + y_9 + y_26 + y_32 + y_67 + y_69 - z_2047 >= 0
 c2049: y_12 + y_22 + y_57 + y_72 + y_88 - z_2048 >= 0
 c2050: y_24 + y_70 + y_86 - z_2049 >= 0
 c2051: y_37 + y_45 - z_2050 >= 0
 c2052: y_0 + y_16 + y_39 + y_42 + y_53 + y_54 + y_55 + y_63 + y_64 - z_2051
         >= 0
 c2053: y_58 + y_91 - z_2052 >= 0
 c2054: y_6 + y_22 - z_2053 >= 0
 c2055: y_4 + y_5 + y_6 + y_32 + y_44 + y_90 - z_2054 >= 0
 c2056: y_15 + y_18 + y_21 + y_36 + y_41 + y_47 + y_79 - z_2055 >= 0
 c2057: y_2 + y_14 + y_27 + y_82 + y_83 - z_2056 >= 0
 c2058: y_7 + y_23 + y_31 + y_51 + y_62 + y_89 + y_98 + y_99 - z_2057 >= 0
 c2059: y_3 + y_19 + y_21 + y_33 + y_38 + y_41 + y_43 + y_44 + y_48 - z_2058
         >= 0
 c2060: y_22 + y_57 + y_65 - z_2059 >= 0
 c2061: y_6 + y_58 + y_90 - z_2060 >= 0
 c2062: y_1 + y_46 + y_49 + y_74 + y_75 + y_80 + y_95 - z_2061 >= 0
 c2063: y_7 + y_23 + y_31 + y_51 + y_62 + y_89 + y_98 + y_99 - z_2062 >= 0
 c2064: y_25 + y_29 + y_35 + y_50 + y_56 + y_77 + y_87 - z_2063 >= 0
 c2065: y_4 + y_6 + y_12 + y_22 + y_32 + y_88 - z_2064 >= 0
 c2066: y_2 + y_14 + y_82 - z_2065 >= 0
 c2067: y_9 + y_11 + y_26 + y_67 + y_68 + y_69 + y_97 - z_2066 >= 0
 c2068: y_5 + y_17 + y_34 + y_91 - z_2067 >= 0
 c2069: y_11 + y_24 + y_43 + y_52 + y_59 + y_68 + y_70 + y_86 - z_2068 >= 0
 c2070: y_45 - z_2069 >= 0
 c2071: y_6 + y_58 + y_91 - z_2070 >= 0
 c2072: y_58 - z_2071 >= 0
 c2073: y_16 + y_39 + y_53 + y_54 + y_55 + y_58 + y_63 + y_64 + y_66 - z_2072
         >= 0
 c2074: y_21 + y_30 + y_36 + y_43 + y_47 + y_94 - z_2073 >= 0
 c2075: y_9 + y_26 + y_67 + y_69 - z_2074 >= 0
 c2076: y_4 + y_6 + y_32 + y_44 + y_90 - z_2075 >= 0
 c2077: y_24 + y_52 + y_59 + y_70 + y_86 - z_2076 >= 0
 c2078: y_25 + y_29 + y_35 + y_77 - z_2077 >= 0
 c2079: y_1 + y_7 + y_23 + y_31 + y_51 + y_62 + y_89 + y_98 + y_99 - z_2078 >= 
        0
 c2080: y_13 + y_28 + y_60 + y_76 + y_78 + y_81 - z_2079 >= 0
 c2081: y_25 + y_29 + y_50 + y_56 + y_77 - z_2080 >= 0
 c2082: y_4 + y_6 + y_32 + y_90 - z_2081 >= 0
 c2083: y_1 + y_7 + y_23 + y_31 + y_51 + y_62 + y_89 + y_98 + y_99 - z_2082 >= 
        0
 c2084: y_24 + y_52 + y_59 + y_70 + y_86 - z_2083 >= 0
 c2085: y_83 + y_85 + y_92 - z_2084 >= 0
 c2086: y_50 + y_56 + y_66 - z_2085 >= 0
 c2087: y_15 + y_18 + y_20 + y_21 + y_36 + y_41 + y_47 + y_48 + y_61 + y_79
        + y_95 - z_2086 >= 0
 c2088: y_25 + y_40 + y_54 + y_66 + y_77 + y_87 + y_92 - z_2087 >= 0
 c2089: y_30 + y_43 + y_52 + y_59 + y_94 - z_2088 >= 0
 c2090: y_12 + y_57 + y_88 - z_2089 >= 0
 c2091: y_17 + y_39 + y_53 + y_58 + y_63 + y_91 - z_2090 >= 0
 c2092: y_37 + y_45 - z_2091 >= 0
 c2093: y_58 - z_2092 >= 0
 c2094: y_16 + y_39 + y_40 + y_54 + y_55 + y_63 + y_64 + y_66 + y_87 - z_2093
         >= 0
 c2095: y_3 + y_19 + y_33 + y_38 + y_43 + y_44 + y_48 + y_69 - z_2094 >= 0
 c2096: y_3 + y_5 + y_19 + y_33 + y_34 + y_38 + y_44 + y_48 + y_61 + y_90
        - z_2095 >= 0
 c2097: y_37 + y_45 + y_73 + y_89 + y_99 - z_2096 >= 0
 c2098: y_9 + y_11 + y_19 + y_26 + y_38 + y_67 + y_68 + y_69 - z_2097 >= 0
 c2099: y_16 + y_39 + y_50 + y_54 + y_63 + y_66 + y_87 - z_2098 >= 0
 c2100: y_0 + y_16 + y_39 + y_42 + y_53 + y_54 + y_55 + y_63 + y_64 - z_2099
         >= 0
 c2101: y_56 + y_65 - z_2100 >= 0
 c2102: y_8 + y_15 + y_20 + y_46 + y_49 + y_61 + y_75 + y_80 + y_93 + y_95
        - z_2101 >= 0
 c2103: y_10 + y_57 + y_60 + y_72 + y_76 + y_78 + y_81 - z_2102 >= 0
 c2104: y_2 + y_14 + y_27 + y_82 - z_2103 >= 0
 c2105: y_13 + y_60 + y_76 - z_2104 >= 0
 c2106: y_1 + y_8 + y_20 + y_46 + y_75 + y_80 + y_93 + y_95 - z_2105 >= 0
 c2107: y_5 + y_17 + y_34 - z_2106 >= 0
 c2108: y_18 + y_21 + y_36 + y_41 + y_47 + y_48 + y_79 + y_94 - z_2107 >= 0
 c2109: y_83 + y_84 + y_85 - z_2108 >= 0
 c2110: y_22 + y_57 + y_65 + y_72 + y_88 - z_2109 >= 0
 c2111: y_45 + y_73 + y_96 - z_2110 >= 0
 c2112: y_37 + y_45 + y_89 - z_2111 >= 0
 c2113: y_65 - z_2112 >= 0
 c2114: y_15 + y_18 + y_21 + y_36 + y_41 + y_47 + y_48 + y_79 + y_95 - z_2113
         >= 0
 c2115: y_25 + y_29 + y_50 + y_56 + y_77 - z_2114 >= 0
 c2116: y_3 + y_19 + y_26 + y_33 + y_38 + y_43 + y_44 + y_48 + y_67 + y_69
        - z_2115 >= 0
 c2117: y_3 + y_19 + y_21 + y_30 + y_36 + y_41 + y_43 + y_47 + y_48 + y_94
        - z_2116 >= 0
 c2118: y_16 + y_39 + y_53 + y_54 + y_58 + y_63 + y_66 + y_91 - z_2117 >= 0
 c2119: y_4 + y_9 + y_26 + y_32 + y_71 - z_2118 >= 0
 c2120: y_16 + y_39 + y_53 + y_54 + y_55 + y_58 + y_63 + y_64 + y_66 - z_2119
         >= 0
 c2121: y_16 + y_39 + y_53 + y_54 + y_58 + y_63 + y_64 + y_66 + y_87 - z_2120
         >= 0
 c2122: y_10 + y_13 + y_60 + y_72 + y_76 + y_78 + y_81 - z_2121 >= 0
 c2123: y_0 + y_45 - z_2122 >= 0
 c2124: y_11 + y_24 + y_43 + y_52 + y_59 + y_68 + y_70 + y_86 - z_2123 >= 0
 c2125: y_16 + y_39 + y_53 + y_54 + y_58 + y_63 + y_66 + y_91 - z_2124 >= 0
 c2126: y_12 + y_22 + y_57 + y_88 - z_2125 >= 0
 c2127: y_2 + y_14 + y_82 + y_83 + y_84 + y_85 - z_2126 >= 0
 c2128: y_10 + y_57 + y_60 + y_72 + y_76 + y_78 + y_81 - z_2127 >= 0
 c2129: y_4 + y_6 + y_32 + y_90 - z_2128 >= 0
 c2130: y_9 + y_11 + y_26 + y_38 + y_67 + y_68 + y_69 + y_97 - z_2129 >= 0
 c2131: y_0 + y_17 + y_39 + y_53 + y_63 + y_64 + y_91 - z_2130 >= 0
 c2132: y_25 + y_29 + y_35 + y_77 - z_2131 >= 0
 c2133: y_29 - z_2132 >= 0
 c2134: y_6 + y_90 - z_2133 >= 0
 c2135: y_25 + y_35 + y_40 + y_77 + y_87 + y_92 - z_2134 >= 0
 c2136: y_0 + y_27 + y_42 + y_55 + y_64 - z_2135 >= 0
 c2137: y_3 + y_19 + y_21 + y_33 + y_36 + y_41 + y_43 + y_47 + y_48 + y_79
        + y_94 - z_2136 >= 0
 c2138: y_50 + y_56 + y_66 - z_2137 >= 0
 c2139: y_4 + y_5 + y_6 + y_32 + y_44 + y_90 - z_2138 >= 0
 c2140: y_11 + y_24 + y_30 + y_43 + y_52 + y_59 + y_68 + y_70 - z_2139 >= 0
 c2141: y_0 + y_2 + y_27 + y_42 + y_55 - z_2140 >= 0
 c2142: y_3 + y_19 + y_21 + y_33 + y_38 + y_41 + y_43 + y_48 - z_2141 >= 0
 c2143: y_6 + y_58 + y_91 - z_2142 >= 0
 c2144: y_11 + y_26 + y_67 + y_68 + y_69 + y_97 - z_2143 >= 0
 c2145: y_2 + y_14 + y_27 + y_82 + y_83 - z_2144 >= 0
 c2146: y_5 + y_20 + y_33 + y_34 + y_44 + y_61 + y_80 + y_93 - z_2145 >= 0
 c2147: y_46 + y_49 + y_74 + y_95 - z_2146 >= 0
 c2148: y_23 + y_46 + y_49 + y_74 - z_2147 >= 0
 c2149: y_13 + y_28 + y_60 + y_76 + y_78 + y_81 - z_2148 >= 0
 c2150: y_3 + y_5 + y_20 + y_33 + y_34 + y_44 + y_48 + y_61 + y_79 + y_93
        - z_2149 >= 0
 c2151: y_10 + y_13 + y_57 + y_60 + y_72 + y_76 + y_78 + y_81 - z_2150 >= 0
 c2152: y_45 - z_2151 >= 0
 c2153: y_12 + y_71 + y_88 - z_2152 >= 0
 c2154: y_0 + y_17 + y_53 + y_63 + y_64 - z_2153 >= 0
 c2155: y_7 + y_31 + y_51 + y_62 + y_89 + y_98 + y_99 - z_2154 >= 0
 c2156: y_3 + y_15 + y_18 + y_21 + y_33 + y_36 + y_41 + y_47 + y_48 + y_61
        + y_79 - z_2155 >= 0
 c2157: y_3 + y_11 + y_19 + y_26 + y_38 + y_44 + y_67 + y_68 + y_69 - z_2156
         >= 0
 c2158: y_1 + y_8 + y_73 + y_75 + y_80 + y_96 - z_2157 >= 0
 c2159: y_11 + y_26 + y_43 + y_52 + y_59 + y_67 + y_68 + y_69 + y_97 - z_2158
         >= 0
 c2160: y_25 + y_29 + y_35 + y_50 + y_56 + y_77 - z_2159 >= 0
 c2161: y_24 + y_52 + y_59 + y_70 + y_86 - z_2160 >= 0
 c2162: y_1 + y_8 + y_73 + y_96 - z_2161 >= 0
 c2163: y_0 + y_27 + y_42 - z_2162 >= 0
 c2164: y_23 + y_46 + y_49 + y_74 + y_95 - z_2163 >= 0
 c2165: y_25 + y_29 + y_35 + y_50 + y_56 + y_66 + y_77 + y_87 - z_2164 >= 0
 c2166: y_8 + y_20 + y_34 + y_75 + y_80 + y_93 + y_96 - z_2165 >= 0
 c2167: y_4 + y_5 + y_6 + y_32 + y_44 + y_90 - z_2166 >= 0
 c2168: y_12 + y_32 + y_71 + y_88 - z_2167 >= 0
 c2169: y_24 + y_70 + y_86 - z_2168 >= 0
 c2170: y_7 + y_31 + y_51 + y_62 + y_98 - z_2169 >= 0
 c2171: y_0 + y_27 + y_42 + y_55 + y_63 + y_64 - z_2170 >= 0
 c2172: y_83 + y_85 - z_2171 >= 0
 c2173: y_9 + y_71 - z_2172 >= 0
 c2174: y_16 + y_40 + y_42 + y_54 + y_55 + y_64 - z_2173 >= 0
 c2175: y_56 + y_65 - z_2174 >= 0
 c2176: y_22 + y_65 - z_2175 >= 0
 c2177: y_13 + y_28 + y_60 + y_72 + y_76 + y_78 + y_81 - z_2176 >= 0
 c2178: y_24 + y_70 + y_86 - z_2177 >= 0
 c2179: y_8 + y_15 + y_20 + y_34 + y_46 + y_61 + y_75 + y_80 + y_93 - z_2178
         >= 0
 c2180: y_2 + y_14 + y_82 + y_83 + y_84 + y_85 - z_2179 >= 0
 c2181: y_0 + y_45 - z_2180 >= 0
 c2182: y_2 + y_40 + y_42 + y_55 + y_83 - z_2181 >= 0
 c2183: y_24 + y_30 + y_43 + y_52 + y_59 + y_70 + y_86 - z_2182 >= 0
 c2184: y_40 + y_87 + y_92 - z_2183 >= 0
 c2185: y_37 + y_45 + y_73 + y_96 - z_2184 >= 0
 c2186: y_9 + y_11 + y_26 + y_67 + y_68 + y_69 + y_97 - z_2185 >= 0
 c2187: y_7 + y_31 + y_51 + y_62 + y_89 - z_2186 >= 0
 c2188: y_40 + y_85 + y_92 - z_2187 >= 0
 c2189: y_5 + y_6 + y_58 + y_90 + y_91 - z_2188 >= 0
 c2190: y_3 + y_19 + y_21 + y_33 + y_38 + y_41 + y_44 + y_48 + y_79 - z_2189
         >= 0
 c2191: y_1 + y_8 + y_73 + y_75 + y_80 + y_96 - z_2190 >= 0
 c2192: y_11 + y_26 + y_52 + y_59 + y_67 + y_68 + y_69 + y_97 - z_2191 >= 0
 c2193: y_2 + y_55 + y_83 + y_85 - z_2192 >= 0
 c2194: y_0 + y_27 + y_42 + y_53 + y_55 + y_63 + y_64 - z_2193 >= 0
 c2195: y_37 + y_45 + y_73 + y_89 + y_99 - z_2194 >= 0
 c2196: y_8 + y_15 + y_20 + y_34 + y_46 + y_61 + y_75 + y_79 + y_80 + y_93
        + y_95 - z_2195 >= 0
 c2197: y_12 + y_22 + y_57 + y_88 - z_2196 >= 0
 c2198: y_14 + y_27 - z_2197 >= 0
 c2199: y_3 + y_4 + y_5 + y_19 + y_33 + y_38 + y_44 + y_90 - z_2198 >= 0
 c2200: y_50 + y_56 + y_66 + y_87 - z_2199 >= 0
 c2201: y_4 + y_6 + y_26 + y_32 + y_90 - z_2200 >= 0
 c2202: y_0 + y_2 + y_14 + y_27 + y_42 + y_55 + y_82 - z_2201 >= 0
 c2203: y_5 + y_20 + y_34 + y_44 + y_61 + y_80 + y_93 - z_2202 >= 0
 c2204: y_18 + y_21 + y_36 + y_41 + y_47 + y_48 + y_94 - z_2203 >= 0
 c2205: y_9 + y_11 + y_26 + y_38 + y_67 + y_68 + y_69 + y_97 - z_2204 >= 0
 c2206: y_1 + y_8 + y_23 + y_46 + y_49 + y_73 + y_75 - z_2205 >= 0
 c2207: y_3 + y_15 + y_18 + y_20 + y_21 + y_33 + y_36 + y_41 + y_47 + y_48
        + y_61 + y_79 + y_93 - z_2206 >= 0
 c2208: y_16 + y_39 + y_40 + y_54 + y_63 + y_66 + y_87 - z_2207 >= 0
 c2209: y_12 + y_71 + y_88 - z_2208 >= 0
 c2210: y_23 + y_46 + y_49 + y_74 + y_98 - z_2209 >= 0
 c2211: y_10 + y_57 + y_72 + y_76 + y_78 + y_81 + y_88 - z_2210 >= 0
 c2212: y_16 + y_39 + y_42 + y_53 + y_54 + y_55 + y_63 + y_64 - z_2211 >= 0
 c2213: y_8 + y_75 + y_80 + y_93 + y_96 - z_2212 >= 0
 c2214: y_46 + y_49 + y_74 - z_2213 >= 0
 c2215: y_29 + y_56 + y_65 - z_2214 >= 0
 c2216: y_4 + y_9 + y_26 + y_32 + y_38 + y_44 + y_67 + y_69 - z_2215 >= 0
 c2217: y_40 + y_87 + y_92 - z_2216 >= 0
 c2218: y_2 + y_14 + y_82 + y_83 + y_85 - z_2217 >= 0
 c2219: y_0 + y_27 + y_42 + y_55 + y_63 + y_64 - z_2218 >= 0
 c2220: y_11 + y_24 + y_30 + y_43 + y_52 + y_59 + y_70 + y_86 - z_2219 >= 0
 c2221: y_11 + y_24 + y_52 + y_68 + y_70 + y_86 + y_97 - z_2220 >= 0
 c2222: y_0 + y_17 + y_53 + y_63 + y_64 - z_2221 >= 0
 c2223: y_16 + y_39 + y_53 + y_54 + y_55 + y_58 + y_63 + y_64 + y_91 - z_2222
         >= 0
 c2224: y_1 + y_8 + y_73 + y_75 + y_96 - z_2223 >= 0
 c2225: y_0 + y_42 + y_53 + y_55 + y_63 + y_64 - z_2224 >= 0
 c2226: y_1 + y_46 + y_49 + y_74 + y_75 + y_80 + y_95 - z_2225 >= 0
 c2227: y_0 + y_16 + y_39 + y_42 + y_53 + y_54 + y_55 + y_63 + y_64 - z_2226
         >= 0
 c2228: y_12 + y_22 + y_57 + y_72 + y_88 - z_2227 >= 0
 c2229: y_11 + y_24 + y_52 + y_59 + y_67 + y_68 + y_69 + y_70 + y_86 + y_97
        - z_2228 >= 0
 c2230: y_6 + y_22 + y_90 - z_2229 >= 0
 c2231: y_45 - z_2230 >= 0
 c2232: y_9 + y_11 + y_26 + y_67 + y_68 + y_69 + y_97 - z_2231 >= 0
 c2233: y_92 - z_2232 >= 0
 c2234: y_0 + y_45 - z_2233 >= 0
 c2235: y_21 + y_30 + y_36 + y_47 + y_94 - z_2234 >= 0
 c2236: y_58 - z_2235 >= 0
 c2237: y_2 + y_27 + y_42 + y_55 + y_83 - z_2236 >= 0
 c2238: y_0 + y_45 - z_2237 >= 0
 c2239: y_5 + y_8 + y_17 + y_34 + y_91 + y_96 - z_2238 >= 0
 c2240: y_12 + y_22 + y_57 + y_88 - z_2239 >= 0
 c2241: y_11 + y_24 + y_52 + y_59 + y_68 + y_70 + y_86 - z_2240 >= 0
 c2242: y_3 + y_11 + y_19 + y_26 + y_33 + y_38 + y_43 + y_44 + y_67 + y_68
        + y_69 - z_2241 >= 0
 c2243: y_4 + y_6 + y_12 + y_22 + y_32 + y_88 - z_2242 >= 0
 c2244: y_12 + y_57 + y_72 + y_88 - z_2243 >= 0
 c2245: y_4 + y_6 + y_32 + y_90 - z_2244 >= 0
 c2246: y_0 + y_27 + y_42 + y_55 + y_64 - z_2245 >= 0
 c2247: y_11 + y_24 + y_43 + y_52 + y_59 + y_68 + y_70 + y_86 - z_2246 >= 0
 c2248: y_7 + y_31 + y_37 + y_51 + y_62 + y_89 + y_99 - z_2247 >= 0
 c2249: y_7 + y_23 + y_31 + y_37 + y_51 + y_62 + y_89 + y_98 + y_99 - z_2248
         >= 0
 c2250: y_22 + y_56 + y_65 - z_2249 >= 0
 c2251: y_1 + y_23 + y_31 + y_37 + y_73 + y_89 + y_98 + y_99 - z_2250 >= 0
 c2252: y_8 + y_20 + y_34 + y_75 + y_80 + y_93 + y_96 - z_2251 >= 0
 c2253: y_71 - z_2252 >= 0
 c2254: y_4 + y_9 + y_26 + y_32 + y_38 + y_67 + y_69 - z_2253 >= 0
 c2255: y_12 + y_71 + y_88 - z_2254 >= 0
 c2256: y_13 + y_28 + y_60 + y_76 + y_78 + y_81 - z_2255 >= 0
 c2257: y_22 + y_57 + y_65 + y_72 - z_2256 >= 0
 c2258: y_45 + y_96 - z_2257 >= 0
 c2259: y_23 + y_46 + y_49 + y_74 + y_98 - z_2258 >= 0
 c2260: y_83 + y_84 + y_85 - z_2259 >= 0
 c2261: y_5 + y_15 + y_20 + y_33 + y_34 + y_44 + y_48 + y_61 + y_79 + y_80
        + y_93 - z_2260 >= 0
 c2262: y_4 + y_6 + y_26 + y_32 + y_44 + y_90 - z_2261 >= 0
 c2263: y_16 + y_39 + y_40 + y_54 + y_63 + y_66 + y_87 - z_2262 >= 0
 c2264: y_4 + y_5 + y_6 + y_32 + y_90 - z_2263 >= 0
 c2265: y_9 + y_11 + y_26 + y_67 + y_68 + y_69 + y_97 - z_2264 >= 0
 c2266: y_23 + y_49 + y_74 + y_98 - z_2265 >= 0
 c2267: y_39 + y_53 + y_58 + y_91 - z_2266 >= 0
 c2268: y_17 + y_53 + y_91 + y_96 - z_2267 >= 0
 c2269: y_1 + y_7 + y_23 + y_31 + y_37 + y_51 + y_62 + y_73 + y_89 + y_98 + y_99
        - z_2268 >= 0
 c2270: y_24 + y_30 + y_43 + y_52 + y_59 + y_70 + y_94 - z_2269 >= 0
 c2271: y_57 + y_65 + y_72 - z_2270 >= 0
 c2272: y_9 + y_71 - z_2271 >= 0
 c2273: y_15 + y_18 + y_21 + y_36 + y_41 + y_47 + y_48 + y_79 + y_95 - z_2272
         >= 0
 c2274: y_10 + y_13 + y_57 + y_60 + y_72 + y_76 + y_78 + y_81 - z_2273 >= 0
 c2275: y_83 + y_84 + y_85 - z_2274 >= 0
 c2276: y_12 + y_22 + y_57 + y_88 - z_2275 >= 0
 c2277: y_0 + y_17 + y_96 - z_2276 >= 0
 c2278: y_0 + y_27 + y_42 - z_2277 >= 0
 c2279: y_0 + y_27 + y_42 + y_55 + y_63 + y_64 - z_2278 >= 0
 c2280: y_7 + y_23 + y_31 + y_51 + y_62 + y_89 + y_98 + y_99 - z_2279 >= 0
 c2281: y_9 + y_11 + y_26 + y_67 + y_68 + y_69 + y_97 - z_2280 >= 0
 c2282: y_37 + y_45 + y_96 - z_2281 >= 0
 c2283: y_9 + y_12 + y_32 + y_71 - z_2282 >= 0
 c2284: y_13 + y_28 + y_60 + y_76 - z_2283 >= 0
 c2285: y_22 + y_65 - z_2284 >= 0
 c2286: y_37 + y_45 - z_2285 >= 0
 c2287: y_25 + y_29 + y_35 + y_77 - z_2286 >= 0
 c2288: y_13 + y_28 + y_60 + y_76 - z_2287 >= 0
 c2289: y_2 + y_14 + y_27 + y_42 + y_82 - z_2288 >= 0
 c2290: y_3 + y_11 + y_19 + y_30 + y_38 + y_43 + y_48 + y_52 + y_59 + y_69
        - z_2289 >= 0
 c2291: y_4 + y_6 + y_22 + y_32 + y_90 - z_2290 >= 0
 c2292: y_13 + y_60 + y_72 + y_76 - z_2291 >= 0
 c2293: y_2 + y_14 + y_82 + y_83 + y_84 - z_2292 >= 0
 c2294: y_15 + y_20 + y_33 + y_34 + y_41 + y_48 + y_61 + y_75 + y_79 + y_80
        + y_93 + y_95 - z_2293 >= 0
 c2295: y_39 + y_53 + y_58 + y_91 - z_2294 >= 0
 c2296: y_8 + y_17 + y_96 - z_2295 >= 0
 c2297: y_4 + y_9 + y_26 + y_32 + y_71 - z_2296 >= 0
 c2298: y_12 + y_22 + y_57 + y_65 + y_72 + y_78 + y_88 - z_2297 >= 0
 c2299: y_10 + y_12 + y_57 + y_72 + y_88 - z_2298 >= 0
 c2300: y_4 + y_6 + y_22 + y_32 + y_90 - z_2299 >= 0
 c2301: y_16 + y_39 + y_40 + y_54 + y_55 + y_63 + y_64 + y_66 + y_87 - z_2300
         >= 0
 c2302: y_10 + y_57 + y_60 + y_72 + y_76 + y_78 + y_81 - z_2301 >= 0
 c2303: y_22 + y_57 + y_65 + y_72 - z_2302 >= 0
 c2304: y_22 + y_57 + y_65 + y_72 - z_2303 >= 0
 c2305: y_5 + y_17 + y_34 + y_91 - z_2304 >= 0
 c2306: y_11 + y_24 + y_52 + y_59 + y_67 + y_68 + y_69 + y_70 + y_86 + y_97
        - z_2305 >= 0
 c2307: y_10 + y_78 - z_2306 >= 0
 c2308: y_83 + y_84 + y_85 - z_2307 >= 0
 c2309: y_58 + y_91 - z_2308 >= 0
 c2310: y_85 + y_92 - z_2309 >= 0
 c2311: y_0 + y_27 + y_45 - z_2310 >= 0
 c2312: y_25 + y_35 + y_77 + y_92 - z_2311 >= 0
 c2313: y_11 + y_52 + y_67 + y_68 + y_69 + y_86 + y_97 - z_2312 >= 0
 c2314: y_65 + y_72 - z_2313 >= 0
 c2315: y_4 + y_9 + y_26 + y_32 + y_71 - z_2314 >= 0
 c2316: y_8 + y_15 + y_20 + y_46 + y_49 + y_61 + y_74 + y_75 + y_80 + y_93
        + y_95 - z_2315 >= 0
 c2317: y_1 + y_37 + y_73 + y_96 - z_2316 >= 0
 c2318: y_10 + y_13 + y_28 + y_60 + y_72 + y_76 + y_78 + y_81 - z_2317 >= 0
 c2319: y_0 + y_27 + y_42 + y_55 - z_2318 >= 0
 c2320: y_6 + y_22 - z_2319 >= 0
 c2321: y_0 + y_45 - z_2320 >= 0
 c2322: y_30 + y_43 + y_52 + y_59 + y_94 - z_2321 >= 0
 c2323: y_2 + y_40 + y_55 + y_83 + y_85 + y_92 - z_2322 >= 0
 c2324: y_10 + y_78 - z_2323 >= 0
 c2325: y_8 + y_15 + y_20 + y_46 + y_49 + y_61 + y_75 + y_80 + y_93 + y_95
        - z_2324 >= 0
 c2326: y_4 + y_6 + y_22 + y_32 + y_90 - z_2325 >= 0
 c2327: y_21 + y_30 + y_43 + y_52 + y_59 + y_94 - z_2326 >= 0
 c2328: y_16 + y_50 + y_54 + y_56 + y_58 + y_66 - z_2327 >= 0
 c2329: y_1 + y_8 + y_46 + y_73 + y_75 - z_2328 >= 0
 c2330: y_15 + y_18 + y_20 + y_21 + y_36 + y_41 + y_47 + y_48 + y_61 + y_79
        + y_93 + y_95 - z_2329 >= 0
 c2331: y_29 - z_2330 >= 0
 c2332: y_40 + y_54 + y_66 + y_87 + y_92 - z_2331 >= 0
 c2333: y_1 + y_8 + y_23 + y_46 + y_49 + y_73 + y_75 + y_99 - z_2332 >= 0
 c2334: y_3 + y_4 + y_6 + y_19 + y_26 + y_32 + y_33 + y_38 + y_44 + y_90
        - z_2333 >= 0
 c2335: y_9 + y_11 + y_19 + y_26 + y_38 + y_67 + y_68 + y_69 - z_2334 >= 0
 c2336: y_10 + y_13 + y_28 + y_60 + y_76 + y_78 + y_81 - z_2335 >= 0
 c2337: y_12 + y_22 + y_57 + y_65 + y_72 + y_88 - z_2336 >= 0
 c2338: y_13 + y_28 + y_60 + y_76 - z_2337 >= 0
 c2339: y_25 + y_29 + y_35 + y_50 + y_56 + y_77 - z_2338 >= 0
 c2340: - z_2339 >= 0
 c2341: y_37 + y_45 - z_2340 >= 0
 c2342: y_16 + y_25 + y_40 + y_50 + y_54 + y_56 + y_66 + y_77 + y_87 - z_2341
         >= 0
 c2343: y_25 + y_29 + y_35 + y_77 - z_2342 >= 0
 c2344: y_16 + y_50 + y_54 + y_56 + y_66 + y_87 - z_2343 >= 0
 c2345: y_23 + y_98 - z_2344 >= 0
 c2346: y_10 + y_13 + y_57 + y_60 + y_72 + y_76 + y_78 + y_81 - z_2345 >= 0
 c2347: y_11 + y_24 + y_52 + y_59 + y_67 + y_68 + y_69 + y_70 + y_86 + y_97
        - z_2346 >= 0
 c2348: y_3 + y_19 + y_21 + y_33 + y_38 + y_41 + y_43 + y_44 + y_48 + y_79
        - z_2347 >= 0
 c2349: y_5 + y_8 + y_17 + y_20 + y_34 + y_75 + y_80 + y_93 - z_2348 >= 0
 c2350: y_3 + y_15 + y_20 + y_21 + y_33 + y_34 + y_41 + y_48 + y_61 + y_79
        + y_80 + y_93 - z_2349 >= 0
 c2351: y_4 + y_6 + y_32 + y_90 - z_2350 >= 0
 c2352: y_45 - z_2351 >= 0
 c2353: y_85 + y_92 - z_2352 >= 0
 c2354: y_16 + y_39 + y_40 + y_50 + y_54 + y_56 + y_66 + y_87 - z_2353 >= 0
 c2355: y_11 + y_24 + y_43 + y_52 + y_59 + y_68 + y_70 + y_86 - z_2354 >= 0
 c2356: - z_2355 >= 0
 c2357: y_15 + y_18 + y_20 + y_21 + y_36 + y_41 + y_46 + y_47 + y_48 + y_61
        + y_79 + y_80 + y_93 + y_95 - z_2356 >= 0
 c2358: y_13 + y_28 + y_60 + y_76 - z_2357 >= 0
 c2359: y_37 + y_45 + y_73 + y_89 + y_99 - z_2358 >= 0
 c2360: y_3 + y_19 + y_26 + y_33 + y_38 + y_44 + y_48 + y_69 - z_2359 >= 0
 c2361: y_17 + y_39 + y_53 + y_55 + y_63 + y_64 + y_91 - z_2360 >= 0
 c2362: y_1 + y_31 + y_37 + y_73 + y_89 + y_99 - z_2361 >= 0
 c2363: y_13 + y_57 + y_65 + y_72 - z_2362 >= 0
 c2364: y_8 + y_15 + y_20 + y_46 + y_49 + y_61 + y_75 + y_79 + y_80 + y_93
        + y_95 - z_2363 >= 0
 c2365: y_83 + y_84 + y_85 - z_2364 >= 0
 c2366: y_16 + y_39 + y_40 + y_50 + y_54 + y_66 + y_87 - z_2365 >= 0
 c2367: y_5 + y_17 + y_53 + y_58 + y_91 - z_2366 >= 0
 c2368: y_0 + y_27 + y_42 + y_55 + y_63 + y_64 - z_2367 >= 0
 c2369: y_16 + y_39 + y_53 + y_54 + y_58 + y_91 - z_2368 >= 0
 c2370: y_5 + y_8 + y_17 + y_34 + y_80 + y_93 - z_2369 >= 0
 c2371: y_3 + y_19 + y_21 + y_30 + y_43 + y_48 + y_52 + y_59 + y_94 - z_2370
         >= 0
 c2372: y_8 + y_15 + y_20 + y_46 + y_49 + y_75 + y_80 + y_93 + y_95 - z_2371
         >= 0
 c2373: y_1 + y_23 + y_46 + y_49 + y_73 + y_75 + y_98 + y_99 - z_2372 >= 0
 c2374: y_37 + y_45 + y_73 + y_96 - z_2373 >= 0
 c2375: y_25 + y_29 + y_35 + y_50 + y_56 + y_66 + y_77 + y_87 - z_2374 >= 0
 c2376: y_22 + y_50 + y_56 + y_65 - z_2375 >= 0
 c2377: y_16 + y_40 + y_50 + y_54 + y_56 + y_66 + y_87 - z_2376 >= 0
 c2378: y_11 + y_68 + y_86 + y_97 - z_2377 >= 0
 c2379: y_5 + y_6 + y_34 + y_44 + y_90 - z_2378 >= 0
 c2380: y_16 + y_39 + y_40 + y_54 + y_63 + y_64 + y_66 + y_87 - z_2379 >= 0
 c2381: y_16 + y_39 + y_40 + y_54 + y_63 + y_66 + y_87 - z_2380 >= 0
 c2382: y_16 + y_25 + y_50 + y_54 + y_56 + y_66 + y_77 + y_87 - z_2381 >= 0
 c2383: y_0 + y_27 + y_42 + y_55 + y_63 + y_64 - z_2382 >= 0
 c2384: y_16 + y_39 + y_50 + y_54 + y_56 + y_58 + y_66 + y_87 - z_2383 >= 0
 c2385: y_40 + y_87 + y_92 - z_2384 >= 0
 c2386: y_7 + y_23 + y_31 + y_51 + y_62 + y_98 - z_2385 >= 0
 c2387: y_9 + y_71 - z_2386 >= 0
 c2388: y_1 + y_73 + y_75 + y_99 - z_2387 >= 0
 c2389: y_4 + y_5 + y_6 + y_33 + y_34 + y_44 + y_90 - z_2388 >= 0
 c2390: y_15 + y_18 + y_21 + y_36 + y_41 + y_47 + y_48 + y_79 + y_94 - z_2389
         >= 0
 c2391: y_1 + y_73 + y_75 + y_99 - z_2390 >= 0
 c2392: y_12 + y_22 + y_57 + y_72 + y_88 - z_2391 >= 0
 c2393: y_10 + y_13 + y_60 + y_76 + y_78 + y_81 - z_2392 >= 0
 c2394: y_12 + y_71 + y_88 - z_2393 >= 0
 c2395: y_1 + y_8 + y_46 + y_73 + y_75 + y_96 + y_99 - z_2394 >= 0
 c2396: y_0 + y_39 + y_42 + y_53 + y_55 + y_63 + y_64 - z_2395 >= 0
 c2397: y_10 + y_76 + y_78 + y_81 - z_2396 >= 0
 c2398: y_8 + y_15 + y_20 + y_46 + y_49 + y_61 + y_75 + y_80 + y_93 + y_95
        - z_2397 >= 0
 c2399: y_16 + y_25 + y_35 + y_40 + y_50 + y_54 + y_56 + y_66 + y_77 + y_87
        - z_2398 >= 0
 c2400: y_10 + y_57 + y_60 + y_72 + y_76 + y_78 + y_81 - z_2399 >= 0
 c2401: y_29 - z_2400 >= 0
 c2402: y_12 + y_22 + y_57 + y_65 + y_72 + y_88 - z_2401 >= 0
 c2403: y_25 + y_29 + y_35 + y_77 + y_92 - z_2402 >= 0
 c2404: y_24 + y_30 + y_43 + y_52 + y_59 + y_70 + y_86 - z_2403 >= 0
 c2405: y_17 + y_53 + y_91 + y_96 - z_2404 >= 0
 c2406: y_0 + y_27 + y_42 - z_2405 >= 0
 c2407: y_29 - z_2406 >= 0
 c2408: y_0 + y_16 + y_39 + y_42 + y_54 + y_55 + y_63 + y_64 - z_2407 >= 0
 c2409: y_11 + y_19 + y_30 + y_43 + y_52 + y_59 + y_68 + y_69 - z_2408 >= 0
 c2410: y_23 + y_49 + y_74 + y_98 - z_2409 >= 0
 c2411: y_17 + y_39 + y_53 + y_58 + y_63 + y_91 - z_2410 >= 0
 c2412: y_3 + y_4 + y_5 + y_6 + y_33 + y_34 + y_38 + y_44 + y_90 - z_2411 >= 0
 c2413: y_23 + y_49 + y_74 + y_98 - z_2412 >= 0
 c2414: y_50 + y_56 - z_2413 >= 0
 c2415: y_4 + y_9 + y_12 + y_26 + y_32 + y_71 - z_2414 >= 0
 c2416: y_17 + y_53 + y_58 + y_91 - z_2415 >= 0
 c2417: y_8 + y_15 + y_20 + y_34 + y_46 + y_61 + y_75 + y_79 + y_80 + y_93
        + y_95 - z_2416 >= 0
 c2418: y_2 + y_83 + y_85 - z_2417 >= 0
 c2419: y_23 + y_49 + y_74 + y_98 - z_2418 >= 0
 c2420: y_12 + y_71 + y_88 - z_2419 >= 0
 c2421: y_25 + y_29 + y_35 + y_77 - z_2420 >= 0
 c2422: y_1 + y_23 + y_31 + y_73 + y_89 + y_98 + y_99 - z_2421 >= 0
 c2423: y_9 + y_71 - z_2422 >= 0
 c2424: y_12 + y_22 + y_57 + y_72 + y_78 + y_88 - z_2423 >= 0
 c2425: y_15 + y_18 + y_21 + y_36 + y_41 + y_47 + y_48 + y_79 - z_2424 >= 0
 c2426: - z_2425 >= 0
 c2427: y_3 + y_5 + y_33 + y_34 + y_38 + y_44 + y_90 - z_2426 >= 0
 c2428: y_40 + y_92 - z_2427 >= 0
 c2429: y_16 + y_40 + y_54 + y_66 + y_87 + y_92 - z_2428 >= 0
 c2430: y_3 + y_15 + y_19 + y_21 + y_33 + y_36 + y_38 + y_41 + y_44 + y_47
        + y_48 + y_61 + y_79 - z_2429 >= 0
 c2431: y_1 + y_23 + y_46 + y_49 + y_74 + y_95 + y_98 - z_2430 >= 0
 c2432: y_22 + y_56 + y_57 + y_65 - z_2431 >= 0
 c2433: y_16 + y_40 + y_54 + y_66 + y_87 + y_92 - z_2432 >= 0
 c2434: y_6 + y_90 - z_2433 >= 0
 c2435: y_4 + y_9 + y_12 + y_32 + y_71 + y_88 - z_2434 >= 0
 c2436: y_37 + y_45 + y_73 + y_96 - z_2435 >= 0
 c2437: y_5 + y_8 + y_20 + y_34 + y_61 + y_75 + y_80 + y_93 - z_2436 >= 0
 c2438: y_5 + y_34 + y_61 + y_93 - z_2437 >= 0
 c2439: y_4 + y_9 + y_19 + y_26 + y_32 + y_38 + y_44 + y_67 + y_69 - z_2438 >= 
        0
 c2440: y_37 + y_45 - z_2439 >= 0
 c2441: y_16 + y_25 + y_40 + y_50 + y_54 + y_56 + y_66 + y_87 - z_2440 >= 0
 c2442: y_23 + y_46 + y_49 + y_74 + y_98 - z_2441 >= 0
 c2443: y_0 + y_27 + y_42 + y_64 - z_2442 >= 0
 c2444: y_9 + y_71 - z_2443 >= 0
 c2445: y_17 + y_39 + y_53 + y_58 + y_63 + y_91 - z_2444 >= 0
 c2446: y_22 + y_56 + y_65 - z_2445 >= 0
 c2447: y_3 + y_4 + y_5 + y_19 + y_33 + y_38 + y_44 + y_90 - z_2446 >= 0
 c2448: y_25 + y_29 + y_35 + y_77 - z_2447 >= 0
 c2449: y_7 + y_23 + y_31 + y_51 + y_98 + y_99 - z_2448 >= 0
 c2450: y_18 + y_21 + y_36 + y_41 + y_47 - z_2449 >= 0
 c2451: y_50 + y_56 + y_66 - z_2450 >= 0
 c2452: y_25 + y_35 + y_77 + y_92 - z_2451 >= 0
 c2453: y_2 + y_14 + y_82 + y_83 + y_84 + y_85 - z_2452 >= 0
 c2454: y_16 + y_40 + y_54 + y_66 + y_87 + y_92 - z_2453 >= 0
 c2455: y_96 - z_2454 >= 0
 c2456: y_0 + y_27 + y_42 + y_55 + y_64 - z_2455 >= 0
 c2457: y_96 - z_2456 >= 0
 c2458: y_3 + y_4 + y_5 + y_6 + y_19 + y_33 + y_38 + y_44 + y_90 - z_2457 >= 0
 c2459: y_27 - z_2458 >= 0
 c2460: y_4 + y_9 + y_26 + y_32 + y_71 - z_2459 >= 0
 c2461: y_0 + y_45 - z_2460 >= 0
 c2462: y_2 + y_14 + y_27 + y_42 + y_55 + y_83 - z_2461 >= 0
 c2463: y_12 + y_22 + y_57 + y_88 - z_2462 >= 0
 c2464: y_30 + y_43 + y_59 + y_94 - z_2463 >= 0
 c2465: y_3 + y_19 + y_33 + y_38 + y_44 + y_48 - z_2464 >= 0
 c2466: y_7 + y_31 + y_37 + y_51 + y_62 + y_89 + y_99 - z_2465 >= 0
 c2467: y_9 + y_71 - z_2466 >= 0
 c2468: y_7 + y_23 + y_31 + y_51 + y_98 - z_2467 >= 0
 c2469: y_0 + y_17 + y_53 + y_63 + y_64 - z_2468 >= 0
 c2470: y_4 + y_9 + y_26 + y_32 + y_71 - z_2469 >= 0
 c2471: y_24 + y_70 + y_86 - z_2470 >= 0
 c2472: y_7 + y_31 + y_37 + y_51 + y_62 + y_89 + y_99 - z_2471 >= 0
 c2473: y_16 + y_39 + y_50 + y_54 + y_56 + y_58 + y_66 - z_2472 >= 0
 c2474: y_5 + y_6 + y_58 + y_90 + y_91 - z_2473 >= 0
 c2475: y_73 + y_96 - z_2474 >= 0
 c2476: y_9 + y_26 + y_67 + y_71 + y_97 - z_2475 >= 0
 c2477: y_11 + y_24 + y_30 + y_43 + y_52 + y_59 + y_68 + y_70 + y_86 - z_2476
         >= 0
 c2478: y_0 + y_2 + y_27 + y_42 + y_55 + y_64 - z_2477 >= 0
 c2479: y_29 + y_65 - z_2478 >= 0
 c2480: y_3 + y_4 + y_19 + y_26 + y_33 + y_38 + y_44 - z_2479 >= 0
 c2481: y_0 + y_2 + y_27 + y_42 + y_55 + y_64 - z_2480 >= 0
 c2482: y_15 + y_20 + y_21 + y_33 + y_36 + y_41 + y_47 + y_48 + y_61 + y_79
        + y_80 + y_93 + y_95 - z_2481 >= 0
 c2483: y_0 + y_2 + y_27 + y_42 + y_55 + y_64 - z_2482 >= 0
 c2484: y_73 + y_96 - z_2483 >= 0
 c2485: y_1 + y_23 + y_49 + y_74 + y_98 + y_99 - z_2484 >= 0
 c2486: y_11 + y_19 + y_38 + y_43 + y_52 + y_59 + y_67 + y_68 + y_69 - z_2485
         >= 0
 c2487: y_2 + y_14 + y_82 + y_83 + y_84 + y_85 - z_2486 >= 0
 c2488: y_17 + y_39 + y_53 + y_58 + y_63 + y_91 - z_2487 >= 0
 c2489: y_25 + y_29 + y_35 + y_77 - z_2488 >= 0
 c2490: y_2 + y_14 + y_82 + y_83 + y_84 + y_85 - z_2489 >= 0
 c2491: y_92 - z_2490 >= 0
 c2492: y_1 + y_23 + y_31 + y_46 + y_49 + y_73 + y_89 + y_98 + y_99 - z_2491
         >= 0
 c2493: y_37 + y_45 - z_2492 >= 0
 c2494: y_10 + y_12 + y_57 + y_72 + y_78 + y_88 - z_2493 >= 0
 c2495: y_0 + y_42 + y_53 + y_55 + y_63 + y_64 - z_2494 >= 0
 c2496: y_45 - z_2495 >= 0
 c2497: y_17 + y_39 + y_53 + y_63 + y_64 + y_91 - z_2496 >= 0
 c2498: y_4 + y_5 + y_6 + y_32 + y_44 + y_90 - z_2497 >= 0
 c2499: y_40 + y_55 + y_83 + y_92 - z_2498 >= 0
 c2500: y_4 + y_9 + y_26 + y_32 + y_71 - z_2499 >= 0
 c2501: y_10 + y_12 + y_57 + y_72 + y_88 - z_2500 >= 0
 c2502: y_29 - z_2501 >= 0
 c2503: y_18 + y_21 + y_36 + y_41 + y_47 - z_2502 >= 0
 c2504: y_15 + y_18 + y_20 + y_21 + y_36 + y_41 + y_47 + y_48 + y_61 + y_79
        + y_95 - z_2503 >= 0
 c2505: y_12 + y_71 + y_88 - z_2504 >= 0
 c2506: y_11 + y_52 + y_67 + y_68 + y_69 + y_97 - z_2505 >= 0
 c2507: y_3 + y_15 + y_18 + y_20 + y_21 + y_33 + y_36 + y_41 + y_47 + y_48
        + y_61 + y_79 + y_93 - z_2506 >= 0
 c2508: y_16 + y_39 + y_53 + y_54 + y_58 + y_63 + y_64 + y_66 + y_91 - z_2507
         >= 0
 c2509: y_15 + y_20 + y_33 + y_34 + y_41 + y_48 + y_61 + y_75 + y_79 + y_80
        + y_93 + y_95 - z_2508 >= 0
 c2510: y_16 + y_39 + y_40 + y_54 + y_63 + y_66 + y_87 - z_2509 >= 0
 c2511: y_4 + y_9 + y_26 + y_32 - z_2510 >= 0
 c2512: y_1 + y_7 + y_23 + y_31 + y_49 + y_51 + y_89 + y_98 + y_99 - z_2511 >= 
        0
 c2513: y_10 + y_13 + y_60 + y_72 + y_76 + y_78 + y_81 - z_2512 >= 0
 c2514: y_15 + y_20 + y_21 + y_33 + y_36 + y_41 + y_47 + y_48 + y_61 + y_79
        + y_80 + y_93 + y_95 - z_2513 >= 0
 c2515: y_3 + y_5 + y_6 + y_33 + y_34 + y_38 + y_44 + y_90 - z_2514 >= 0
 c2516: y_4 + y_6 + y_32 + y_90 - z_2515 >= 0
 c2517: y_37 + y_89 - z_2516 >= 0
 c2518: y_17 + y_53 + y_58 + y_91 - z_2517 >= 0
 c2519: y_23 + y_49 + y_74 + y_98 - z_2518 >= 0
 c2520: y_3 + y_19 + y_21 + y_33 + y_38 + y_41 + y_43 + y_44 + y_48 + y_79
        - z_2519 >= 0
 c2521: y_6 + y_22 - z_2520 >= 0
 c2522: y_8 + y_15 + y_20 + y_46 + y_49 + y_61 + y_75 + y_79 + y_80 + y_93
        + y_95 - z_2521 >= 0
 c2523: y_22 + y_57 + y_65 + y_72 - z_2522 >= 0
 c2524: y_3 + y_11 + y_19 + y_26 + y_38 + y_67 + y_68 + y_69 - z_2523 >= 0
 c2525: y_7 + y_31 + y_37 + y_51 + y_62 + y_89 + y_99 - z_2524 >= 0
 c2526: y_10 + y_60 + y_76 + y_78 + y_81 - z_2525 >= 0
 c2527: y_3 + y_15 + y_20 + y_21 + y_33 + y_36 + y_41 + y_47 + y_48 + y_61
        + y_79 + y_93 - z_2526 >= 0
 c2528: y_9 + y_12 + y_71 + y_88 - z_2527 >= 0
 c2529: y_9 + y_71 - z_2528 >= 0
 c2530: y_4 + y_6 + y_12 + y_22 + y_32 + y_88 - z_2529 >= 0
 c2531: y_3 + y_4 + y_9 + y_19 + y_26 + y_32 + y_38 + y_44 + y_67 + y_69
        - z_2530 >= 0
 c2532: y_2 + y_14 + y_27 + y_42 + y_82 + y_83 - z_2531 >= 0
 c2533: y_6 + y_22 + y_90 - z_2532 >= 0
 c2534: y_40 + y_87 + y_92 - z_2533 >= 0
 c2535: y_25 + y_29 + y_35 + y_77 - z_2534 >= 0
 c2536: y_7 + y_31 + y_37 + y_51 + y_62 + y_89 + y_98 + y_99 - z_2535 >= 0
 c2537: y_4 + y_5 + y_6 + y_90 - z_2536 >= 0
 c2538: y_8 + y_17 + y_75 + y_80 + y_96 - z_2537 >= 0
 c2539: y_1 + y_23 + y_46 + y_49 + y_74 + y_98 + y_99 - z_2538 >= 0
 c2540: y_3 + y_5 + y_19 + y_20 + y_33 + y_34 + y_38 + y_41 + y_44 + y_48 + y_61
        + y_79 + y_93 - z_2539 >= 0
 c2541: y_0 + y_17 + y_39 + y_42 + y_53 + y_55 + y_63 + y_64 - z_2540 >= 0
 c2542: y_2 + y_14 + y_82 + y_83 + y_84 + y_85 - z_2541 >= 0
 c2543: y_13 - z_2542 >= 0
 c2544: y_16 + y_39 + y_40 + y_54 + y_63 + y_66 + y_87 - z_2543 >= 0
 c2545: y_46 + y_49 + y_74 + y_95 - z_2544 >= 0
 c2546: y_23 + y_46 + y_49 + y_74 + y_95 - z_2545 >= 0
 c2547: y_5 + y_8 + y_17 + y_34 - z_2546 >= 0
 c2548: y_24 + y_30 + y_43 + y_52 + y_59 + y_70 - z_2547 >= 0
 c2549: y_11 + y_24 + y_52 + y_68 + y_70 + y_86 + y_97 - z_2548 >= 0
 c2550: y_9 + y_12 + y_71 + y_88 - z_2549 >= 0
 c2551: y_83 + y_85 - z_2550 >= 0
 c2552: y_22 + y_56 + y_57 + y_65 - z_2551 >= 0
 c2553: y_18 + y_36 + y_47 + y_74 + y_95 - z_2552 >= 0
 c2554: y_0 + y_2 + y_14 + y_27 + y_42 + y_82 - z_2553 >= 0
 c2555: y_0 + y_27 + y_42 + y_55 + y_64 - z_2554 >= 0
 c2556: y_9 + y_71 - z_2555 >= 0
 c2557: y_92 - z_2556 >= 0
 c2558: y_23 + y_49 + y_74 + y_98 - z_2557 >= 0
 c2559: y_10 + y_12 + y_88 - z_2558 >= 0
 c2560: y_3 + y_11 + y_19 + y_26 + y_33 + y_38 + y_44 + y_67 + y_68 + y_69
        - z_2559 >= 0
 c2561: y_21 + y_30 + y_43 + y_59 + y_94 - z_2560 >= 0
 c2562: y_15 + y_46 + y_49 + y_74 + y_75 + y_80 + y_95 - z_2561 >= 0
 c2563: y_8 + y_15 + y_20 + y_34 + y_41 + y_46 + y_61 + y_75 + y_79 + y_80
        + y_93 + y_95 - z_2562 >= 0
 c2564: y_45 + y_96 - z_2563 >= 0
 c2565: y_18 + y_46 + y_49 + y_74 + y_95 - z_2564 >= 0
 c2566: y_12 + y_71 + y_88 - z_2565 >= 0
 c2567: y_0 + y_27 - z_2566 >= 0
 c2568: y_17 + y_96 - z_2567 >= 0
 c2569: y_3 + y_5 + y_19 + y_33 + y_34 + y_38 + y_44 + y_90 - z_2568 >= 0
 c2570: y_2 + y_27 + y_42 + y_55 + y_83 - z_2569 >= 0
 c2571: y_24 + y_52 + y_70 + y_86 - z_2570 >= 0
 c2572: y_1 + y_31 + y_37 + y_73 + y_89 + y_99 - z_2571 >= 0
 c2573: y_45 - z_2572 >= 0
 c2574: y_23 + y_46 + y_49 + y_74 + y_98 - z_2573 >= 0
 c2575: y_7 + y_23 + y_31 + y_51 + y_62 + y_98 - z_2574 >= 0
 c2576: y_16 + y_40 + y_54 + y_55 + y_66 + y_87 + y_92 - z_2575 >= 0
 c2577: y_0 + y_27 + y_42 - z_2576 >= 0
 c2578: y_9 + y_12 + y_71 + y_88 - z_2577 >= 0
 c2579: y_11 + y_24 + y_30 + y_43 + y_52 + y_59 + y_68 + y_70 + y_86 - z_2578
         >= 0
 c2580: y_11 + y_52 + y_67 + y_68 + y_69 + y_97 - z_2579 >= 0
 c2581: y_2 + y_82 + y_83 + y_85 - z_2580 >= 0
 c2582: y_3 + y_11 + y_19 + y_30 + y_38 + y_43 + y_52 + y_59 + y_68 + y_69
        - z_2581 >= 0
 c2583: y_18 + y_36 + y_47 + y_74 + y_95 - z_2582 >= 0
 c2584: y_18 + y_21 + y_36 + y_41 + y_47 + y_48 + y_79 + y_94 - z_2583 >= 0
 c2585: y_16 + y_39 + y_40 + y_54 + y_66 + y_87 + y_92 - z_2584 >= 0
 c2586: y_9 + y_11 + y_26 + y_38 + y_67 + y_68 + y_69 - z_2585 >= 0
 c2587: y_13 + y_28 + y_60 + y_76 - z_2586 >= 0
 c2588: y_25 + y_29 + y_35 + y_77 - z_2587 >= 0
 c2589: y_25 + y_35 + y_40 + y_50 + y_54 + y_56 + y_66 + y_77 + y_87 + y_92
        - z_2588 >= 0
 c2590: y_45 - z_2589 >= 0
 c2591: y_9 + y_11 + y_26 + y_67 + y_68 + y_69 + y_97 - z_2590 >= 0
 c2592: y_40 + y_92 - z_2591 >= 0
 c2593: y_11 + y_68 + y_86 + y_97 - z_2592 >= 0
 c2594: y_25 + y_29 + y_35 + y_40 + y_50 + y_54 + y_56 + y_66 + y_77 + y_87
        - z_2593 >= 0
 c2595: y_8 + y_17 + y_73 + y_96 - z_2594 >= 0
 c2596: y_37 + y_45 - z_2595 >= 0
 c2597: y_40 + y_55 + y_83 + y_92 - z_2596 >= 0
 c2598: y_50 + y_56 + y_66 - z_2597 >= 0
 c2599: y_11 + y_19 + y_43 + y_52 + y_59 + y_67 + y_68 + y_69 - z_2598 >= 0
 c2600: y_3 + y_11 + y_19 + y_30 + y_38 + y_43 + y_52 + y_59 + y_67 + y_68
        + y_69 - z_2599 >= 0
 c2601: y_12 + y_71 + y_88 - z_2600 >= 0
 c2602: y_25 + y_29 + y_35 + y_50 + y_56 + y_66 + y_77 + y_87 - z_2601 >= 0
 c2603: y_18 + y_21 + y_36 + y_41 + y_47 + y_48 + y_79 + y_94 - z_2602 >= 0
 c2604: y_24 + y_30 + y_43 + y_52 + y_59 + y_70 + y_94 - z_2603 >= 0
 c2605: y_10 + y_13 + y_28 + y_60 + y_72 + y_76 + y_78 + y_81 - z_2604 >= 0
 c2606: y_50 + y_56 + y_66 - z_2605 >= 0
 c2607: y_2 + y_40 + y_55 + y_83 + y_85 + y_92 - z_2606 >= 0
 c2608: y_3 + y_19 + y_21 + y_33 + y_38 + y_43 + y_48 - z_2607 >= 0
 c2609: y_7 + y_31 + y_37 + y_51 + y_62 + y_89 + y_99 - z_2608 >= 0
 c2610: y_37 + y_45 + y_89 - z_2609 >= 0
 c2611: y_15 + y_18 + y_21 + y_36 + y_41 + y_47 + y_48 + y_79 + y_95 - z_2610
         >= 0
 c2612: y_22 + y_56 + y_57 + y_65 - z_2611 >= 0
 c2613: y_11 + y_52 + y_67 + y_68 + y_69 + y_97 - z_2612 >= 0
 c2614: y_16 + y_39 + y_50 + y_54 + y_56 + y_66 + y_87 - z_2613 >= 0
 c2615: y_8 + y_15 + y_20 + y_46 + y_61 + y_75 + y_80 + y_93 + y_95 - z_2614
         >= 0
 c2616: y_9 + y_11 + y_26 + y_67 + y_68 + y_69 + y_97 - z_2615 >= 0
 c2617: y_9 + y_26 + y_67 + y_69 + y_71 - z_2616 >= 0
 c2618: y_45 - z_2617 >= 0
 c2619: y_25 + y_29 + y_35 + y_77 - z_2618 >= 0
 c2620: y_5 + y_20 + y_34 + y_61 + y_80 + y_93 - z_2619 >= 0
 c2621: y_24 + y_30 + y_43 + y_52 + y_59 + y_70 + y_94 - z_2620 >= 0
 c2622: y_7 + y_23 + y_31 + y_51 + y_62 + y_98 - z_2621 >= 0
 c2623: y_10 + y_13 + y_57 + y_60 + y_72 + y_76 + y_78 + y_81 - z_2622 >= 0
 c2624: y_40 + y_83 + y_85 + y_92 - z_2623 >= 0
 c2625: y_11 + y_52 + y_67 + y_68 + y_69 + y_86 + y_97 - z_2624 >= 0
 c2626: y_0 + y_96 - z_2625 >= 0
 c2627: y_40 + y_87 + y_92 - z_2626 >= 0
 c2628: y_1 + y_23 + y_46 + y_49 + y_73 + y_75 + y_98 + y_99 - z_2627 >= 0
 c2629: y_0 + y_2 + y_14 + y_27 + y_42 + y_55 + y_82 - z_2628 >= 0
 c2630: y_9 + y_71 - z_2629 >= 0
 c2631: y_10 + y_13 + y_60 + y_72 + y_76 + y_78 + y_81 - z_2630 >= 0
 c2632: y_13 + y_57 + y_65 + y_72 - z_2631 >= 0
 c2633: y_83 + y_85 + y_92 - z_2632 >= 0
 c2634: y_0 + y_27 + y_39 + y_42 + y_53 + y_55 + y_63 + y_64 - z_2633 >= 0
 c2635: y_10 + y_13 + y_57 + y_60 + y_72 + y_76 + y_78 + y_81 - z_2634 >= 0
 c2636: y_10 + y_78 - z_2635 >= 0
 c2637: y_11 + y_24 + y_30 + y_43 + y_52 + y_59 + y_68 + y_70 + y_94 - z_2636
         >= 0
 c2638: y_22 + y_57 + y_65 + y_72 - z_2637 >= 0
 c2639: y_13 + y_28 + y_60 + y_76 + y_78 + y_81 - z_2638 >= 0
 c2640: y_25 + y_29 + y_50 + y_56 + y_77 - z_2639 >= 0
 c2641: y_2 + y_14 + y_27 + y_42 + y_55 + y_82 + y_83 + y_85 - z_2640 >= 0
 c2642: y_8 + y_17 + y_96 - z_2641 >= 0
 c2643: y_6 + y_22 - z_2642 >= 0
 c2644: y_50 + y_56 + y_65 - z_2643 >= 0
 c2645: y_17 + y_53 + y_63 + y_64 + y_91 - z_2644 >= 0
 c2646: y_1 + y_8 + y_46 + y_73 + y_75 + y_99 - z_2645 >= 0
 c2647: y_23 + y_46 + y_49 + y_74 - z_2646 >= 0
 c2648: y_45 - z_2647 >= 0
 c2649: y_11 + y_67 + y_68 + y_69 + y_97 - z_2648 >= 0
 c2650: y_2 + y_14 + y_82 + y_83 + y_85 - z_2649 >= 0
 c2651: y_7 + y_31 + y_51 + y_62 + y_89 + y_99 - z_2650 >= 0
 c2652: y_25 + y_29 + y_50 + y_56 + y_66 + y_77 + y_87 - z_2651 >= 0
 c2653: y_1 + y_31 + y_37 + y_73 + y_89 + y_99 - z_2652 >= 0
 c2654: y_15 + y_18 + y_20 + y_21 + y_36 + y_41 + y_47 + y_48 + y_79 + y_95
        - z_2653 >= 0
 c2655: y_1 + y_7 + y_23 + y_31 + y_51 + y_62 + y_89 + y_98 + y_99 - z_2654 >= 
        0
 c2656: y_11 + y_67 + y_68 + y_69 + y_97 - z_2655 >= 0
 c2657: y_9 + y_11 + y_26 + y_67 + y_68 + y_69 + y_97 - z_2656 >= 0
 c2658: y_4 + y_6 + y_22 + y_32 + y_90 - z_2657 >= 0
 c2659: y_11 + y_52 + y_67 + y_68 + y_69 + y_97 - z_2658 >= 0
 c2660: y_1 + y_8 + y_46 + y_49 + y_73 + y_75 + y_80 + y_95 - z_2659 >= 0
 c2661: y_4 + y_6 + y_12 + y_22 + y_32 + y_88 - z_2660 >= 0
 c2662: y_15 + y_18 + y_36 + y_41 + y_46 + y_47 + y_49 + y_74 + y_95 - z_2661
         >= 0
 c2663: y_5 + y_6 + y_90 - z_2662 >= 0
 c2664: y_5 + y_6 + y_90 - z_2663 >= 0
 c2665: y_22 + y_57 + y_65 + y_72 + y_88 - z_2664 >= 0
 c2666: y_16 + y_39 + y_40 + y_54 + y_55 + y_63 + y_64 + y_66 + y_87 - z_2665
         >= 0
 c2667: y_13 + y_57 + y_60 + y_65 + y_72 + y_76 - z_2666 >= 0
 c2668: y_25 + y_29 + y_35 + y_77 - z_2667 >= 0
 c2669: y_7 + y_23 + y_31 + y_51 + y_62 + y_89 + y_98 + y_99 - z_2668 >= 0
 c2670: y_7 + y_31 + y_37 + y_51 + y_62 + y_89 + y_99 - z_2669 >= 0
 c2671: y_7 + y_23 + y_51 + y_98 - z_2670 >= 0
 c2672: y_15 + y_18 + y_36 + y_41 + y_46 + y_47 + y_49 + y_74 + y_95 - z_2671
         >= 0
 c2673: y_46 + y_49 + y_74 + y_95 - z_2672 >= 0
 c2674: y_3 + y_19 + y_33 + y_38 + y_44 + y_48 + y_61 + y_79 - z_2673 >= 0
 c2675: y_40 + y_92 - z_2674 >= 0
 c2676: y_15 + y_18 + y_21 + y_36 + y_41 + y_47 + y_74 + y_79 + y_95 - z_2675
         >= 0
 c2677: y_25 + y_29 + y_35 + y_50 + y_77 + y_87 - z_2676 >= 0
 c2678: y_7 + y_23 + y_31 + y_51 + y_62 + y_89 + y_98 + y_99 - z_2677 >= 0
 c2679: y_16 + y_39 + y_53 + y_54 + y_58 + y_63 + y_64 + y_66 + y_87 - z_2678
         >= 0
 c2680: y_15 + y_18 + y_21 + y_36 + y_41 + y_47 + y_48 + y_79 + y_95 - z_2679
         >= 0
 c2681: y_25 + y_35 + y_40 + y_66 + y_77 + y_87 + y_92 - z_2680 >= 0
 c2682: y_11 + y_19 + y_43 + y_52 + y_59 + y_67 + y_68 + y_69 - z_2681 >= 0
 c2683: y_4 + y_6 + y_26 + y_32 + y_38 + y_44 + y_90 - z_2682 >= 0
 c2684: y_0 + y_2 + y_27 + y_42 + y_55 + y_83 - z_2683 >= 0
 c2685: y_8 + y_15 + y_20 + y_34 + y_41 + y_46 + y_48 + y_61 + y_75 + y_79
        + y_80 + y_93 + y_95 - z_2684 >= 0
 c2686: y_10 + y_12 + y_88 - z_2685 >= 0
 c2687: y_73 + y_96 - z_2686 >= 0
 c2688: y_4 + y_6 + y_12 + y_22 + y_32 + y_88 - z_2687 >= 0
 c2689: y_5 + y_8 + y_20 + y_34 + y_61 + y_75 + y_80 + y_93 - z_2688 >= 0
 c2690: y_13 + y_57 + y_60 + y_65 + y_72 + y_76 + y_78 + y_81 - z_2689 >= 0
 c2691: y_1 + y_8 + y_73 + y_75 + y_96 - z_2690 >= 0
 c2692: y_57 + y_65 + y_72 + y_76 + y_78 + y_88 - z_2691 >= 0
 c2693: y_85 + y_92 - z_2692 >= 0
 c2694: y_12 + y_22 + y_57 + y_88 - z_2693 >= 0
 c2695: y_3 + y_4 + y_19 + y_26 + y_32 + y_33 + y_38 + y_44 + y_90 - z_2694 >= 
        0
 c2696: y_21 + y_30 + y_36 + y_41 + y_43 + y_47 + y_94 - z_2695 >= 0
 c2697: y_0 + y_64 - z_2696 >= 0
 c2698: y_40 + y_83 + y_85 + y_92 - z_2697 >= 0
 c2699: y_9 + y_26 + y_67 + y_69 + y_71 - z_2698 >= 0
 c2700: y_3 + y_4 + y_5 + y_6 + y_32 + y_33 + y_38 + y_44 + y_90 - z_2699 >= 0
 c2701: y_6 + y_58 + y_90 - z_2700 >= 0
 c2702: y_2 + y_14 + y_82 + y_83 + y_84 - z_2701 >= 0
 c2703: y_10 + y_12 + y_57 + y_72 + y_78 + y_81 + y_88 - z_2702 >= 0
 c2704: y_5 + y_8 + y_17 + y_34 + y_75 + y_80 + y_96 - z_2703 >= 0
 c2705: y_7 + y_31 + y_37 + y_51 + y_89 + y_99 - z_2704 >= 0
 c2706: y_1 + y_37 + y_45 + y_73 + y_89 + y_96 + y_99 - z_2705 >= 0
 c2707: y_25 + y_29 + y_35 + y_77 - z_2706 >= 0
 c2708: y_2 + y_14 + y_27 + y_82 - z_2707 >= 0
 c2709: y_10 + y_13 + y_28 + y_60 + y_76 + y_78 + y_81 - z_2708 >= 0
 c2710: y_16 + y_39 + y_53 + y_54 + y_58 + y_63 + y_64 + y_91 - z_2709 >= 0
 c2711: y_23 + y_98 - z_2710 >= 0
 c2712: y_4 + y_6 + y_26 + y_32 + y_38 + y_44 + y_90 - z_2711 >= 0
 c2713: y_25 + y_29 + y_35 + y_77 - z_2712 >= 0
 c2714: y_17 + y_96 - z_2713 >= 0
 c2715: y_40 + y_87 + y_92 - z_2714 >= 0
 c2716: y_13 + y_60 + y_72 + y_76 - z_2715 >= 0
 c2717: y_16 + y_25 + y_50 + y_54 + y_56 + y_66 + y_77 + y_87 - z_2716 >= 0
 c2718: y_4 + y_6 + y_26 + y_32 + y_38 + y_44 + y_90 - z_2717 >= 0
 c2719: y_15 + y_18 + y_21 + y_36 + y_41 + y_47 + y_48 + y_79 + y_95 - z_2718
         >= 0
 c2720: y_4 + y_12 + y_22 + y_32 + y_88 - z_2719 >= 0
 c2721: y_40 + y_87 + y_92 - z_2720 >= 0
 c2722: y_13 + y_57 + y_60 + y_72 + y_76 + y_78 + y_81 - z_2721 >= 0
 c2723: y_13 + y_28 + y_60 + y_76 + y_78 + y_81 - z_2722 >= 0
 c2724: y_29 + y_50 + y_56 + y_65 - z_2723 >= 0
 c2725: y_13 - z_2724 >= 0
 c2726: y_25 + y_29 + y_35 + y_77 + y_87 + y_92 - z_2725 >= 0
 c2727: y_11 + y_24 + y_52 + y_59 + y_68 + y_70 + y_86 - z_2726 >= 0
 c2728: y_17 + y_53 + y_91 + y_96 - z_2727 >= 0
 c2729: y_0 + y_27 - z_2728 >= 0
 c2730: y_9 + y_26 + y_67 + y_68 + y_69 + y_97 - z_2729 >= 0
 c2731: y_16 + y_50 + y_56 + y_58 + y_66 - z_2730 >= 0
 c2732: y_23 + y_49 + y_74 + y_98 - z_2731 >= 0
 c2733: y_25 + y_29 + y_35 + y_77 + y_87 - z_2732 >= 0
 c2734: y_25 + y_35 + y_77 + y_92 - z_2733 >= 0
 c2735: y_7 + y_31 + y_37 + y_51 + y_62 + y_89 + y_99 - z_2734 >= 0
 c2736: y_5 + y_20 + y_33 + y_34 + y_44 + y_61 + y_93 - z_2735 >= 0
 c2737: y_37 + y_45 - z_2736 >= 0
 c2738: y_83 + y_85 - z_2737 >= 0
 c2739: y_16 + y_39 + y_40 + y_54 + y_55 + y_63 + y_64 + y_66 + y_87 - z_2738
         >= 0
 c2740: y_30 + y_43 + y_52 + y_59 + y_94 - z_2739 >= 0
 c2741: y_3 + y_19 + y_21 + y_33 + y_36 + y_38 + y_41 + y_43 + y_47 + y_48
        + y_79 - z_2740 >= 0
 c2742: y_12 + y_71 - z_2741 >= 0
 c2743: y_1 + y_8 + y_73 + y_75 + y_96 - z_2742 >= 0
 c2744: y_37 + y_45 + y_89 - z_2743 >= 0
 c2745: y_13 + y_28 + y_60 + y_76 + y_81 - z_2744 >= 0
 c2746: y_4 + y_5 + y_6 + y_32 + y_44 + y_90 - z_2745 >= 0
 c2747: y_29 + y_50 + y_56 + y_65 - z_2746 >= 0
 c2748: y_15 + y_18 + y_20 + y_36 + y_41 + y_46 + y_47 + y_49 + y_74 + y_79
        + y_95 - z_2747 >= 0
 c2749: y_13 + y_57 + y_60 + y_65 + y_72 + y_76 + y_78 - z_2748 >= 0
 c2750: y_2 + y_14 + y_82 + y_83 + y_85 - z_2749 >= 0
 c2751: y_27 - z_2750 >= 0
 c2752: y_1 + y_7 + y_23 + y_31 + y_51 + y_62 + y_89 + y_98 + y_99 - z_2751 >= 
        0
 c2753: y_37 + y_45 - z_2752 >= 0
 c2754: y_37 + y_45 - z_2753 >= 0
 c2755: y_2 + y_14 + y_27 + y_42 + y_82 - z_2754 >= 0
 c2756: y_16 + y_39 + y_40 + y_50 + y_54 + y_63 + y_66 + y_87 - z_2755 >= 0
 c2757: y_9 + y_26 + y_67 + y_69 + y_71 - z_2756 >= 0
 c2758: y_1 + y_23 + y_46 + y_49 + y_74 + y_75 + y_95 - z_2757 >= 0
 c2759: y_3 + y_4 + y_6 + y_26 + y_32 + y_38 + y_44 + y_90 - z_2758 >= 0
 c2760: y_16 + y_17 + y_39 + y_53 + y_58 + y_63 + y_91 - z_2759 >= 0
 c2761: y_23 + y_46 + y_49 + y_74 + y_95 - z_2760 >= 0
 c2762: y_83 + y_84 + y_85 - z_2761 >= 0
 c2763: y_9 + y_71 - z_2762 >= 0
 c2764: y_2 + y_14 + y_27 + y_82 + y_83 - z_2763 >= 0
 c2765: y_1 + y_23 + y_46 + y_49 + y_74 + y_75 + y_95 + y_98 - z_2764 >= 0
 c2766: y_3 + y_5 + y_19 + y_33 + y_34 + y_38 + y_44 + y_48 + y_61 + y_79 + y_93
        - z_2765 >= 0
 c2767: y_22 + y_57 + y_65 + y_72 - z_2766 >= 0
 c2768: y_16 + y_25 + y_40 + y_54 + y_66 + y_87 + y_92 - z_2767 >= 0
 c2769: y_37 + y_45 - z_2768 >= 0
 c2770: y_1 + y_7 + y_23 + y_31 + y_51 + y_89 + y_98 + y_99 - z_2769 >= 0
 c2771: y_0 + y_27 + y_42 - z_2770 >= 0
 c2772: y_13 + y_28 + y_60 - z_2771 >= 0
 c2773: y_11 + y_24 + y_52 + y_59 + y_67 + y_68 + y_69 + y_70 + y_86 + y_97
        - z_2772 >= 0
 c2774: y_0 + y_27 + y_42 + y_55 + y_64 - z_2773 >= 0
 c2775: y_58 + y_91 - z_2774 >= 0
 c2776: y_2 + y_40 + y_83 + y_85 + y_92 - z_2775 >= 0
 c2777: y_3 + y_19 + y_21 + y_33 + y_38 + y_43 + y_44 + y_48 - z_2776 >= 0
 c2778: y_12 + y_22 + y_57 + y_65 + y_72 + y_88 - z_2777 >= 0
 c2779: y_56 + y_65 - z_2778 >= 0
 c2780: y_25 + y_29 + y_35 + y_77 + y_87 + y_92 - z_2779 >= 0
 c2781: y_24 + y_70 + y_86 - z_2780 >= 0
 c2782: y_16 + y_39 + y_40 + y_42 + y_54 + y_55 + y_63 + y_64 - z_2781 >= 0
 c2783: y_12 + y_22 + y_57 + y_72 + y_88 - z_2782 >= 0
 c2784: y_25 + y_29 + y_50 + y_56 + y_77 - z_2783 >= 0
 c2785: y_2 + y_14 + y_27 + y_82 - z_2784 >= 0
 c2786: y_11 + y_24 + y_52 + y_59 + y_68 + y_70 + y_86 + y_97 - z_2785 >= 0
 c2787: y_40 + y_54 + y_55 + y_87 + y_92 - z_2786 >= 0
 c2788: y_1 + y_31 + y_37 + y_73 + y_89 + y_98 + y_99 - z_2787 >= 0
 c2789: y_11 + y_67 + y_68 + y_69 + y_97 - z_2788 >= 0
 c2790: y_4 + y_9 + y_12 + y_32 + y_71 + y_88 - z_2789 >= 0
 c2791: y_24 + y_30 + y_43 + y_52 + y_59 + y_70 - z_2790 >= 0
 c2792: y_17 + y_39 + y_53 + y_58 + y_63 + y_64 + y_91 - z_2791 >= 0
 c2793: y_1 + y_23 + y_31 + y_46 + y_49 + y_98 + y_99 - z_2792 >= 0
 c2794: y_40 + y_83 + y_85 + y_92 - z_2793 >= 0
 c2795: y_10 + y_12 + y_88 - z_2794 >= 0
 c2796: y_13 + y_28 + y_60 + y_76 + y_81 - z_2795 >= 0
 c2797: y_3 + y_19 + y_21 + y_30 + y_33 + y_36 + y_41 + y_43 + y_47 + y_48
        + y_94 - z_2796 >= 0
 c2798: y_4 + y_6 + y_32 + y_44 + y_90 - z_2797 >= 0
 c2799: y_3 + y_11 + y_19 + y_26 + y_33 + y_38 + y_43 + y_44 + y_48 + y_67
        + y_68 + y_69 - z_2798 >= 0
 c2800: y_16 + y_39 + y_40 + y_42 + y_54 + y_55 + y_63 + y_64 + y_66 - z_2799
         >= 0
 c2801: y_11 + y_67 + y_68 + y_69 + y_97 - z_2800 >= 0
 c2802: y_11 + y_52 + y_59 + y_67 + y_68 + y_69 + y_97 - z_2801 >= 0
 c2803: y_83 + y_84 + y_85 - z_2802 >= 0
 c2804: y_18 + y_49 + y_74 + y_95 - z_2803 >= 0
 c2805: y_1 + y_8 + y_46 + y_73 + y_75 + y_96 - z_2804 >= 0
 c2806: y_15 + y_18 + y_20 + y_21 + y_36 + y_41 + y_47 + y_48 + y_61 + y_79
        + y_80 + y_93 + y_95 - z_2805 >= 0
 c2807: y_40 + y_92 - z_2806 >= 0
 c2808: y_4 + y_6 + y_32 + y_90 - z_2807 >= 0
 c2809: y_10 + y_13 + y_28 + y_60 + y_76 + y_78 + y_81 - z_2808 >= 0
 c2810: y_25 + y_35 + y_40 + y_77 + y_87 + y_92 - z_2809 >= 0
 c2811: y_3 + y_15 + y_20 + y_21 + y_33 + y_34 + y_41 + y_48 + y_61 + y_79
        + y_80 + y_93 - z_2810 >= 0
 c2812: y_11 + y_43 + y_52 + y_59 + y_67 + y_68 + y_69 + y_97 - z_2811 >= 0
 c2813: y_17 + y_53 + y_58 + y_63 + y_91 - z_2812 >= 0
 c2814: y_18 + y_21 + y_30 + y_36 + y_41 + y_47 + y_48 + y_79 + y_94 - z_2813
         >= 0
 c2815: y_65 - z_2814 >= 0
 c2816: y_12 + y_22 + y_57 + y_72 + y_88 - z_2815 >= 0
 c2817: y_0 + y_2 + y_27 + y_42 + y_55 + y_64 - z_2816 >= 0
 c2818: y_11 + y_43 + y_52 + y_59 + y_67 + y_68 + y_69 + y_97 - z_2817 >= 0
 c2819: y_3 + y_19 + y_26 + y_33 + y_38 + y_44 + y_48 + y_69 - z_2818 >= 0
 c2820: y_83 + y_85 + y_92 - z_2819 >= 0
 c2821: y_16 + y_50 + y_54 + y_56 + y_58 + y_66 - z_2820 >= 0
 c2822: y_2 + y_14 + y_27 + y_42 + y_55 + y_82 + y_83 - z_2821 >= 0
 c2823: y_50 + y_56 + y_66 + y_87 - z_2822 >= 0
 c2824: y_0 + y_17 + y_53 + y_63 + y_64 + y_96 - z_2823 >= 0
 c2825: y_6 + y_22 - z_2824 >= 0
 c2826: y_8 + y_15 + y_20 + y_46 + y_61 + y_75 + y_79 + y_80 + y_93 + y_95
        - z_2825 >= 0
 c2827: y_9 + y_11 + y_19 + y_26 + y_38 + y_67 + y_68 + y_69 + y_97 - z_2826
         >= 0
 c2828: y_8 + y_15 + y_20 + y_46 + y_49 + y_61 + y_75 + y_80 + y_93 + y_95
        - z_2827 >= 0
 c2829: y_30 + y_43 + y_52 + y_59 + y_94 - z_2828 >= 0
 c2830: y_0 + y_17 + y_53 + y_63 + y_64 + y_96 - z_2829 >= 0
 c2831: y_11 + y_24 + y_52 + y_59 + y_70 + y_86 - z_2830 >= 0
 c2832: y_7 + y_23 + y_31 + y_51 + y_62 + y_89 + y_98 + y_99 - z_2831 >= 0
 c2833: y_30 + y_43 + y_52 + y_59 + y_94 - z_2832 >= 0
 c2834: y_17 + y_96 - z_2833 >= 0
 c2835: y_17 + y_96 - z_2834 >= 0
 c2836: y_16 + y_25 + y_40 + y_50 + y_54 + y_56 + y_66 + y_87 - z_2835 >= 0
 c2837: y_0 + y_27 + y_45 - z_2836 >= 0
 c2838: y_50 + y_56 + y_58 - z_2837 >= 0
 c2839: y_16 + y_40 + y_54 + y_55 + y_66 + y_87 + y_92 - z_2838 >= 0
 c2840: y_83 + y_85 - z_2839 >= 0
 c2841: y_16 + y_17 + y_39 + y_53 + y_54 + y_58 + y_63 + y_64 + y_91 - z_2840
         >= 0
 c2842: y_1 + y_23 + y_31 + y_37 + y_73 + y_89 + y_99 - z_2841 >= 0
 c2843: y_12 + y_71 + y_88 - z_2842 >= 0
 c2844: y_16 + y_39 + y_53 + y_54 + y_58 + y_63 + y_64 + y_66 + y_91 - z_2843
         >= 0
 c2845: y_58 - z_2844 >= 0
 c2846: y_0 + y_96 - z_2845 >= 0
 c2847: y_3 + y_4 + y_19 + y_26 + y_32 + y_33 + y_38 + y_44 + y_90 - z_2846 >= 
        0
 c2848: y_5 + y_6 + y_90 - z_2847 >= 0
 c2849: y_16 + y_39 + y_40 + y_54 + y_66 + y_87 + y_92 - z_2848 >= 0
 c2850: y_12 + y_88 - z_2849 >= 0
 c2851: y_73 + y_96 - z_2850 >= 0
 c2852: y_5 + y_8 + y_17 + y_20 + y_34 + y_75 + y_80 + y_93 - z_2851 >= 0
 c2853: y_13 + y_28 + y_60 + y_76 + y_81 - z_2852 >= 0
 c2854: y_7 + y_31 + y_37 + y_51 + y_62 + y_89 + y_99 - z_2853 >= 0
 c2855: y_3 + y_11 + y_19 + y_33 + y_38 + y_43 + y_48 + y_69 - z_2854 >= 0
 c2856: y_1 + y_7 + y_23 + y_31 + y_51 + y_62 + y_89 + y_98 + y_99 - z_2855 >= 
        0
 c2857: y_9 + y_11 + y_19 + y_26 + y_38 + y_67 + y_68 + y_69 - z_2856 >= 0
 c2858: y_16 + y_39 + y_53 + y_54 + y_55 + y_63 + y_64 + y_66 - z_2857 >= 0
 c2859: y_12 + y_22 + y_57 + y_65 + y_72 + y_78 + y_88 - z_2858 >= 0
 c2860: y_8 + y_17 + y_34 + y_75 + y_96 - z_2859 >= 0
 c2861: y_17 + y_39 + y_53 + y_58 + y_63 + y_64 + y_91 - z_2860 >= 0
 c2862: y_24 + y_30 + y_43 + y_52 + y_59 + y_70 - z_2861 >= 0
 c2863: y_9 + y_26 + y_67 + y_69 + y_71 - z_2862 >= 0
 c2864: y_15 + y_20 + y_21 + y_33 + y_34 + y_41 + y_48 + y_61 + y_75 + y_79
        + y_80 + y_93 + y_95 - z_2863 >= 0
 c2865: y_45 + y_96 - z_2864 >= 0
 c2866: y_4 + y_9 + y_26 + y_32 + y_67 - z_2865 >= 0
 c2867: y_3 + y_11 + y_19 + y_26 + y_38 + y_43 + y_52 + y_67 + y_68 + y_69
        - z_2866 >= 0
 c2868: y_12 + y_22 + y_57 + y_65 + y_72 + y_88 - z_2867 >= 0
 c2869: y_2 + y_27 + y_42 + y_55 + y_83 - z_2868 >= 0
 c2870: y_13 + y_28 + y_60 + y_76 + y_78 + y_81 - z_2869 >= 0
 c2871: y_13 + y_28 + y_60 + y_76 + y_81 - z_2870 >= 0
 c2872: y_2 + y_14 + y_82 - z_2871 >= 0
 c2873: y_1 + y_8 + y_73 + y_75 + y_96 - z_2872 >= 0
 c2874: y_15 + y_18 + y_36 + y_41 + y_46 + y_47 + y_49 + y_74 + y_79 + y_95
        - z_2873 >= 0
 c2875: y_2 + y_14 + y_82 + y_83 - z_2874 >= 0
 c2876: y_5 + y_8 + y_20 + y_34 + y_61 + y_80 + y_93 - z_2875 >= 0
 c2877: y_8 + y_73 + y_75 + y_80 + y_96 - z_2876 >= 0
 c2878: y_8 + y_15 + y_20 + y_46 + y_49 + y_61 + y_75 + y_79 + y_80 + y_93
        + y_95 - z_2877 >= 0
 c2879: y_65 - z_2878 >= 0
 c2880: y_25 + y_35 + y_40 + y_66 + y_77 + y_87 + y_92 - z_2879 >= 0
 c2881: y_1 + y_8 + y_46 + y_49 + y_73 + y_75 + y_80 + y_95 - z_2880 >= 0
 c2882: y_1 + y_23 + y_46 + y_49 + y_74 + y_75 + y_95 + y_98 - z_2881 >= 0
 c2883: y_15 + y_18 + y_36 + y_41 + y_47 + y_74 + y_95 - z_2882 >= 0
 c2884: y_12 + y_22 + y_57 + y_72 + y_88 - z_2883 >= 0
 c2885: y_12 + y_22 + y_57 + y_72 + y_88 - z_2884 >= 0
 c2886: y_50 + y_56 + y_66 + y_87 - z_2885 >= 0
 c2887: y_4 + y_6 + y_32 + y_90 - z_2886 >= 0
 c2888: y_25 + y_29 + y_35 + y_50 + y_56 + y_77 + y_87 - z_2887 >= 0
 c2889: y_13 + y_28 + y_60 + y_76 - z_2888 >= 0
 c2890: y_13 + y_28 + y_60 + y_76 + y_78 + y_81 - z_2889 >= 0
 c2891: y_4 + y_6 + y_9 + y_26 + y_32 + y_90 - z_2890 >= 0
 c2892: y_1 + y_23 + y_46 + y_49 + y_74 + y_98 - z_2891 >= 0
 c2893: y_12 + y_22 + y_57 + y_65 + y_72 + y_88 - z_2892 >= 0
 c2894: y_17 + y_53 + y_63 + y_96 - z_2893 >= 0
 c2895: y_50 + y_56 - z_2894 >= 0
 c2896: y_25 + y_35 + y_40 + y_66 + y_77 + y_87 + y_92 - z_2895 >= 0
 c2897: y_10 + y_12 + y_57 + y_72 + y_78 + y_88 - z_2896 >= 0
 c2898: y_37 + y_45 - z_2897 >= 0
 c2899: y_57 + y_65 + y_72 - z_2898 >= 0
 c2900: y_45 - z_2899 >= 0
 c2901: y_17 + y_39 + y_53 + y_58 + y_91 - z_2900 >= 0
 c2902: y_23 + y_46 + y_49 + y_74 + y_98 - z_2901 >= 0
 c2903: y_2 + y_14 + y_82 + y_83 + y_85 - z_2902 >= 0
 c2904: y_13 + y_28 + y_60 + y_76 + y_81 - z_2903 >= 0
 c2905: y_13 + y_60 - z_2904 >= 0
 c2906: y_9 + y_12 + y_32 + y_71 + y_88 - z_2905 >= 0
 c2907: y_15 + y_46 + y_49 + y_74 + y_75 + y_95 - z_2906 >= 0
 c2908: y_3 + y_15 + y_19 + y_21 + y_33 + y_36 + y_38 + y_41 + y_47 + y_48
        + y_79 - z_2907 >= 0
 c2909: y_13 + y_60 - z_2908 >= 0
 c2910: y_3 + y_5 + y_19 + y_33 + y_38 + y_44 + y_90 - z_2909 >= 0
 c2911: y_18 + y_21 + y_36 + y_41 + y_47 + y_94 - z_2910 >= 0
 c2912: y_0 + y_53 + y_63 + y_64 - z_2911 >= 0
 c2913: y_3 + y_19 + y_21 + y_33 + y_38 + y_44 + y_48 + y_79 - z_2912 >= 0
 c2914: y_9 + y_26 + y_67 + y_69 + y_71 + y_97 - z_2913 >= 0
 c2915: y_2 + y_14 + y_82 + y_83 + y_84 + y_85 - z_2914 >= 0
 c2916: y_9 + y_12 + y_71 - z_2915 >= 0
 c2917: y_15 + y_20 + y_41 + y_46 + y_61 + y_75 + y_79 + y_80 + y_93 + y_95
        - z_2916 >= 0
 c2918: y_6 + y_58 + y_90 + y_91 - z_2917 >= 0
 c2919: y_71 - z_2918 >= 0
 c2920: y_16 + y_39 + y_50 + y_54 + y_56 + y_66 + y_87 - z_2919 >= 0
 c2921: y_5 + y_8 + y_20 + y_34 + y_61 + y_75 + y_80 + y_93 - z_2920 >= 0
 c2922: y_40 + y_55 + y_87 + y_92 - z_2921 >= 0
 c2923: y_25 + y_35 + y_40 + y_77 + y_87 + y_92 - z_2922 >= 0
 c2924: y_11 + y_24 + y_52 + y_68 + y_70 + y_86 + y_97 - z_2923 >= 0
 c2925: y_12 + y_22 + y_57 + y_88 - z_2924 >= 0
 c2926: y_5 + y_6 + y_34 + y_90 - z_2925 >= 0
 c2927: y_50 + y_56 + y_65 - z_2926 >= 0
 c2928: y_11 + y_67 + y_68 + y_69 + y_97 - z_2927 >= 0
 c2929: y_10 + y_13 + y_28 + y_60 + y_76 + y_78 + y_81 - z_2928 >= 0
 c2930: y_29 - z_2929 >= 0
 c2931: y_4 + y_6 + y_9 + y_12 + y_32 + y_88 - z_2930 >= 0
 c2932: y_8 + y_15 + y_20 + y_34 + y_46 + y_61 + y_75 + y_79 + y_80 + y_93
        + y_95 - z_2931 >= 0
 c2933: y_29 - z_2932 >= 0
 c2934: y_12 + y_22 + y_57 + y_65 + y_88 - z_2933 >= 0
 c2935: y_15 + y_20 + y_41 + y_46 + y_47 + y_48 + y_61 + y_75 + y_79 + y_80
        + y_93 + y_95 - z_2934 >= 0
 c2936: y_25 + y_35 + y_40 + y_77 + y_87 + y_92 - z_2935 >= 0
 c2937: y_16 + y_39 + y_53 + y_54 + y_58 + y_66 + y_91 - z_2936 >= 0
 c2938: y_65 - z_2937 >= 0
 c2939: y_50 + y_56 + y_58 - z_2938 >= 0
 c2940: y_37 + y_45 - z_2939 >= 0
 c2941: y_0 + y_17 + y_39 + y_53 + y_55 + y_63 + y_64 - z_2940 >= 0
 c2942: y_13 + y_57 + y_60 + y_65 + y_72 + y_76 - z_2941 >= 0
 c2943: y_16 + y_40 + y_54 + y_55 + y_66 + y_87 + y_92 - z_2942 >= 0
 c2944: y_1 + y_31 + y_37 + y_73 + y_89 + y_99 - z_2943 >= 0
 c2945: y_22 + y_50 + y_56 + y_65 - z_2944 >= 0
 c2946: y_17 + y_96 - z_2945 >= 0
 c2947: y_0 + y_16 + y_39 + y_42 + y_54 + y_55 + y_63 + y_64 - z_2946 >= 0
 c2948: y_29 - z_2947 >= 0
 c2949: y_3 + y_4 + y_6 + y_32 + y_33 + y_38 + y_44 + y_90 - z_2948 >= 0
 c2950: y_15 + y_18 + y_20 + y_21 + y_33 + y_36 + y_41 + y_47 + y_48 + y_61
        + y_79 + y_93 + y_95 - z_2949 >= 0
 c2951: y_25 + y_29 + y_35 + y_50 + y_77 - z_2950 >= 0
 c2952: y_7 + y_51 + y_62 - z_2951 >= 0
 c2953: y_50 + y_56 - z_2952 >= 0
 c2954: y_11 + y_24 + y_43 + y_52 + y_59 + y_68 + y_70 + y_86 - z_2953 >= 0
 c2955: y_25 + y_29 + y_35 + y_77 + y_87 + y_92 - z_2954 >= 0
 c2956: y_16 + y_39 + y_50 + y_54 + y_56 + y_58 + y_66 + y_91 - z_2955 >= 0
 c2957: y_5 + y_15 + y_20 + y_33 + y_34 + y_48 + y_61 + y_79 + y_80 + y_93
        - z_2956 >= 0
 c2958: y_25 + y_29 + y_50 + y_56 + y_66 + y_77 + y_87 - z_2957 >= 0
 c2959: y_0 + y_14 + y_27 + y_42 - z_2958 >= 0
 c2960: y_0 + y_2 + y_14 + y_27 + y_42 + y_82 - z_2959 >= 0
 c2961: y_8 + y_20 + y_34 + y_61 + y_75 + y_80 + y_93 - z_2960 >= 0
 c2962: y_0 + y_27 + y_42 + y_55 + y_64 - z_2961 >= 0
 c2963: y_10 + y_76 + y_78 + y_81 - z_2962 >= 0
 c2964: y_56 + y_58 - z_2963 >= 0
 c2965: y_1 + y_7 + y_23 + y_31 + y_51 + y_62 + y_89 + y_98 + y_99 - z_2964 >= 
        0
 c2966: y_12 + y_22 + y_57 + y_65 + y_72 + y_88 - z_2965 >= 0
 c2967: y_2 + y_14 + y_82 + y_83 + y_84 - z_2966 >= 0
 c2968: y_6 + y_22 + y_32 - z_2967 >= 0
 c2969: y_6 + y_58 + y_91 - z_2968 >= 0
 c2970: - z_2969 >= 0
 c2971: y_3 + y_15 + y_20 + y_21 + y_33 + y_36 + y_41 + y_47 + y_48 + y_61
        + y_79 + y_80 + y_93 + y_95 - z_2970 >= 0
 c2972: y_18 + y_21 + y_36 + y_41 + y_47 + y_94 - z_2971 >= 0
 c2973: y_15 + y_18 + y_20 + y_36 + y_41 + y_46 + y_47 + y_61 + y_75 + y_79
        + y_80 + y_93 + y_95 - z_2972 >= 0
 c2974: y_9 + y_12 + y_32 + y_71 + y_88 - z_2973 >= 0
 c2975: y_13 + y_60 + y_76 - z_2974 >= 0
 c2976: y_1 + y_23 + y_31 + y_46 + y_73 + y_89 + y_98 + y_99 - z_2975 >= 0
 c2977: y_1 + y_73 + y_96 - z_2976 >= 0
 c2978: y_11 + y_43 + y_52 + y_59 + y_67 + y_68 + y_69 + y_97 - z_2977 >= 0
 c2979: y_37 + y_45 - z_2978 >= 0
 c2980: y_11 + y_19 + y_26 + y_38 + y_43 + y_52 + y_59 + y_67 + y_68 + y_69
        - z_2979 >= 0
 c2981: y_58 + y_91 - z_2980 >= 0
 c2982: y_12 + y_71 + y_88 - z_2981 >= 0
 c2983: y_17 + y_39 + y_53 + y_58 + y_63 + y_91 - z_2982 >= 0
 c2984: y_83 + y_84 + y_85 - z_2983 >= 0
 c2985: y_2 + y_83 + y_85 - z_2984 >= 0
 c2986: y_10 + y_12 + y_57 + y_72 + y_78 + y_88 - z_2985 >= 0
 c2987: y_45 - z_2986 >= 0
 c2988: y_4 + y_6 + y_32 + y_90 - z_2987 >= 0
 c2989: y_6 + y_22 + y_32 + y_90 - z_2988 >= 0
 c2990: y_71 - z_2989 >= 0
 c2991: y_8 + y_15 + y_20 + y_34 + y_41 + y_48 + y_61 + y_75 + y_79 + y_80
        + y_93 + y_95 - z_2990 >= 0
 c2992: y_22 + y_65 - z_2991 >= 0
 c2993: y_6 + y_58 + y_90 + y_91 - z_2992 >= 0
 c2994: y_12 + y_22 + y_57 + y_72 + y_88 - z_2993 >= 0
 c2995: y_10 + y_12 + y_57 + y_72 + y_78 + y_88 - z_2994 >= 0
 c2996: y_4 + y_9 + y_26 + y_32 + y_71 - z_2995 >= 0
 c2997: y_16 + y_39 + y_40 + y_42 + y_54 + y_55 + y_63 + y_64 + y_66 - z_2996
         >= 0
 c2998: y_2 + y_14 + y_27 + y_82 - z_2997 >= 0
 c2999: y_1 + y_23 + y_46 + y_49 + y_74 + y_75 + y_95 + y_98 - z_2998 >= 0
 c3000: y_4 + y_5 + y_6 + y_32 + y_44 + y_90 - z_2999 >= 0
 c3001: y_71 - z_3000 >= 0
 c3002: y_83 + y_84 + y_85 - z_3001 >= 0
 c3003: y_2 + y_14 + y_82 + y_83 + y_84 + y_85 - z_3002 >= 0
 c3004: y_16 + y_39 + y_50 + y_54 + y_56 + y_58 + y_66 + y_87 - z_3003 >= 0
 c3005: y_17 + y_53 + y_58 + y_91 - z_3004 >= 0
 c3006: y_2 + y_83 + y_85 - z_3005 >= 0
 c3007: y_56 + y_65 - z_3006 >= 0
 c3008: y_3 + y_15 + y_20 + y_21 + y_33 + y_34 + y_41 + y_44 + y_47 + y_48
        + y_61 + y_79 + y_80 + y_93 - z_3007 >= 0
 c3009: y_8 + y_17 + y_96 - z_3008 >= 0
 c3010: y_11 + y_26 + y_52 + y_67 + y_68 + y_69 + y_97 - z_3009 >= 0
 c3011: y_0 + y_2 + y_14 + y_27 + y_42 + y_55 + y_82 - z_3010 >= 0
 c3012: y_4 + y_6 + y_26 + y_32 + y_38 + y_44 + y_90 - z_3011 >= 0
 c3013: y_16 + y_39 + y_50 + y_54 + y_58 + y_66 + y_87 - z_3012 >= 0
 c3014: y_0 + y_2 + y_14 + y_27 + y_42 + y_55 + y_82 - z_3013 >= 0
 c3015: y_12 + y_57 + y_65 + y_72 + y_78 + y_88 - z_3014 >= 0
 c3016: y_2 + y_55 + y_83 + y_85 - z_3015 >= 0
 c3017: y_1 + y_8 + y_46 + y_73 + y_75 + y_96 - z_3016 >= 0
 c3018: y_9 + y_11 + y_19 + y_26 + y_38 + y_67 + y_68 + y_69 - z_3017 >= 0
 c3019: y_1 + y_31 + y_37 + y_73 + y_89 + y_99 - z_3018 >= 0
 c3020: y_45 - z_3019 >= 0
 c3021: y_3 + y_19 + y_21 + y_30 + y_33 + y_38 + y_43 + y_48 + y_52 + y_59
        - z_3020 >= 0
 c3022: y_8 + y_17 + y_34 + y_96 - z_3021 >= 0
 c3023: y_13 + y_28 + y_60 + y_76 + y_81 - z_3022 >= 0
 c3024: y_3 + y_5 + y_19 + y_33 + y_34 + y_38 + y_44 + y_48 + y_61 + y_79
        - z_3023 >= 0
 c3025: y_17 + y_53 + y_91 + y_96 - z_3024 >= 0
 c3026: y_5 + y_6 + y_34 + y_90 - z_3025 >= 0
 c3027: y_1 + y_31 + y_37 + y_73 + y_89 + y_99 - z_3026 >= 0
 c3028: y_12 + y_22 + y_57 + y_88 - z_3027 >= 0
 c3029: y_13 + y_28 + y_60 + y_76 + y_78 + y_81 - z_3028 >= 0
 c3030: y_16 + y_40 + y_54 + y_55 + y_66 + y_87 + y_92 - z_3029 >= 0
 c3031: y_4 + y_6 + y_32 + y_90 - z_3030 >= 0
 c3032: y_25 + y_29 + y_35 + y_77 - z_3031 >= 0
 c3033: y_4 + y_6 + y_26 + y_32 + y_38 + y_44 + y_90 - z_3032 >= 0
 c3034: y_40 + y_55 + y_92 - z_3033 >= 0
 c3035: y_3 + y_19 + y_33 + y_38 + y_44 + y_48 + y_79 - z_3034 >= 0
 c3036: y_8 + y_17 + y_96 - z_3035 >= 0
 c3037: y_16 + y_39 + y_53 + y_54 + y_58 + y_63 + y_66 + y_87 + y_91 - z_3036
         >= 0
 c3038: y_4 + y_9 + y_26 + y_32 + y_38 + y_44 + y_90 - z_3037 >= 0
 c3039: y_3 + y_4 + y_5 + y_6 + y_33 + y_34 + y_38 + y_44 + y_90 - z_3038 >= 0
 c3040: y_29 - z_3039 >= 0
 c3041: y_11 + y_19 + y_26 + y_38 + y_43 + y_52 + y_59 + y_67 + y_68 + y_69
        - z_3040 >= 0
 c3042: y_25 + y_29 + y_35 + y_77 - z_3041 >= 0
 c3043: y_5 + y_8 + y_15 + y_20 + y_34 + y_61 + y_75 + y_79 + y_80 + y_93
        - z_3042 >= 0
 c3044: y_4 + y_5 + y_6 + y_34 + y_44 + y_90 - z_3043 >= 0
 c3045: y_40 + y_83 + y_85 + y_92 - z_3044 >= 0
 c3046: y_2 + y_40 + y_83 + y_85 - z_3045 >= 0
 c3047: y_16 + y_39 + y_40 + y_54 + y_66 + y_87 + y_92 - z_3046 >= 0
 c3048: y_30 + y_43 + y_52 + y_59 + y_94 - z_3047 >= 0
 c3049: y_7 + y_23 + y_51 + y_98 - z_3048 >= 0
 c3050: y_10 + y_13 + y_57 + y_60 + y_72 + y_76 + y_78 + y_81 - z_3049 >= 0
 c3051: y_1 + y_23 + y_46 + y_49 + y_73 + y_75 + y_98 + y_99 - z_3050 >= 0
 c3052: y_0 + y_27 + y_42 + y_55 + y_63 + y_64 - z_3051 >= 0
 c3053: y_13 + y_28 + y_60 + y_76 - z_3052 >= 0
 c3054: y_45 - z_3053 >= 0
 c3055: y_16 + y_39 + y_40 + y_54 + y_55 + y_63 + y_64 + y_66 + y_87 - z_3054
         >= 0
 c3056: y_15 + y_18 + y_20 + y_36 + y_41 + y_46 + y_47 + y_61 + y_75 + y_79
        + y_80 + y_93 + y_95 - z_3055 >= 0
 c3057: y_13 + y_28 + y_60 + y_76 + y_78 + y_81 - z_3056 >= 0
 c3058: y_37 + y_45 + y_73 + y_96 - z_3057 >= 0
 c3059: y_0 + y_2 + y_27 + y_42 + y_55 + y_64 - z_3058 >= 0
 c3060: y_4 + y_9 + y_26 + y_32 + y_38 + y_67 + y_69 - z_3059 >= 0
 c3061: y_29 - z_3060 >= 0
 c3062: y_23 + y_49 + y_74 + y_98 - z_3061 >= 0
 c3063: y_30 + y_43 + y_94 - z_3062 >= 0
 c3064: y_2 + y_14 + y_82 + y_83 + y_84 + y_85 - z_3063 >= 0
 c3065: y_83 + y_84 + y_85 - z_3064 >= 0
 c3066: y_3 + y_19 + y_26 + y_33 + y_38 + y_44 + y_48 + y_69 - z_3065 >= 0
 c3067: y_2 + y_83 + y_85 - z_3066 >= 0
 c3068: y_24 + y_52 + y_59 + y_70 + y_86 - z_3067 >= 0
 c3069: y_13 + y_28 + y_60 + y_76 - z_3068 >= 0
 c3070: y_15 + y_20 + y_21 + y_36 + y_41 + y_47 + y_48 + y_61 + y_75 + y_79
        + y_80 + y_93 + y_95 - z_3069 >= 0
 c3071: y_29 - z_3070 >= 0
 c3072: y_16 + y_17 + y_39 + y_53 + y_54 + y_58 + y_63 + y_64 + y_91 - z_3071
         >= 0
 c3073: y_4 + y_9 + y_12 + y_32 + y_71 + y_88 - z_3072 >= 0
 c3074: y_24 + y_70 + y_86 - z_3073 >= 0
 c3075: y_2 + y_40 + y_42 + y_55 + y_64 - z_3074 >= 0
 c3076: y_25 + y_35 + y_40 + y_50 + y_66 + y_77 + y_87 + y_92 - z_3075 >= 0
 c3077: y_22 + y_57 + y_65 + y_88 - z_3076 >= 0
 c3078: y_9 + y_26 + y_32 + y_71 - z_3077 >= 0
 c3079: y_29 - z_3078 >= 0
 c3080: y_16 + y_39 + y_42 + y_53 + y_54 + y_55 + y_63 + y_64 - z_3079 >= 0
 c3081: y_24 + y_52 + y_59 + y_70 + y_86 - z_3080 >= 0
 c3082: y_24 + y_52 + y_59 + y_70 + y_86 - z_3081 >= 0
 c3083: y_10 + y_13 + y_57 + y_60 + y_72 + y_76 + y_78 + y_81 - z_3082 >= 0
 c3084: y_2 + y_14 + y_27 + y_82 + y_83 - z_3083 >= 0
 c3085: y_4 + y_12 + y_22 + y_32 + y_88 - z_3084 >= 0
 c3086: y_9 + y_71 - z_3085 >= 0
 c3087: y_5 + y_8 + y_15 + y_20 + y_33 + y_34 + y_61 + y_79 + y_80 + y_93
        - z_3086 >= 0
 c3088: y_37 + y_45 - z_3087 >= 0
 c3089: y_30 + y_43 + y_52 + y_59 + y_94 - z_3088 >= 0
 c3090: y_25 + y_35 + y_77 + y_92 - z_3089 >= 0
 c3091: y_13 + y_57 + y_60 + y_65 + y_72 + y_76 - z_3090 >= 0
 c3092: y_4 + y_9 + y_12 + y_32 + y_71 + y_88 - z_3091 >= 0
 c3093: y_16 + y_39 + y_50 + y_54 + y_56 + y_58 + y_66 + y_87 - z_3092 >= 0
 c3094: y_11 + y_24 + y_43 + y_52 + y_59 + y_68 + y_70 + y_86 - z_3093 >= 0
 c3095: y_3 + y_19 + y_21 + y_33 + y_38 + y_41 + y_44 + y_48 + y_79 - z_3094
         >= 0
 c3096: y_4 + y_6 + y_12 + y_22 + y_32 + y_88 - z_3095 >= 0
 c3097: y_0 + y_27 + y_39 + y_42 + y_55 + y_63 + y_64 - z_3096 >= 0
 c3098: y_3 + y_19 + y_21 + y_33 + y_36 + y_41 + y_47 + y_48 + y_79 - z_3097
         >= 0
 c3099: y_16 + y_39 + y_50 + y_54 + y_56 + y_58 + y_66 - z_3098 >= 0
 c3100: y_11 + y_26 + y_67 + y_68 + y_69 + y_97 - z_3099 >= 0
 c3101: y_40 + y_83 + y_85 + y_92 - z_3100 >= 0
 c3102: y_22 + y_57 + y_65 + y_72 - z_3101 >= 0
 c3103: y_2 + y_27 + y_42 + y_55 + y_83 - z_3102 >= 0
 c3104: y_2 + y_83 + y_84 + y_85 - z_3103 >= 0
 c3105: y_4 + y_9 + y_12 + y_32 + y_88 - z_3104 >= 0
 c3106: y_12 + y_71 + y_88 - z_3105 >= 0
 c3107: y_16 + y_39 + y_40 + y_42 + y_54 + y_55 + y_63 + y_64 - z_3106 >= 0
 c3108: y_2 + y_14 + y_27 + y_42 + y_82 - z_3107 >= 0
 c3109: y_25 + y_29 + y_35 + y_77 - z_3108 >= 0
 c3110: y_11 + y_24 + y_30 + y_43 + y_52 + y_59 + y_68 + y_70 + y_94 - z_3109
         >= 0
 c3111: y_0 + y_27 + y_42 + y_64 - z_3110 >= 0
 c3112: y_4 + y_6 + y_32 + y_44 + y_90 - z_3111 >= 0
 c3113: y_1 + y_37 + y_73 + y_96 - z_3112 >= 0
 c3114: y_50 + y_56 + y_58 - z_3113 >= 0
 c3115: y_71 - z_3114 >= 0
 c3116: y_11 + y_26 + y_52 + y_67 + y_68 + y_69 + y_97 - z_3115 >= 0
 c3117: y_16 + y_39 + y_53 + y_54 + y_55 + y_58 + y_63 + y_64 + y_91 - z_3116
         >= 0
 c3118: y_71 - z_3117 >= 0
 c3119: y_15 + y_18 + y_46 + y_49 + y_74 + y_95 - z_3118 >= 0
 c3120: y_8 + y_15 + y_20 + y_46 + y_49 + y_61 + y_74 + y_75 + y_80 + y_93
        + y_95 - z_3119 >= 0
 c3121: y_3 + y_5 + y_15 + y_20 + y_33 + y_34 + y_44 + y_48 + y_61 + y_79 + y_80
        + y_93 - z_3120 >= 0
 c3122: y_57 + y_65 + y_72 - z_3121 >= 0
 c3123: y_2 + y_14 + y_82 + y_83 - z_3122 >= 0
 c3124: y_5 + y_6 + y_34 + y_90 - z_3123 >= 0
 c3125: y_4 + y_9 + y_19 + y_26 + y_32 + y_38 + y_44 + y_67 + y_69 - z_3124 >= 
        0
 c3126: y_25 + y_29 + y_35 + y_77 - z_3125 >= 0
 c3127: y_11 + y_26 + y_52 + y_59 + y_67 + y_68 + y_69 + y_97 - z_3126 >= 0
 c3128: y_18 + y_46 + y_49 + y_74 + y_95 - z_3127 >= 0
 c3129: y_25 + y_29 + y_35 + y_50 + y_77 - z_3128 >= 0
 c3130: y_4 + y_6 + y_22 + y_32 + y_90 - z_3129 >= 0
 c3131: y_16 + y_39 + y_53 + y_54 + y_58 + y_63 + y_64 + y_91 - z_3130 >= 0
 c3132: y_22 + y_57 + y_65 + y_72 + y_88 - z_3131 >= 0
 c3133: y_40 + y_42 + y_55 + y_63 + y_64 - z_3132 >= 0
 c3134: y_0 + y_27 + y_42 + y_55 + y_63 + y_64 - z_3133 >= 0
 c3135: y_12 + y_22 + y_32 + y_88 - z_3134 >= 0
 c3136: y_4 + y_9 + y_26 + y_32 + y_38 + y_44 + y_67 + y_69 - z_3135 >= 0
 c3137: y_4 + y_9 + y_12 + y_32 + y_71 + y_88 - z_3136 >= 0
 c3138: y_2 + y_40 + y_83 + y_85 + y_92 - z_3137 >= 0
 c3139: y_16 + y_39 + y_40 + y_54 + y_55 + y_63 + y_64 + y_66 + y_87 - z_3138
         >= 0
 c3140: y_23 + y_46 + y_49 + y_74 + y_95 + y_98 - z_3139 >= 0
 c3141: y_2 + y_14 + y_82 + y_83 + y_84 + y_85 - z_3140 >= 0
 c3142: y_83 + y_84 + y_85 - z_3141 >= 0
 c3143: y_37 + y_45 - z_3142 >= 0
 c3144: y_71 - z_3143 >= 0
 c3145: y_16 + y_39 + y_40 + y_53 + y_54 + y_55 + y_63 + y_64 + y_66 - z_3144
         >= 0
 c3146: y_2 + y_14 + y_27 + y_42 + y_82 - z_3145 >= 0
 c3147: y_16 + y_40 + y_54 + y_66 + y_87 + y_92 - z_3146 >= 0
 c3148: y_17 + y_39 + y_53 + y_58 + y_63 + y_91 - z_3147 >= 0
 c3149: y_58 + y_91 - z_3148 >= 0
 c3150: y_37 + y_45 + y_73 + y_96 - z_3149 >= 0
 c3151: y_83 + y_85 - z_3150 >= 0
 c3152: y_30 + y_43 + y_59 + y_94 - z_3151 >= 0
 c3153: y_25 + y_29 + y_35 + y_77 + y_87 + y_92 - z_3152 >= 0
 c3154: y_10 + y_57 + y_60 + y_72 + y_76 + y_78 + y_81 + y_88 - z_3153 >= 0
 c3155: y_3 + y_19 + y_21 + y_33 + y_36 + y_38 + y_41 + y_43 + y_47 + y_48
        + y_79 - z_3154 >= 0
 c3156: y_12 + y_22 + y_57 + y_65 + y_72 + y_78 + y_88 - z_3155 >= 0
 c3157: y_10 + y_13 + y_28 + y_60 + y_76 + y_78 + y_81 - z_3156 >= 0
 c3158: y_21 + y_30 + y_36 + y_41 + y_43 + y_47 + y_94 - z_3157 >= 0
 c3159: y_0 + y_16 + y_39 + y_42 + y_53 + y_54 + y_55 + y_63 + y_64 - z_3158
         >= 0
 c3160: y_6 + y_22 - z_3159 >= 0
 c3161: y_16 + y_39 + y_53 + y_54 + y_55 + y_58 + y_63 + y_64 + y_66 + y_91
        - z_3160 >= 0
 c3162: y_16 + y_39 + y_42 + y_53 + y_54 + y_55 + y_63 + y_64 - z_3161 >= 0
 c3163: y_16 + y_39 + y_50 + y_54 + y_56 + y_66 + y_87 - z_3162 >= 0
 c3164: y_23 + y_98 - z_3163 >= 0
 c3165: y_8 + y_17 + y_75 + y_80 + y_96 - z_3164 >= 0
 c3166: y_17 + y_39 + y_53 + y_58 + y_63 + y_91 - z_3165 >= 0
 c3167: y_1 + y_23 + y_46 + y_49 + y_74 + y_98 - z_3166 >= 0
 c3168: y_16 + y_50 + y_56 + y_66 - z_3167 >= 0
 c3169: y_9 + y_71 - z_3168 >= 0
 c3170: y_16 + y_39 + y_53 + y_54 + y_58 + y_66 + y_91 - z_3169 >= 0
 c3171: y_3 + y_5 + y_15 + y_20 + y_33 + y_34 + y_44 + y_48 + y_61 + y_79 + y_80
        + y_93 - z_3170 >= 0
 c3172: y_17 + y_39 + y_53 + y_58 + y_63 + y_64 + y_91 - z_3171 >= 0
 c3173: y_83 + y_85 - z_3172 >= 0
 c3174: y_5 + y_6 + y_34 + y_44 + y_90 - z_3173 >= 0
 c3175: y_3 + y_19 + y_21 + y_33 + y_36 + y_38 + y_41 + y_44 + y_47 + y_48
        + y_79 - z_3174 >= 0
 c3176: y_83 + y_84 + y_85 - z_3175 >= 0
 c3177: y_9 + y_11 + y_26 + y_38 + y_67 + y_68 + y_69 - z_3176 >= 0
 c3178: y_3 + y_5 + y_19 + y_33 + y_34 + y_38 + y_44 + y_48 + y_61 - z_3177 >= 
        0
 c3179: y_2 + y_14 + y_82 + y_83 + y_84 + y_85 - z_3178 >= 0
 c3180: y_8 + y_17 + y_96 - z_3179 >= 0
 c3181: y_0 + y_27 + y_42 + y_55 + y_64 - z_3180 >= 0
 c3182: y_9 + y_71 - z_3181 >= 0
 c3183: y_4 + y_6 + y_9 + y_26 + y_32 + y_90 - z_3182 >= 0
 c3184: y_2 + y_27 + y_42 + y_55 + y_83 - z_3183 >= 0
 c3185: y_12 + y_22 + y_57 + y_88 - z_3184 >= 0
 c3186: y_5 + y_8 + y_17 + y_34 + y_75 + y_80 + y_96 - z_3185 >= 0
 c3187: y_10 + y_57 + y_60 + y_72 + y_76 + y_78 + y_81 - z_3186 >= 0
 c3188: y_24 + y_52 + y_59 + y_70 + y_86 - z_3187 >= 0
 c3189: y_4 + y_6 + y_12 + y_32 + y_88 + y_90 - z_3188 >= 0
 c3190: y_5 + y_8 + y_17 + y_34 + y_80 + y_93 - z_3189 >= 0
 c3191: y_4 + y_6 + y_32 + y_90 - z_3190 >= 0
 c3192: y_17 + y_39 + y_53 + y_58 + y_63 + y_91 - z_3191 >= 0
 c3193: y_13 - z_3192 >= 0
 c3194: y_13 + y_57 + y_60 + y_65 + y_72 + y_76 + y_78 + y_81 - z_3193 >= 0
 c3195: y_11 + y_19 + y_30 + y_43 + y_52 + y_59 + y_68 + y_69 - z_3194 >= 0
 c3196: y_85 + y_92 - z_3195 >= 0
 c3197: y_11 + y_19 + y_30 + y_43 + y_52 + y_59 + y_67 + y_68 + y_69 - z_3196
         >= 0
 c3198: y_17 + y_39 + y_53 + y_58 + y_63 + y_91 - z_3197 >= 0
 c3199: y_6 + y_58 - z_3198 >= 0
 c3200: y_8 + y_17 + y_96 - z_3199 >= 0
 c3201: y_0 + y_27 + y_42 + y_55 + y_64 - z_3200 >= 0
 c3202: y_11 + y_30 + y_43 + y_52 + y_59 + y_94 - z_3201 >= 0
 c3203: y_16 + y_39 + y_50 + y_54 + y_56 + y_58 + y_66 + y_87 - z_3202 >= 0
 c3204: y_1 + y_7 + y_23 + y_31 + y_37 + y_51 + y_73 + y_89 + y_98 + y_99
        - z_3203 >= 0
 c3205: y_0 + y_27 + y_42 + y_55 + y_63 + y_64 - z_3204 >= 0
 c3206: y_25 + y_29 + y_35 + y_50 + y_56 + y_77 - z_3205 >= 0
 c3207: y_2 + y_82 + y_83 + y_84 + y_85 - z_3206 >= 0
 c3208: y_25 + y_35 + y_40 + y_66 + y_77 + y_87 + y_92 - z_3207 >= 0
 c3209: y_11 + y_52 + y_59 + y_67 + y_68 + y_69 + y_97 - z_3208 >= 0
 c3210: y_22 + y_57 + y_65 + y_72 - z_3209 >= 0
 c3211: y_25 + y_35 + y_40 + y_77 + y_92 - z_3210 >= 0
 c3212: y_3 + y_19 + y_21 + y_33 + y_36 + y_38 + y_41 + y_43 + y_47 + y_48
        + y_79 - z_3211 >= 0
 c3213: y_7 + y_23 + y_31 + y_51 + y_62 + y_89 + y_98 + y_99 - z_3212 >= 0
 c3214: y_12 + y_22 + y_57 + y_65 + y_72 + y_88 - z_3213 >= 0
 c3215: y_21 + y_30 + y_36 + y_41 + y_43 + y_47 + y_94 - z_3214 >= 0
 c3216: y_2 + y_14 + y_82 + y_83 + y_84 + y_85 - z_3215 >= 0
 c3217: y_57 + y_65 + y_72 - z_3216 >= 0
 c3218: y_11 + y_24 + y_52 + y_67 + y_68 + y_69 + y_70 + y_86 + y_97 - z_3217
         >= 0
 c3219: y_15 + y_18 + y_21 + y_36 + y_41 + y_47 + y_48 + y_79 + y_95 - z_3218
         >= 0
 c3220: y_16 + y_39 + y_40 + y_54 + y_63 + y_66 + y_87 - z_3219 >= 0
 c3221: - z_3220 >= 0
 c3222: y_50 + y_56 + y_65 - z_3221 >= 0
 c3223: y_13 + y_28 + y_60 - z_3222 >= 0
 c3224: y_22 + y_50 + y_56 + y_65 - z_3223 >= 0
 c3225: y_73 + y_96 - z_3224 >= 0
 c3226: y_17 + y_39 + y_53 + y_58 + y_63 + y_91 - z_3225 >= 0
 c3227: y_23 + y_46 + y_49 + y_74 + y_95 + y_98 - z_3226 >= 0
 c3228: y_4 + y_6 + y_26 + y_32 + y_38 + y_44 + y_90 - z_3227 >= 0
 c3229: y_45 + y_96 - z_3228 >= 0
 c3230: y_2 + y_14 + y_82 + y_83 + y_85 - z_3229 >= 0
 c3231: y_15 + y_18 + y_20 + y_21 + y_36 + y_41 + y_46 + y_47 + y_61 + y_79
        + y_80 + y_93 + y_95 - z_3230 >= 0
 c3232: y_3 + y_19 + y_21 + y_33 + y_38 + y_44 + y_48 + y_79 - z_3231 >= 0
 c3233: y_10 + y_12 + y_88 - z_3232 >= 0
 c3234: y_17 + y_53 + y_58 + y_91 - z_3233 >= 0
 c3235: y_22 + y_57 + y_65 + y_72 - z_3234 >= 0
 c3236: y_96 - z_3235 >= 0
 c3237: y_57 + y_65 + y_72 - z_3236 >= 0
 c3238: y_0 + y_27 + y_42 + y_63 + y_64 - z_3237 >= 0
 c3239: y_13 + y_57 + y_60 + y_65 + y_72 + y_76 + y_78 - z_3238 >= 0
 c3240: y_23 + y_49 + y_74 + y_98 - z_3239 >= 0
 c3241: y_0 + y_27 + y_42 + y_55 + y_64 - z_3240 >= 0
 c3242: y_5 + y_6 + y_90 - z_3241 >= 0
 c3243: y_3 + y_9 + y_11 + y_19 + y_26 + y_38 + y_44 + y_67 + y_68 + y_69
        - z_3242 >= 0
 c3244: y_13 + y_28 + y_60 + y_76 + y_81 - z_3243 >= 0
 c3245: - z_3244 >= 0
 c3246: y_3 + y_11 + y_19 + y_33 + y_38 + y_43 + y_52 + y_59 + y_67 + y_68
        + y_69 - z_3245 >= 0
 c3247: y_45 - z_3246 >= 0
 c3248: y_15 + y_18 + y_46 + y_49 + y_74 + y_95 - z_3247 >= 0
 c3249: y_2 + y_14 + y_82 + y_83 - z_3248 >= 0
 c3250: y_50 + y_56 + y_66 + y_87 - z_3249 >= 0
 c3251: y_50 + y_56 - z_3250 >= 0
 c3252: y_1 + y_37 + y_73 + y_96 + y_99 - z_3251 >= 0
 c3253: y_5 + y_34 + y_90 - z_3252 >= 0
 c3254: y_9 + y_11 + y_19 + y_26 + y_38 + y_67 + y_68 + y_69 - z_3253 >= 0
 c3255: y_1 + y_23 + y_46 + y_49 + y_74 + y_98 + y_99 - z_3254 >= 0
 c3256: y_17 + y_96 - z_3255 >= 0
 c3257: y_13 + y_60 + y_72 + y_76 - z_3256 >= 0
 c3258: y_12 + y_71 + y_88 - z_3257 >= 0
 c3259: y_2 + y_40 + y_42 + y_55 + y_83 + y_85 - z_3258 >= 0
 c3260: y_25 + y_29 + y_35 + y_50 + y_77 - z_3259 >= 0
 c3261: y_3 + y_11 + y_19 + y_26 + y_38 + y_44 + y_67 + y_68 + y_69 - z_3260
         >= 0
 c3262: y_2 + y_14 + y_82 + y_83 + y_84 + y_85 - z_3261 >= 0
 c3263: y_4 + y_6 + y_22 + y_32 + y_90 - z_3262 >= 0
 c3264: y_10 + y_57 + y_60 + y_72 + y_76 + y_78 + y_81 - z_3263 >= 0
 c3265: y_17 + y_53 + y_96 - z_3264 >= 0
 c3266: y_25 + y_29 + y_35 + y_50 + y_56 + y_77 - z_3265 >= 0
 c3267: y_0 + y_2 + y_27 + y_42 + y_55 - z_3266 >= 0
 c3268: y_0 + y_27 + y_42 + y_55 + y_64 - z_3267 >= 0
 c3269: y_83 + y_84 + y_85 - z_3268 >= 0
 c3270: y_9 + y_71 + y_97 - z_3269 >= 0
 c3271: y_37 + y_45 + y_73 + y_89 - z_3270 >= 0
 c3272: y_13 + y_60 + y_65 + y_72 + y_76 - z_3271 >= 0
 c3273: y_0 + y_27 + y_42 + y_55 + y_63 + y_64 - z_3272 >= 0
 c3274: y_5 + y_8 + y_17 + y_34 - z_3273 >= 0
 c3275: y_25 + y_29 + y_35 + y_77 - z_3274 >= 0
 c3276: y_1 + y_8 + y_73 + y_75 + y_80 + y_96 - z_3275 >= 0
 c3277: y_96 - z_3276 >= 0
 c3278: y_2 + y_83 + y_85 - z_3277 >= 0
 c3279: y_24 + y_52 + y_59 + y_70 + y_86 - z_3278 >= 0
 c3280: y_3 + y_19 + y_33 + y_38 + y_44 + y_48 - z_3279 >= 0
 c3281: y_15 + y_20 + y_21 + y_33 + y_34 + y_41 + y_47 + y_48 + y_61 + y_75
        + y_79 + y_80 + y_93 + y_95 - z_3280 >= 0
 c3282: y_0 + y_27 + y_42 + y_55 + y_64 - z_3281 >= 0
 c3283: y_9 + y_26 + y_67 + y_68 + y_69 + y_97 - z_3282 >= 0
 c3284: y_23 + y_46 + y_49 + y_74 + y_95 - z_3283 >= 0
 c3285: y_1 + y_8 + y_73 + y_75 + y_96 - z_3284 >= 0
 c3286: y_5 + y_8 + y_17 + y_20 + y_34 + y_80 + y_93 - z_3285 >= 0
 c3287: y_3 + y_15 + y_19 + y_20 + y_21 + y_33 + y_38 + y_41 + y_44 + y_48
        + y_61 + y_79 + y_93 - z_3286 >= 0
 c3288: y_2 + y_40 + y_42 + y_55 + y_83 + y_92 - z_3287 >= 0
 c3289: y_10 + y_12 + y_57 + y_72 + y_78 + y_88 - z_3288 >= 0
 c3290: y_96 - z_3289 >= 0
 c3291: y_4 + y_6 + y_32 + y_90 - z_3290 >= 0
 c3292: y_65 - z_3291 >= 0
 c3293: y_10 + y_13 + y_28 + y_60 + y_72 + y_76 + y_78 + y_81 - z_3292 >= 0
 c3294: y_13 + y_65 + y_72 - z_3293 >= 0
 c3295: y_9 + y_26 + y_71 - z_3294 >= 0
 c3296: y_37 + y_45 + y_96 - z_3295 >= 0
 c3297: y_3 + y_5 + y_19 + y_33 + y_34 + y_38 + y_44 + y_48 + y_61 + y_79
        - z_3296 >= 0
 c3298: y_0 + y_27 + y_45 - z_3297 >= 0
 c3299: y_3 + y_5 + y_6 + y_33 + y_34 + y_44 + y_90 - z_3298 >= 0
 c3300: y_29 + y_56 - z_3299 >= 0
 c3301: y_18 + y_21 + y_30 + y_36 + y_41 + y_43 + y_47 + y_48 + y_94 - z_3300
         >= 0
 c3302: y_1 + y_8 + y_46 + y_73 + y_75 + y_96 - z_3301 >= 0
 c3303: y_17 + y_53 + y_96 - z_3302 >= 0
 c3304: y_7 + y_31 + y_37 + y_51 + y_62 + y_89 + y_99 - z_3303 >= 0
 c3305: y_1 + y_31 + y_37 + y_73 + y_89 + y_99 - z_3304 >= 0
 c3306: y_50 + y_56 + y_65 - z_3305 >= 0
 c3307: y_3 + y_19 + y_26 + y_33 + y_38 + y_44 + y_67 + y_69 - z_3306 >= 0
 c3308: y_22 - z_3307 >= 0
 c3309: y_37 + y_45 + y_73 + y_96 - z_3308 >= 0
 c3310: y_15 + y_18 + y_21 + y_36 + y_41 + y_47 + y_95 - z_3309 >= 0
 c3311: y_12 + y_22 + y_57 + y_88 - z_3310 >= 0
 c3312: y_5 + y_8 + y_17 + y_34 + y_80 - z_3311 >= 0
 c3313: y_9 + y_71 - z_3312 >= 0
 c3314: y_9 + y_12 + y_71 - z_3313 >= 0
 c3315: y_4 + y_12 + y_22 + y_32 + y_88 - z_3314 >= 0
 c3316: y_17 + y_53 + y_91 - z_3315 >= 0
 c3317: y_22 - z_3316 >= 0
 c3318: y_65 - z_3317 >= 0
 c3319: y_0 + y_2 + y_14 + y_27 + y_42 + y_55 + y_82 - z_3318 >= 0
 c3320: y_31 + y_37 + y_89 + y_99 - z_3319 >= 0
 c3321: y_10 + y_12 + y_88 - z_3320 >= 0
 c3322: y_14 + y_27 + y_82 - z_3321 >= 0
 c3323: y_12 + y_88 - z_3322 >= 0
 c3324: y_23 + y_46 + y_49 + y_74 + y_98 - z_3323 >= 0
 c3325: y_10 + y_60 + y_72 + y_76 + y_78 + y_81 - z_3324 >= 0
 c3326: y_2 + y_14 + y_27 + y_42 + y_82 - z_3325 >= 0
 c3327: y_17 + y_53 + y_58 + y_91 - z_3326 >= 0
 c3328: y_1 + y_31 + y_37 + y_73 + y_89 + y_99 - z_3327 >= 0
 c3329: y_24 + y_52 + y_59 + y_70 + y_86 - z_3328 >= 0
 c3330: y_22 + y_57 + y_65 + y_72 - z_3329 >= 0
 c3331: y_3 + y_15 + y_18 + y_20 + y_21 + y_33 + y_36 + y_41 + y_47 + y_48
        + y_61 + y_79 - z_3330 >= 0
 c3332: y_1 + y_23 + y_31 + y_73 + y_89 + y_98 + y_99 - z_3331 >= 0
 c3333: y_13 + y_60 + y_65 + y_72 + y_76 - z_3332 >= 0
 c3334: y_2 + y_14 + y_82 + y_83 + y_84 + y_85 - z_3333 >= 0
 c3335: y_18 + y_21 + y_36 + y_41 + y_47 + y_48 + y_79 + y_94 - z_3334 >= 0
 c3336: y_0 + y_27 + y_42 + y_64 - z_3335 >= 0
 c3337: y_3 + y_19 + y_21 + y_33 + y_38 + y_41 + y_43 + y_48 - z_3336 >= 0
 c3338: y_0 + y_27 + y_42 + y_55 + y_63 + y_64 - z_3337 >= 0
 c3339: y_4 + y_9 + y_12 + y_32 + y_88 - z_3338 >= 0
 c3340: y_22 + y_50 + y_56 + y_65 - z_3339 >= 0
 c3341: y_0 + y_16 + y_39 + y_42 + y_54 + y_55 + y_63 + y_64 - z_3340 >= 0
 c3342: y_16 + y_39 + y_50 + y_53 + y_54 + y_58 + y_66 + y_91 - z_3341 >= 0
 c3343: y_0 + y_27 + y_42 + y_55 + y_64 - z_3342 >= 0
 c3344: y_11 + y_24 + y_52 + y_59 + y_68 + y_70 + y_86 - z_3343 >= 0
 c3345: y_22 + y_50 + y_56 - z_3344 >= 0
 c3346: y_11 + y_24 + y_43 + y_52 + y_59 + y_67 + y_68 + y_69 + y_70 - z_3345
         >= 0
 c3347: y_24 + y_30 + y_43 + y_52 + y_59 + y_70 + y_94 - z_3346 >= 0
 c3348: y_16 + y_17 + y_39 + y_53 + y_54 + y_55 + y_58 + y_63 + y_64 + y_91
        - z_3347 >= 0
 c3349: y_9 + y_26 + y_67 + y_68 + y_69 + y_97 - z_3348 >= 0
 c3350: y_17 + y_53 + y_58 + y_91 - z_3349 >= 0
 c3351: y_16 + y_39 + y_53 + y_54 + y_58 + y_63 + y_66 + y_91 - z_3350 >= 0
 c3352: y_7 + y_23 + y_31 + y_51 + y_62 + y_89 + y_98 + y_99 - z_3351 >= 0
 c3353: y_3 + y_11 + y_19 + y_26 + y_38 + y_67 + y_68 + y_69 - z_3352 >= 0
 c3354: y_4 + y_6 + y_22 + y_32 + y_90 - z_3353 >= 0
 c3355: y_3 + y_9 + y_11 + y_19 + y_26 + y_38 + y_44 + y_67 + y_69 - z_3354 >= 
        0
 c3356: y_23 + y_46 + y_49 + y_74 + y_95 - z_3355 >= 0
 c3357: y_10 + y_60 + y_76 + y_78 + y_81 - z_3356 >= 0
 c3358: y_3 + y_19 + y_21 + y_33 + y_38 + y_41 + y_43 + y_48 - z_3357 >= 0
 c3359: y_16 + y_39 + y_53 + y_54 + y_58 + y_63 + y_64 + y_91 - z_3358 >= 0
 c3360: y_40 + y_85 + y_92 - z_3359 >= 0
 c3361: y_1 + y_23 + y_46 + y_49 + y_74 + y_95 - z_3360 >= 0
 c3362: y_7 + y_23 + y_31 + y_37 + y_51 + y_62 + y_89 + y_98 + y_99 - z_3361
         >= 0
 c3363: y_37 + y_45 + y_96 - z_3362 >= 0
 c3364: y_30 + y_43 + y_59 + y_94 - z_3363 >= 0
 c3365: y_3 + y_11 + y_19 + y_26 + y_33 + y_38 + y_43 + y_44 + y_48 + y_67
        + y_69 - z_3364 >= 0
 c3366: y_15 + y_18 + y_20 + y_21 + y_36 + y_41 + y_47 + y_48 + y_61 + y_79
        + y_93 + y_95 - z_3365 >= 0
 c3367: y_12 + y_22 + y_57 + y_88 - z_3366 >= 0
 c3368: y_0 + y_27 + y_42 + y_55 + y_63 + y_64 - z_3367 >= 0
 c3369: y_13 + y_28 + y_60 + y_72 + y_76 + y_78 + y_81 - z_3368 >= 0
 c3370: y_0 + y_27 + y_42 + y_55 + y_63 + y_64 - z_3369 >= 0
 c3371: y_0 - z_3370 >= 0
 c3372: y_3 + y_19 + y_21 + y_33 + y_36 + y_38 + y_41 + y_43 + y_47 + y_48
        + y_79 - z_3371 >= 0
 c3373: y_8 + y_17 + y_73 + y_75 + y_96 - z_3372 >= 0
 c3374: y_16 + y_39 + y_42 + y_53 + y_54 + y_55 + y_63 + y_64 + y_91 - z_3373
         >= 0
 c3375: y_71 - z_3374 >= 0
 c3376: y_3 + y_5 + y_20 + y_33 + y_34 + y_44 + y_48 + y_61 + y_79 + y_80 + y_93
        - z_3375 >= 0
 c3377: y_22 - z_3376 >= 0
 c3378: y_16 + y_25 + y_40 + y_50 + y_54 + y_56 + y_66 + y_77 + y_87 - z_3377
         >= 0
 c3379: y_7 + y_31 + y_37 + y_51 + y_62 + y_89 + y_99 - z_3378 >= 0
 c3380: y_57 + y_60 + y_65 + y_72 + y_76 + y_78 - z_3379 >= 0
 c3381: y_5 + y_8 + y_17 + y_34 + y_75 + y_80 + y_93 - z_3380 >= 0
 c3382: y_11 + y_26 + y_52 + y_67 + y_68 + y_69 + y_97 - z_3381 >= 0
 c3383: y_24 + y_52 + y_59 + y_70 + y_86 - z_3382 >= 0
 c3384: y_10 + y_13 + y_57 + y_60 + y_72 + y_76 + y_78 + y_81 - z_3383 >= 0
 c3385: y_24 + y_52 + y_59 + y_70 + y_86 - z_3384 >= 0
 c3386: y_15 + y_18 + y_20 + y_36 + y_41 + y_46 + y_47 + y_61 + y_74 + y_79
        + y_80 + y_93 + y_95 - z_3385 >= 0
 c3387: y_3 + y_15 + y_18 + y_21 + y_33 + y_36 + y_41 + y_47 + y_48 + y_79
        - z_3386 >= 0
 c3388: y_40 + y_85 + y_92 - z_3387 >= 0
 c3389: y_53 + y_58 + y_91 - z_3388 >= 0
 c3390: y_5 + y_6 + y_34 + y_58 + y_90 + y_91 - z_3389 >= 0
 c3391: y_7 + y_23 + y_31 + y_51 + y_62 + y_89 + y_98 + y_99 - z_3390 >= 0
 c3392: y_57 + y_65 + y_72 - z_3391 >= 0
 c3393: y_3 + y_19 + y_21 + y_33 + y_38 + y_43 + y_44 + y_48 - z_3392 >= 0
 c3394: y_50 + y_56 + y_65 - z_3393 >= 0
 c3395: y_8 + y_17 + y_96 - z_3394 >= 0
 c3396: y_16 + y_50 + y_54 + y_56 + y_66 + y_87 - z_3395 >= 0
 c3397: y_4 + y_9 + y_26 + y_32 + y_38 + y_44 + y_67 + y_69 - z_3396 >= 0
 c3398: y_10 + y_78 + y_81 - z_3397 >= 0
 c3399: y_25 + y_29 + y_35 + y_40 + y_50 + y_66 + y_77 + y_87 + y_92 - z_3398
         >= 0
 c3400: y_5 + y_6 + y_34 + y_44 + y_90 - z_3399 >= 0
 c3401: y_24 + y_52 + y_59 + y_70 + y_86 - z_3400 >= 0
 c3402: y_6 + y_58 + y_91 - z_3401 >= 0
 c3403: y_2 + y_14 + y_27 + y_42 + y_55 + y_82 + y_83 - z_3402 >= 0
 c3404: y_16 + y_39 + y_53 + y_54 + y_58 + y_63 + y_66 + y_91 - z_3403 >= 0
 c3405: y_40 + y_87 + y_92 - z_3404 >= 0
 c3406: y_45 - z_3405 >= 0
 c3407: y_10 + y_13 + y_60 + y_76 + y_78 + y_81 - z_3406 >= 0
 c3408: y_0 + y_16 + y_39 + y_42 + y_53 + y_54 + y_55 + y_63 + y_64 - z_3407
         >= 0
 c3409: y_2 + y_14 + y_82 + y_83 + y_84 + y_85 - z_3408 >= 0
 c3410: y_5 + y_8 + y_17 + y_34 + y_96 - z_3409 >= 0
 c3411: y_40 + y_85 + y_92 - z_3410 >= 0
 c3412: y_7 + y_23 + y_31 + y_51 + y_62 + y_98 - z_3411 >= 0
 c3413: y_1 + y_23 + y_31 + y_46 + y_49 + y_73 + y_89 + y_98 + y_99 - z_3412
         >= 0
 c3414: y_12 + y_22 + y_57 + y_65 + y_72 + y_88 - z_3413 >= 0
 c3415: y_37 + y_45 - z_3414 >= 0
 c3416: y_83 + y_84 + y_85 - z_3415 >= 0
 c3417: y_17 + y_39 + y_53 + y_58 + y_63 + y_64 + y_91 - z_3416 >= 0
 c3418: y_5 + y_17 + y_34 + y_58 + y_91 - z_3417 >= 0
 c3419: y_40 + y_87 + y_92 - z_3418 >= 0
 c3420: y_0 + y_27 + y_42 - z_3419 >= 0
 c3421: y_11 + y_19 + y_30 + y_43 + y_52 + y_59 + y_67 + y_68 + y_69 - z_3420
         >= 0
 c3422: y_2 + y_14 + y_42 + y_82 + y_83 + y_85 - z_3421 >= 0
 c3423: y_9 + y_71 + y_97 - z_3422 >= 0
 c3424: y_18 + y_36 + y_47 + y_74 + y_95 - z_3423 >= 0
 c3425: y_2 + y_40 + y_83 + y_85 + y_92 - z_3424 >= 0
 c3426: y_17 + y_53 + y_58 + y_91 - z_3425 >= 0
 c3427: y_4 + y_6 + y_22 + y_32 + y_88 + y_90 - z_3426 >= 0
 c3428: y_25 + y_29 + y_35 + y_77 + y_87 - z_3427 >= 0
 c3429: y_3 + y_19 + y_33 + y_38 + y_44 + y_48 - z_3428 >= 0
 c3430: y_22 + y_50 + y_56 + y_65 - z_3429 >= 0
 c3431: y_56 + y_58 - z_3430 >= 0
 c3432: y_65 - z_3431 >= 0
 c3433: y_1 + y_23 + y_31 + y_73 + y_89 + y_98 + y_99 - z_3432 >= 0
 c3434: y_17 + y_39 + y_53 + y_58 + y_63 + y_91 - z_3433 >= 0
 c3435: y_37 + y_45 - z_3434 >= 0
 c3436: y_2 + y_83 + y_85 - z_3435 >= 0
 c3437: y_3 + y_5 + y_20 + y_33 + y_34 + y_44 + y_48 + y_61 + y_79 + y_93
        - z_3436 >= 0
 c3438: y_4 + y_6 + y_22 + y_32 + y_90 - z_3437 >= 0
 c3439: y_3 + y_19 + y_21 + y_33 + y_36 + y_38 + y_41 + y_43 + y_47 + y_48
        + y_79 - z_3438 >= 0
 c3440: y_25 + y_29 + y_35 + y_50 + y_56 + y_77 - z_3439 >= 0
 c3441: y_83 + y_84 + y_85 - z_3440 >= 0
 c3442: y_16 + y_39 + y_40 + y_54 + y_55 + y_63 + y_64 + y_66 + y_87 - z_3441
         >= 0
 c3443: y_25 + y_29 + y_50 + y_56 + y_66 + y_77 + y_87 - z_3442 >= 0
 c3444: y_3 + y_19 + y_21 + y_33 + y_38 + y_41 + y_44 + y_48 + y_79 - z_3443
         >= 0
 c3445: y_31 + y_37 + y_89 + y_99 - z_3444 >= 0
 c3446: y_12 + y_71 + y_88 - z_3445 >= 0
 c3447: y_12 + y_71 + y_88 - z_3446 >= 0
 c3448: y_15 + y_18 + y_21 + y_36 + y_41 + y_47 + y_79 + y_95 - z_3447 >= 0
 c3449: y_13 + y_57 + y_60 + y_65 + y_72 - z_3448 >= 0
 c3450: y_25 + y_29 + y_50 + y_56 + y_65 + y_77 - z_3449 >= 0
 c3451: y_16 + y_40 + y_42 + y_54 + y_55 + y_64 - z_3450 >= 0
 c3452: y_57 + y_65 + y_72 - z_3451 >= 0
 c3453: y_45 - z_3452 >= 0
 c3454: y_16 + y_39 + y_53 + y_54 + y_58 + y_63 + y_66 + y_91 - z_3453 >= 0
 c3455: y_25 + y_29 + y_35 + y_77 - z_3454 >= 0
 c3456: y_6 + y_58 + y_91 - z_3455 >= 0
 c3457: y_10 + y_13 + y_28 + y_60 + y_76 + y_78 + y_81 - z_3456 >= 0
 c3458: y_17 + y_96 - z_3457 >= 0
 c3459: - z_3458 >= 0
 c3460: y_22 + y_50 + y_56 + y_65 - z_3459 >= 0
 c3461: y_0 + y_27 + y_42 + y_55 + y_64 - z_3460 >= 0
 c3462: y_46 + y_49 + y_74 + y_95 - z_3461 >= 0
 c3463: y_2 + y_83 + y_85 - z_3462 >= 0
 c3464: y_2 + y_83 + y_84 + y_85 - z_3463 >= 0
 c3465: y_22 + y_57 + y_65 + y_72 - z_3464 >= 0
 c3466: y_13 - z_3465 >= 0
 c3467: y_5 + y_17 + y_58 + y_91 - z_3466 >= 0
 c3468: y_4 + y_9 + y_12 + y_32 + y_88 - z_3467 >= 0
 c3469: y_11 + y_24 + y_43 + y_52 + y_59 + y_67 + y_68 + y_69 + y_70 + y_86
        + y_97 - z_3468 >= 0
 c3470: y_0 + y_45 + y_96 - z_3469 >= 0
 c3471: y_0 + y_2 + y_27 + y_42 + y_55 - z_3470 >= 0
 c3472: y_7 + y_23 + y_31 + y_51 + y_62 + y_89 + y_98 - z_3471 >= 0
 c3473: y_5 + y_33 + y_34 + y_44 + y_61 + y_90 - z_3472 >= 0
 c3474: y_5 + y_8 + y_15 + y_20 + y_34 + y_61 + y_75 + y_79 + y_80 + y_93
        - z_3473 >= 0
 c3475: y_1 + y_23 + y_46 + y_49 + y_74 + y_75 + y_95 - z_3474 >= 0
 c3476: y_45 - z_3475 >= 0
 c3477: y_4 + y_6 + y_26 + y_32 + y_38 + y_44 + y_90 - z_3476 >= 0
 c3478: y_25 + y_29 + y_50 + y_56 + y_77 - z_3477 >= 0
 c3479: y_0 + y_27 + y_39 + y_42 + y_55 + y_63 + y_64 - z_3478 >= 0
 c3480: y_13 - z_3479 >= 0
 c3481: y_17 + y_53 + y_58 + y_63 + y_91 - z_3480 >= 0
 c3482: y_13 + y_28 + y_60 + y_72 + y_76 + y_78 + y_81 - z_3481 >= 0
 c3483: y_10 + y_78 - z_3482 >= 0
 c3484: y_25 + y_35 + y_40 + y_66 + y_77 + y_87 + y_92 - z_3483 >= 0
 c3485: y_12 + y_32 + y_71 + y_88 - z_3484 >= 0
 c3486: y_25 + y_35 + y_40 + y_77 + y_92 - z_3485 >= 0
 c3487: y_17 + y_96 - z_3486 >= 0
 c3488: y_10 + y_60 + y_76 + y_78 + y_81 - z_3487 >= 0
 c3489: y_4 + y_6 + y_9 + y_32 + y_90 - z_3488 >= 0
 c3490: y_7 + y_23 + y_31 + y_51 + y_62 + y_89 + y_98 + y_99 - z_3489 >= 0
 c3491: y_15 + y_18 + y_21 + y_36 + y_41 + y_47 + y_48 + y_79 + y_94 - z_3490
         >= 0
 c3492: y_3 + y_5 + y_20 + y_33 + y_34 + y_44 + y_48 + y_61 + y_79 + y_80 + y_93
        - z_3491 >= 0
 c3493: y_15 + y_18 + y_20 + y_21 + y_36 + y_41 + y_46 + y_47 + y_61 + y_74
        + y_79 + y_80 + y_93 + y_95 - z_3492 >= 0
 c3494: y_0 + y_2 + y_27 + y_42 + y_55 + y_64 - z_3493 >= 0
 c3495: y_13 + y_60 + y_72 + y_76 - z_3494 >= 0
 c3496: y_3 + y_19 + y_21 + y_33 + y_38 + y_41 + y_44 + y_47 + y_48 + y_61
        + y_79 - z_3495 >= 0
 c3497: y_17 + y_39 + y_53 + y_58 + y_63 + y_91 - z_3496 >= 0
 c3498: y_37 + y_45 - z_3497 >= 0
 c3499: y_45 + y_96 - z_3498 >= 0
 c3500: y_23 + y_49 + y_74 + y_98 - z_3499 >= 0
 c3501: y_10 + y_12 + y_88 - z_3500 >= 0
 c3502: y_11 + y_67 + y_68 + y_69 + y_97 - z_3501 >= 0
 c3503: y_83 + y_84 + y_85 - z_3502 >= 0
 c3504: y_2 + y_14 + y_82 + y_83 - z_3503 >= 0
 c3505: y_15 + y_18 + y_20 + y_36 + y_41 + y_46 + y_47 + y_49 + y_74 + y_79
        + y_80 + y_93 + y_95 - z_3504 >= 0
 c3506: y_24 + y_30 + y_43 + y_52 + y_59 + y_70 + y_86 - z_3505 >= 0
 c3507: y_96 - z_3506 >= 0
 c3508: y_16 + y_39 + y_53 + y_54 + y_55 + y_63 + y_64 + y_66 - z_3507 >= 0
 c3509: y_5 + y_6 + y_34 + y_90 - z_3508 >= 0
 c3510: y_8 + y_34 + y_75 + y_80 + y_93 + y_96 - z_3509 >= 0
 c3511: y_35 + y_92 - z_3510 >= 0
 c3512: y_16 + y_50 + y_54 + y_56 + y_66 + y_87 - z_3511 >= 0
 c3513: y_53 + y_58 + y_91 - z_3512 >= 0
 c3514: y_0 + y_2 + y_27 + y_42 + y_55 + y_64 - z_3513 >= 0
 c3515: y_37 + y_45 - z_3514 >= 0
 c3516: y_21 + y_30 + y_36 + y_43 + y_94 - z_3515 >= 0
 c3517: y_14 + y_27 - z_3516 >= 0
 c3518: y_23 + y_49 + y_74 + y_98 - z_3517 >= 0
 c3519: y_3 + y_5 + y_19 + y_20 + y_33 + y_34 + y_38 + y_44 + y_48 + y_61 + y_79
        + y_93 - z_3518 >= 0
 c3520: y_24 + y_30 + y_43 + y_52 + y_59 + y_70 + y_94 - z_3519 >= 0
 c3521: y_16 + y_39 + y_53 + y_54 + y_58 + y_63 + y_66 + y_87 - z_3520 >= 0
 c3522: y_0 + y_27 + y_42 - z_3521 >= 0
 c3523: y_37 + y_45 + y_96 - z_3522 >= 0
 c3524: y_0 + y_27 + y_39 + y_42 + y_55 + y_63 + y_64 - z_3523 >= 0
 c3525: y_12 + y_57 + y_88 - z_3524 >= 0
 c3526: y_11 + y_68 + y_86 + y_97 - z_3525 >= 0
 c3527: y_6 + y_90 - z_3526 >= 0
 c3528: y_11 + y_24 + y_52 + y_59 + y_68 + y_70 + y_86 - z_3527 >= 0
 c3529: y_7 + y_23 + y_31 + y_51 + y_62 + y_89 + y_98 + y_99 - z_3528 >= 0
 c3530: y_11 + y_19 + y_30 + y_43 + y_52 + y_59 + y_94 - z_3529 >= 0
 c3531: y_5 + y_17 + y_34 + y_58 + y_91 - z_3530 >= 0
 c3532: y_45 - z_3531 >= 0
 c3533: y_37 + y_45 + y_73 - z_3532 >= 0
 c3534: y_16 + y_39 + y_50 + y_54 + y_56 + y_58 + y_66 + y_87 - z_3533 >= 0
 c3535: y_3 + y_5 + y_19 + y_33 + y_34 + y_38 + y_44 + y_48 + y_61 - z_3534 >= 
        0
 c3536: y_30 + y_43 + y_59 + y_94 - z_3535 >= 0
 c3537: y_2 + y_14 + y_82 + y_83 + y_84 - z_3536 >= 0
 c3538: y_3 + y_15 + y_18 + y_21 + y_33 + y_36 + y_41 + y_47 + y_48 + y_61
        + y_79 - z_3537 >= 0
 c3539: y_2 + y_40 + y_55 + y_83 + y_85 + y_92 - z_3538 >= 0
 c3540: y_30 + y_43 + y_52 + y_59 + y_94 - z_3539 >= 0
 c3541: y_16 + y_39 + y_40 + y_50 + y_54 + y_56 + y_66 + y_87 - z_3540 >= 0
 c3542: y_23 + y_46 + y_49 + y_74 + y_98 - z_3541 >= 0
 c3543: y_1 + y_8 + y_46 + y_49 + y_73 + y_75 - z_3542 >= 0
 c3544: y_37 + y_45 + y_73 - z_3543 >= 0
 c3545: y_40 + y_87 + y_92 - z_3544 >= 0
 c3546: y_16 + y_50 + y_54 + y_56 + y_66 + y_87 - z_3545 >= 0
 c3547: y_16 + y_17 + y_39 + y_53 + y_54 + y_55 + y_58 + y_63 + y_64 + y_91
        - z_3546 >= 0
 c3548: y_45 + y_96 - z_3547 >= 0
 c3549: y_10 + y_12 + y_78 + y_88 - z_3548 >= 0
 c3550: y_0 + y_27 + y_42 - z_3549 >= 0
 c3551: y_10 + y_13 + y_28 + y_60 + y_76 + y_78 + y_81 - z_3550 >= 0
 c3552: y_25 + y_29 + y_35 + y_77 - z_3551 >= 0
 c3553: y_3 + y_19 + y_21 + y_33 + y_38 + y_41 + y_43 + y_48 - z_3552 >= 0
 c3554: y_2 + y_83 + y_84 + y_85 - z_3553 >= 0
 c3555: y_10 + y_13 + y_28 + y_60 + y_76 + y_78 + y_81 - z_3554 >= 0
 c3556: y_71 - z_3555 >= 0
 c3557: y_3 + y_19 + y_33 + y_38 + y_44 + y_48 + y_61 + y_79 - z_3556 >= 0
 c3558: y_25 + y_29 + y_35 + y_50 + y_77 + y_87 + y_92 - z_3557 >= 0
 c3559: y_53 + y_58 + y_91 - z_3558 >= 0
 c3560: y_40 + y_42 + y_54 + y_55 + y_92 - z_3559 >= 0
 c3561: y_16 + y_39 + y_50 + y_54 + y_66 + y_87 - z_3560 >= 0
 c3562: y_16 + y_50 + y_54 + y_56 + y_66 + y_87 - z_3561 >= 0
 c3563: y_16 + y_39 + y_53 + y_54 + y_55 + y_63 + y_64 + y_66 - z_3562 >= 0
 c3564: y_1 + y_31 + y_37 + y_73 + y_89 + y_99 - z_3563 >= 0
 c3565: y_8 + y_20 + y_46 + y_75 + y_80 + y_93 - z_3564 >= 0
 c3566: y_9 + y_11 + y_26 + y_67 + y_68 + y_69 + y_97 - z_3565 >= 0
 c3567: y_45 + y_96 - z_3566 >= 0
 c3568: y_40 + y_54 + y_87 + y_92 - z_3567 >= 0
 c3569: y_5 + y_6 + y_34 + y_44 + y_90 - z_3568 >= 0
 c3570: y_4 + y_6 + y_12 + y_22 + y_32 + y_88 - z_3569 >= 0
 c3571: y_16 + y_39 + y_40 + y_42 + y_54 + y_55 + y_63 + y_64 - z_3570 >= 0
 c3572: y_10 + y_13 + y_28 + y_60 + y_76 + y_78 + y_81 - z_3571 >= 0
 c3573: y_45 - z_3572 >= 0
 c3574: y_4 + y_9 + y_12 + y_32 + y_88 - z_3573 >= 0
 c3575: y_24 + y_52 + y_59 + y_70 + y_86 - z_3574 >= 0
 c3576: y_8 + y_17 + y_73 + y_96 - z_3575 >= 0
 c3577: y_13 + y_57 + y_65 + y_72 - z_3576 >= 0
 c3578: y_7 + y_23 + y_31 + y_51 + y_62 + y_89 + y_98 + y_99 - z_3577 >= 0
 c3579: y_8 + y_15 + y_20 + y_33 + y_34 + y_41 + y_48 + y_61 + y_75 + y_79
        + y_80 + y_93 + y_95 - z_3578 >= 0
 c3580: y_16 + y_25 + y_40 + y_54 + y_66 + y_77 + y_87 + y_92 - z_3579 >= 0
 c3581: y_8 + y_15 + y_20 + y_33 + y_34 + y_41 + y_48 + y_61 + y_75 + y_79
        + y_80 + y_93 + y_95 - z_3580 >= 0
 c3582: y_0 + y_27 + y_42 + y_55 + y_64 - z_3581 >= 0
 c3583: y_4 + y_5 + y_6 + y_32 + y_44 + y_90 - z_3582 >= 0
 c3584: y_8 + y_15 + y_20 + y_34 + y_46 + y_61 + y_75 + y_79 + y_80 + y_93
        + y_95 - z_3583 >= 0
 c3585: y_11 + y_19 + y_43 + y_52 + y_59 + y_67 + y_68 + y_69 - z_3584 >= 0
 c3586: y_30 + y_43 + y_52 + y_59 + y_94 - z_3585 >= 0
 c3587: y_10 + y_13 + y_57 + y_60 + y_72 + y_76 + y_78 + y_81 - z_3586 >= 0
 c3588: y_13 + y_28 + y_60 + y_76 + y_78 + y_81 - z_3587 >= 0
 c3589: y_0 + y_2 + y_27 + y_42 + y_55 + y_64 - z_3588 >= 0
 c3590: y_15 + y_18 + y_20 + y_46 + y_49 + y_74 + y_75 + y_79 + y_80 + y_93
        + y_95 - z_3589 >= 0
 c3591: y_12 + y_22 + y_57 + y_65 + y_72 + y_88 - z_3590 >= 0
 c3592: y_53 + y_58 + y_91 - z_3591 >= 0
 c3593: y_53 + y_58 + y_91 - z_3592 >= 0
 c3594: y_29 - z_3593 >= 0
 c3595: y_24 + y_30 + y_43 + y_52 + y_59 + y_70 + y_94 - z_3594 >= 0
 c3596: y_9 + y_11 + y_19 + y_26 + y_38 + y_67 + y_68 + y_69 - z_3595 >= 0
 c3597: y_85 + y_92 - z_3596 >= 0
 c3598: y_10 + y_13 + y_28 + y_60 + y_72 + y_76 + y_78 + y_81 - z_3597 >= 0
 c3599: y_5 + y_8 + y_20 + y_34 + y_61 + y_75 + y_80 + y_93 - z_3598 >= 0
 c3600: y_31 + y_37 + y_73 + y_89 + y_99 - z_3599 >= 0
 c3601: y_25 + y_29 + y_35 + y_50 + y_56 + y_66 + y_77 + y_87 - z_3600 >= 0
 c3602: y_8 + y_17 + y_96 - z_3601 >= 0
 c3603: y_3 + y_5 + y_19 + y_33 + y_34 + y_38 + y_44 + y_48 + y_61 + y_79
        - z_3602 >= 0
 c3604: y_16 + y_40 + y_54 + y_55 + y_66 + y_87 + y_92 - z_3603 >= 0
 c3605: y_2 + y_14 + y_27 + y_82 - z_3604 >= 0
 c3606: y_10 + y_13 + y_57 + y_60 + y_72 + y_76 + y_78 + y_81 - z_3605 >= 0
 c3607: y_5 + y_8 + y_17 + y_34 - z_3606 >= 0
 c3608: y_25 + y_35 + y_40 + y_77 + y_87 + y_92 - z_3607 >= 0
 c3609: y_28 - z_3608 >= 0
 c3610: y_10 + y_13 + y_57 + y_60 + y_72 + y_76 + y_78 + y_81 - z_3609 >= 0
 c3611: y_10 + y_78 - z_3610 >= 0
 c3612: y_1 + y_31 + y_37 + y_73 + y_89 + y_99 - z_3611 >= 0
 c3613: y_21 + y_30 + y_36 + y_43 + y_47 + y_94 - z_3612 >= 0
 c3614: y_7 + y_23 + y_31 + y_51 + y_62 + y_89 + y_98 + y_99 - z_3613 >= 0
 c3615: y_1 + y_8 + y_15 + y_20 + y_46 + y_49 + y_75 + y_80 + y_93 + y_95
        - z_3614 >= 0
 c3616: y_25 + y_40 + y_54 + y_66 + y_77 + y_87 + y_92 - z_3615 >= 0
 c3617: y_2 + y_14 + y_27 + y_42 + y_82 - z_3616 >= 0
 c3618: y_0 + y_27 + y_39 + y_42 + y_55 + y_63 + y_64 - z_3617 >= 0
 c3619: y_71 - z_3618 >= 0
 c3620: y_25 + y_29 + y_35 + y_77 - z_3619 >= 0
 c3621: y_1 + y_73 + y_96 - z_3620 >= 0
 c3622: y_12 + y_22 + y_57 + y_88 - z_3621 >= 0
 c3623: y_3 + y_19 + y_21 + y_30 + y_33 + y_38 + y_43 + y_48 + y_52 + y_59
        - z_3622 >= 0
 c3624: y_16 + y_50 + y_54 + y_56 + y_58 + y_66 - z_3623 >= 0
 c3625: y_37 + y_45 + y_73 + y_96 - z_3624 >= 0
 c3626: y_15 + y_18 + y_20 + y_21 + y_36 + y_41 + y_47 + y_48 + y_61 + y_79
        + y_80 + y_93 + y_95 - z_3625 >= 0
 c3627: y_0 + y_27 + y_42 - z_3626 >= 0
 c3628: y_16 + y_39 + y_40 + y_54 + y_63 + y_66 + y_87 - z_3627 >= 0
 c3629: y_4 + y_6 + y_32 + y_90 - z_3628 >= 0
 c3630: y_13 + y_28 + y_60 - z_3629 >= 0
 c3631: y_3 + y_19 + y_21 + y_33 + y_38 + y_41 + y_44 + y_48 + y_79 - z_3630
         >= 0
 c3632: y_12 + y_22 + y_57 + y_72 + y_78 + y_88 - z_3631 >= 0
 c3633: y_11 + y_24 + y_30 + y_43 + y_52 + y_59 + y_68 + y_70 + y_86 - z_3632
         >= 0
 c3634: y_40 + y_66 + y_87 + y_92 - z_3633 >= 0
 c3635: y_50 + y_56 + y_65 - z_3634 >= 0
 c3636: y_10 + y_13 + y_57 + y_60 + y_72 + y_76 + y_78 + y_81 - z_3635 >= 0
 c3637: y_0 + y_14 + y_27 + y_42 - z_3636 >= 0
 c3638: y_16 + y_40 + y_50 + y_54 + y_66 + y_87 - z_3637 >= 0
 c3639: y_13 + y_60 + y_72 + y_76 - z_3638 >= 0
 c3640: y_25 + y_29 + y_35 + y_77 - z_3639 >= 0
 c3641: y_23 + y_49 + y_74 + y_98 - z_3640 >= 0
 c3642: y_37 + y_45 + y_73 + y_89 - z_3641 >= 0
 c3643: y_4 + y_6 + y_32 + y_90 - z_3642 >= 0
 c3644: y_31 + y_37 + y_89 + y_99 - z_3643 >= 0
 c3645: y_10 + y_13 + y_28 + y_60 + y_76 + y_78 + y_81 - z_3644 >= 0
 c3646: y_0 + y_39 + y_42 + y_53 + y_55 + y_63 + y_64 - z_3645 >= 0
 c3647: y_7 + y_23 + y_31 + y_51 + y_62 + y_89 + y_98 + y_99 - z_3646 >= 0
 c3648: y_40 + y_92 - z_3647 >= 0
 c3649: y_0 + y_27 + y_42 + y_55 + y_63 + y_64 - z_3648 >= 0
 c3650: y_13 + y_57 + y_60 + y_65 + y_72 + y_76 + y_78 - z_3649 >= 0
 c3651: y_16 + y_39 + y_53 + y_54 + y_58 + y_63 + y_64 + y_66 + y_91 - z_3650
         >= 0
 c3652: y_5 + y_6 + y_90 - z_3651 >= 0
 c3653: y_35 + y_92 - z_3652 >= 0
 c3654: y_1 + y_23 + y_31 + y_46 + y_49 + y_73 + y_98 + y_99 - z_3653 >= 0
 c3655: y_10 + y_12 + y_57 + y_72 + y_76 + y_78 + y_81 + y_88 - z_3654 >= 0
 c3656: y_1 + y_7 + y_23 + y_31 + y_37 + y_51 + y_62 + y_89 + y_98 + y_99
        - z_3655 >= 0
 c3657: y_3 + y_11 + y_19 + y_33 + y_38 + y_43 + y_44 + y_48 + y_67 + y_69
        - z_3656 >= 0
 c3658: y_5 + y_8 + y_20 + y_34 + y_61 + y_80 + y_93 - z_3657 >= 0
 c3659: y_4 + y_6 + y_32 + y_90 - z_3658 >= 0
 c3660: y_22 - z_3659 >= 0
 c3661: y_25 + y_35 + y_40 + y_66 + y_77 + y_87 + y_92 - z_3660 >= 0
 c3662: y_17 + y_96 - z_3661 >= 0
 c3663: y_12 + y_71 - z_3662 >= 0
 c3664: y_15 + y_20 + y_46 + y_49 + y_61 + y_74 + y_75 + y_79 + y_80 + y_93
        + y_95 - z_3663 >= 0
 c3665: y_1 + y_31 + y_37 + y_73 + y_89 + y_99 - z_3664 >= 0
 c3666: y_12 + y_71 + y_88 - z_3665 >= 0
 c3667: y_9 + y_12 + y_71 + y_88 - z_3666 >= 0
 c3668: y_31 + y_37 + y_89 - z_3667 >= 0
 c3669: y_8 + y_15 + y_20 + y_34 + y_41 + y_48 + y_61 + y_75 + y_79 + y_80
        + y_93 + y_95 - z_3668 >= 0
 c3670: y_5 + y_8 + y_17 + y_34 + y_75 + y_80 + y_96 - z_3669 >= 0
 c3671: y_71 - z_3670 >= 0
 c3672: y_16 + y_50 + y_54 + y_56 + y_58 + y_66 - z_3671 >= 0
 c3673: - z_3672 >= 0
 c3674: y_37 + y_45 - z_3673 >= 0
 c3675: y_16 + y_39 + y_50 + y_54 + y_56 + y_58 + y_66 + y_91 - z_3674 >= 0
 c3676: y_2 + y_14 + y_82 + y_83 + y_84 + y_85 - z_3675 >= 0
 c3677: y_5 + y_15 + y_20 + y_33 + y_34 + y_44 + y_48 + y_61 + y_79 + y_80
        + y_93 - z_3676 >= 0
 c3678: y_17 + y_53 + y_63 + y_91 - z_3677 >= 0
 c3679: y_57 + y_60 + y_65 + y_72 + y_76 + y_78 + y_88 - z_3678 >= 0
 c3680: y_18 + y_21 + y_30 + y_36 + y_41 + y_47 + y_94 - z_3679 >= 0
 c3681: y_12 + y_71 - z_3680 >= 0
 c3682: y_25 + y_29 + y_35 + y_50 + y_56 + y_77 - z_3681 >= 0
 c3683: y_0 + y_27 - z_3682 >= 0
 c3684: y_0 + y_27 + y_42 - z_3683 >= 0
 c3685: y_4 + y_9 + y_12 + y_32 + y_88 - z_3684 >= 0
 c3686: y_10 + y_13 + y_57 + y_60 + y_72 + y_76 + y_78 + y_81 - z_3685 >= 0
 c3687: y_45 - z_3686 >= 0
 c3688: y_16 + y_39 + y_50 + y_54 + y_56 + y_66 + y_87 - z_3687 >= 0
 c3689: y_17 + y_53 + y_58 + y_91 - z_3688 >= 0
 c3690: y_2 + y_83 + y_85 - z_3689 >= 0
 c3691: y_1 + y_7 + y_23 + y_31 + y_37 + y_51 + y_73 + y_89 + y_98 + y_99
        - z_3690 >= 0
 c3692: y_12 + y_22 + y_57 + y_65 + y_72 + y_88 - z_3691 >= 0
 c3693: y_15 + y_18 + y_21 + y_36 + y_41 + y_47 + y_74 + y_79 + y_95 - z_3692
         >= 0
 c3694: y_1 + y_37 + y_73 + y_96 - z_3693 >= 0
 c3695: y_13 + y_57 + y_60 + y_65 + y_72 + y_76 + y_78 + y_81 - z_3694 >= 0
 c3696: y_16 + y_40 + y_54 + y_66 + y_87 + y_92 - z_3695 >= 0
 c3697: y_25 + y_35 + y_40 + y_77 + y_87 + y_92 - z_3696 >= 0
 c3698: y_4 + y_6 + y_32 + y_44 + y_90 - z_3697 >= 0
 c3699: y_16 + y_25 + y_50 + y_54 + y_56 + y_66 + y_77 + y_87 - z_3698 >= 0
 c3700: y_11 + y_67 + y_68 + y_69 + y_97 - z_3699 >= 0
 c3701: y_40 + y_87 + y_92 - z_3700 >= 0
 c3702: y_37 + y_45 - z_3701 >= 0
 c3703: y_17 + y_53 + y_63 + y_96 - z_3702 >= 0
 c3704: y_0 + y_2 + y_14 + y_27 + y_42 + y_82 - z_3703 >= 0
 c3705: y_11 + y_52 + y_68 + y_86 + y_97 - z_3704 >= 0
 c3706: y_15 + y_18 + y_21 + y_33 + y_36 + y_41 + y_47 + y_48 + y_61 + y_79
        + y_95 - z_3705 >= 0
 c3707: y_8 + y_20 + y_34 + y_75 + y_80 + y_93 + y_96 - z_3706 >= 0
 c3708: y_13 + y_57 + y_60 + y_65 + y_72 + y_76 - z_3707 >= 0
 c3709: y_25 + y_35 + y_40 + y_77 + y_87 + y_92 - z_3708 >= 0
 c3710: y_1 + y_23 + y_31 + y_37 + y_73 + y_89 + y_98 + y_99 - z_3709 >= 0
 c3711: y_4 + y_6 + y_12 + y_32 + y_90 - z_3710 >= 0
 c3712: y_11 + y_24 + y_52 + y_68 + y_70 + y_86 + y_97 - z_3711 >= 0
 c3713: y_16 + y_39 + y_53 + y_54 + y_58 + y_63 + y_66 + y_91 - z_3712 >= 0
 c3714: y_25 + y_29 + y_35 + y_50 + y_56 + y_77 - z_3713 >= 0
 c3715: y_17 + y_53 + y_58 + y_91 - z_3714 >= 0
 c3716: y_2 + y_14 + y_27 + y_42 + y_55 + y_82 + y_83 - z_3715 >= 0
 c3717: y_8 + y_15 + y_20 + y_46 + y_49 + y_61 + y_75 + y_79 + y_80 + y_93
        + y_95 - z_3716 >= 0
 c3718: y_0 + y_2 + y_14 + y_27 + y_42 + y_55 + y_82 - z_3717 >= 0
 c3719: y_3 + y_19 + y_21 + y_33 + y_36 + y_38 + y_41 + y_43 + y_47 + y_48
        + y_79 - z_3718 >= 0
 c3720: y_16 + y_39 + y_53 + y_54 + y_58 + y_63 + y_66 + y_91 - z_3719 >= 0
 c3721: y_25 + y_35 + y_40 + y_92 - z_3720 >= 0
 c3722: y_22 + y_57 + y_65 + y_72 + y_88 - z_3721 >= 0
 c3723: y_0 + y_17 + y_53 + y_63 + y_64 - z_3722 >= 0
 c3724: y_58 - z_3723 >= 0
 c3725: y_16 + y_39 + y_50 + y_54 + y_56 + y_58 + y_66 + y_87 - z_3724 >= 0
 c3726: y_11 + y_19 + y_26 + y_38 + y_43 + y_52 + y_59 + y_67 + y_68 + y_69
        - z_3725 >= 0
 c3727: y_2 + y_40 + y_42 + y_55 + y_83 - z_3726 >= 0
 c3728: y_16 + y_17 + y_39 + y_53 + y_54 + y_58 + y_63 + y_64 + y_91 - z_3727
         >= 0
 c3729: y_25 + y_29 + y_35 + y_77 + y_87 + y_92 - z_3728 >= 0
 c3730: y_25 + y_29 + y_35 + y_50 + y_77 + y_87 + y_92 - z_3729 >= 0
 c3731: y_16 + y_17 + y_39 + y_53 + y_58 + y_63 + y_91 - z_3730 >= 0
 c3732: y_65 - z_3731 >= 0
 c3733: y_22 + y_57 + y_65 + y_72 - z_3732 >= 0
 c3734: y_5 + y_6 + y_34 + y_44 + y_90 - z_3733 >= 0
 c3735: y_13 + y_28 + y_60 + y_76 + y_81 - z_3734 >= 0
 c3736: y_37 + y_89 - z_3735 >= 0
 c3737: y_10 + y_57 + y_60 + y_72 + y_76 + y_78 + y_81 - z_3736 >= 0
 c3738: y_11 + y_24 + y_52 + y_68 + y_70 + y_86 + y_97 - z_3737 >= 0
 c3739: y_0 + y_17 + y_53 + y_63 + y_64 - z_3738 >= 0
 c3740: y_12 + y_22 + y_57 + y_65 + y_72 + y_88 - z_3739 >= 0
 c3741: y_0 + y_27 + y_42 + y_53 + y_55 + y_63 + y_64 - z_3740 >= 0
 c3742: y_9 + y_71 - z_3741 >= 0
 c3743: y_8 + y_20 + y_34 + y_61 + y_75 + y_80 + y_93 - z_3742 >= 0
 c3744: y_2 + y_14 + y_82 + y_83 + y_84 - z_3743 >= 0
 c3745: y_96 - z_3744 >= 0
 c3746: y_12 + y_22 + y_57 + y_65 + y_88 - z_3745 >= 0
 c3747: y_37 + y_45 - z_3746 >= 0
 c3748: y_16 + y_50 + y_54 + y_56 + y_66 + y_87 - z_3747 >= 0
 c3749: y_7 + y_23 + y_31 + y_51 + y_98 + y_99 - z_3748 >= 0
 c3750: y_1 + y_7 + y_23 + y_31 + y_51 + y_89 + y_98 + y_99 - z_3749 >= 0
 c3751: y_7 + y_31 + y_37 + y_51 + y_62 + y_89 + y_99 - z_3750 >= 0
 c3752: y_25 + y_35 + y_40 + y_77 + y_87 + y_92 - z_3751 >= 0
 c3753: y_9 + y_11 + y_26 + y_67 + y_68 + y_69 + y_97 - z_3752 >= 0
 c3754: y_1 + y_7 + y_31 + y_37 + y_51 + y_62 + y_89 + y_98 + y_99 - z_3753 >= 
        0
 c3755: y_13 + y_60 + y_72 + y_76 + y_78 + y_81 - z_3754 >= 0
 c3756: y_24 + y_43 + y_52 + y_59 + y_70 + y_86 - z_3755 >= 0
 c3757: y_25 + y_29 + y_35 + y_50 + y_56 + y_66 + y_77 + y_87 - z_3756 >= 0
 c3758: y_25 + y_29 + y_35 + y_50 + y_56 + y_66 + y_77 + y_87 - z_3757 >= 0
 c3759: y_0 + y_45 - z_3758 >= 0
 c3760: y_3 + y_19 + y_33 + y_38 + y_44 + y_90 - z_3759 >= 0
 c3761: y_9 + y_26 + y_71 + y_97 - z_3760 >= 0
 c3762: y_13 + y_28 + y_60 + y_76 + y_81 - z_3761 >= 0
 c3763: y_4 + y_9 + y_26 + y_32 + y_90 - z_3762 >= 0
 c3764: - z_3763 >= 0
 c3765: y_25 + y_29 + y_35 + y_50 + y_56 + y_77 + y_87 - z_3764 >= 0
 c3766: y_45 - z_3765 >= 0
 c3767: y_37 + y_45 - z_3766 >= 0
 c3768: y_25 + y_29 + y_35 + y_77 + y_92 - z_3767 >= 0
 c3769: y_4 + y_6 + y_22 + y_32 + y_90 - z_3768 >= 0
 c3770: y_0 + y_27 - z_3769 >= 0
 c3771: y_18 + y_46 + y_49 + y_74 + y_95 - z_3770 >= 0
 c3772: y_25 + y_29 + y_50 + y_56 + y_77 - z_3771 >= 0
 c3773: y_11 + y_24 + y_30 + y_43 + y_52 + y_59 + y_70 + y_86 - z_3772 >= 0
 c3774: y_21 + y_30 + y_36 + y_43 + y_94 - z_3773 >= 0
 c3775: y_5 + y_34 + y_44 + y_61 + y_90 + y_93 - z_3774 >= 0
 c3776: y_17 + y_53 + y_91 + y_96 - z_3775 >= 0
 c3777: y_3 + y_11 + y_19 + y_26 + y_33 + y_38 + y_44 + y_67 + y_69 - z_3776
         >= 0
 c3778: y_17 + y_53 + y_58 + y_91 - z_3777 >= 0
 c3779: y_3 + y_19 + y_21 + y_30 + y_33 + y_38 + y_43 + y_48 + y_59 - z_3778
         >= 0
 c3780: y_8 + y_15 + y_20 + y_34 + y_41 + y_46 + y_61 + y_75 + y_79 + y_80
        + y_93 + y_95 - z_3779 >= 0
 c3781: y_45 - z_3780 >= 0
 c3782: y_3 + y_19 + y_21 + y_30 + y_43 + y_52 + y_59 + y_94 - z_3781 >= 0
 c3783: y_11 + y_24 + y_43 + y_52 + y_59 + y_67 + y_68 + y_69 + y_70 - z_3782
         >= 0
 c3784: y_0 + y_27 + y_45 - z_3783 >= 0
 c3785: y_3 + y_19 + y_21 + y_33 + y_38 + y_44 + y_48 + y_79 - z_3784 >= 0
 c3786: y_7 + y_23 + y_31 + y_51 + y_62 + y_89 + y_98 + y_99 - z_3785 >= 0
 c3787: y_0 + y_16 + y_39 + y_42 + y_53 + y_54 + y_55 + y_63 + y_64 - z_3786
         >= 0
 c3788: y_11 + y_24 + y_43 + y_52 + y_59 + y_67 + y_68 + y_69 + y_70 + y_97
        - z_3787 >= 0
 c3789: y_4 + y_6 + y_12 + y_22 + y_32 + y_88 - z_3788 >= 0
 c3790: y_1 + y_31 + y_37 + y_73 + y_89 + y_96 + y_99 - z_3789 >= 0
 c3791: y_12 + y_71 + y_88 - z_3790 >= 0
 c3792: y_12 + y_22 + y_57 + y_65 + y_72 + y_88 - z_3791 >= 0
 c3793: y_3 + y_11 + y_19 + y_30 + y_38 + y_43 + y_52 + y_59 + y_67 + y_68
        + y_69 - z_3792 >= 0
 c3794: y_0 + y_64 + y_96 - z_3793 >= 0
 c3795: y_16 + y_39 + y_53 + y_54 + y_55 + y_63 + y_64 + y_66 - z_3794 >= 0
 c3796: y_4 + y_6 + y_26 + y_32 + y_38 + y_44 + y_90 - z_3795 >= 0
 c3797: y_45 + y_96 - z_3796 >= 0
 c3798: y_18 + y_36 + y_41 + y_47 + y_74 + y_95 - z_3797 >= 0
 c3799: y_6 + y_58 + y_90 - z_3798 >= 0
 c3800: y_3 + y_15 + y_20 + y_21 + y_33 + y_34 + y_41 + y_44 + y_48 + y_61
        + y_79 + y_80 + y_93 - z_3799 >= 0
 c3801: y_12 + y_22 + y_57 + y_72 + y_88 - z_3800 >= 0
 c3802: y_23 + y_46 + y_49 + y_74 + y_98 - z_3801 >= 0
 c3803: y_1 + y_8 + y_23 + y_46 + y_49 + y_73 + y_75 + y_95 - z_3802 >= 0
 c3804: y_23 + y_49 + y_74 + y_98 - z_3803 >= 0
 c3805: y_4 + y_6 + y_9 + y_26 + y_32 + y_38 + y_44 + y_90 - z_3804 >= 0
 c3806: y_0 + y_16 + y_39 + y_42 + y_54 + y_55 + y_63 + y_64 - z_3805 >= 0
 c3807: y_13 + y_28 + y_60 + y_76 - z_3806 >= 0
 c3808: y_16 + y_39 + y_53 + y_54 + y_58 + y_63 + y_64 + y_66 + y_87 - z_3807
         >= 0
 c3809: y_0 + y_27 + y_42 + y_55 + y_64 - z_3808 >= 0
 c3810: y_0 + y_96 - z_3809 >= 0
 c3811: y_40 + y_83 + y_85 + y_92 - z_3810 >= 0
 c3812: y_9 + y_26 + y_32 + y_67 + y_69 + y_71 - z_3811 >= 0
 c3813: y_8 + y_73 + y_75 + y_80 + y_96 - z_3812 >= 0
 c3814: y_25 + y_35 + y_40 + y_77 + y_87 + y_92 - z_3813 >= 0
 c3815: y_13 + y_28 + y_60 + y_76 + y_81 - z_3814 >= 0
 c3816: y_0 + y_27 + y_42 + y_55 + y_64 - z_3815 >= 0
 c3817: y_4 + y_5 + y_6 + y_34 + y_44 + y_90 - z_3816 >= 0
 c3818: y_65 - z_3817 >= 0
 c3819: y_25 + y_29 + y_35 + y_50 + y_56 + y_77 - z_3818 >= 0
 c3820: y_9 + y_11 + y_26 + y_67 + y_68 + y_69 + y_97 - z_3819 >= 0
 c3821: y_1 + y_23 + y_46 + y_49 + y_74 + y_75 + y_95 - z_3820 >= 0
 c3822: y_7 + y_31 + y_37 + y_51 + y_62 + y_89 + y_99 - z_3821 >= 0
 c3823: y_37 + y_45 + y_73 + y_96 - z_3822 >= 0
 c3824: y_9 + y_11 + y_26 + y_67 + y_68 + y_69 + y_97 - z_3823 >= 0
 c3825: y_11 + y_24 + y_52 + y_59 + y_68 + y_70 + y_86 - z_3824 >= 0
 c3826: y_3 + y_11 + y_19 + y_30 + y_38 + y_43 + y_52 + y_59 + y_67 + y_68
        + y_69 - z_3825 >= 0
 c3827: y_27 - z_3826 >= 0
 c3828: y_5 + y_20 + y_33 + y_34 + y_44 + y_61 + y_90 + y_93 - z_3827 >= 0
 c3829: y_13 + y_28 + y_60 + y_76 + y_81 - z_3828 >= 0
 c3830: y_40 + y_55 + y_92 - z_3829 >= 0
 c3831: y_9 + y_26 + y_67 + y_71 - z_3830 >= 0
 c3832: y_5 + y_17 + y_53 + y_58 + y_91 - z_3831 >= 0
 c3833: y_11 + y_19 + y_30 + y_38 + y_43 + y_52 + y_59 + y_67 + y_68 + y_69
        - z_3832 >= 0
 c3834: y_8 + y_17 + y_34 + y_75 + y_80 + y_96 - z_3833 >= 0
 c3835: y_31 + y_37 + y_89 + y_99 - z_3834 >= 0
 c3836: y_3 + y_4 + y_19 + y_26 + y_32 + y_33 + y_38 + y_44 + y_90 - z_3835 >= 
        0
 c3837: y_16 + y_39 + y_50 + y_53 + y_54 + y_58 + y_63 + y_66 + y_87 - z_3836
         >= 0
 c3838: y_6 + y_58 + y_91 - z_3837 >= 0
 c3839: y_45 - z_3838 >= 0
 c3840: y_13 + y_28 + y_60 + y_76 - z_3839 >= 0
 c3841: y_56 + y_58 - z_3840 >= 0
 c3842: y_0 + y_27 + y_42 + y_64 - z_3841 >= 0
 c3843: y_16 + y_39 + y_40 + y_42 + y_54 + y_55 + y_63 + y_64 - z_3842 >= 0
 c3844: y_11 + y_52 + y_67 + y_68 + y_69 + y_97 - z_3843 >= 0
 c3845: y_3 + y_19 + y_21 + y_33 + y_36 + y_38 + y_41 + y_43 + y_47 + y_48
        + y_79 + y_94 - z_3844 >= 0
 c3846: y_0 + y_27 - z_3845 >= 0
 c3847: y_5 + y_6 + y_58 + y_90 + y_91 - z_3846 >= 0
 c3848: y_37 + y_45 + y_73 + y_89 - z_3847 >= 0
 c3849: y_4 + y_6 + y_32 + y_44 + y_90 - z_3848 >= 0
 c3850: y_22 + y_57 + y_65 - z_3849 >= 0
 c3851: y_4 + y_6 + y_26 + y_32 + y_38 + y_44 + y_90 - z_3850 >= 0
 c3852: y_7 + y_31 + y_51 + y_62 + y_89 + y_99 - z_3851 >= 0
 c3853: y_0 + y_27 + y_42 - z_3852 >= 0
 c3854: y_3 + y_19 + y_21 + y_33 + y_36 + y_38 + y_41 + y_43 + y_47 + y_48
        + y_79 + y_94 - z_3853 >= 0
 c3855: y_45 - z_3854 >= 0
 c3856: y_0 + y_27 + y_42 + y_64 - z_3855 >= 0
 c3857: y_1 + y_37 + y_73 + y_96 + y_99 - z_3856 >= 0
 c3858: y_45 - z_3857 >= 0
 c3859: y_84 + y_85 - z_3858 >= 0
 c3860: y_22 + y_56 + y_65 - z_3859 >= 0
 c3861: y_0 + y_2 + y_27 + y_42 + y_55 + y_64 - z_3860 >= 0
 c3862: y_0 + y_16 + y_39 + y_42 + y_53 + y_54 + y_55 + y_63 + y_64 - z_3861
         >= 0
 c3863: y_1 + y_73 + y_96 - z_3862 >= 0
 c3864: y_10 + y_13 + y_28 + y_60 + y_76 + y_78 + y_81 - z_3863 >= 0
 c3865: y_12 + y_22 + y_57 + y_65 + y_72 + y_88 - z_3864 >= 0
 c3866: y_5 + y_6 + y_90 - z_3865 >= 0
 c3867: y_0 + y_27 + y_42 - z_3866 >= 0
 c3868: y_3 + y_15 + y_19 + y_21 + y_33 + y_36 + y_41 + y_47 + y_48 + y_79
        - z_3867 >= 0
 c3869: y_1 + y_37 + y_73 + y_89 + y_96 + y_99 - z_3868 >= 0
 c3870: y_1 + y_23 + y_46 + y_49 + y_73 + y_75 - z_3869 >= 0
 c3871: y_4 + y_9 + y_26 + y_32 - z_3870 >= 0
 c3872: - z_3871 >= 0
 c3873: y_57 + y_65 + y_72 - z_3872 >= 0
 c3874: y_16 + y_39 + y_40 + y_50 + y_54 + y_66 + y_87 - z_3873 >= 0
 c3875: y_24 + y_30 + y_43 + y_52 + y_59 + y_70 + y_94 - z_3874 >= 0
 c3876: y_25 + y_29 + y_35 + y_77 + y_87 - z_3875 >= 0
 c3877: y_22 + y_57 + y_65 + y_72 + y_88 - z_3876 >= 0
 c3878: y_29 + y_77 - z_3877 >= 0
 c3879: y_0 + y_27 + y_42 - z_3878 >= 0
 c3880: y_13 + y_57 + y_60 + y_72 + y_76 + y_78 + y_81 - z_3879 >= 0
 c3881: y_17 + y_96 - z_3880 >= 0
 c3882: y_8 + y_73 + y_75 + y_80 + y_96 - z_3881 >= 0
 c3883: y_83 + y_84 + y_85 - z_3882 >= 0
 c3884: y_8 + y_15 + y_20 + y_41 + y_46 + y_61 + y_75 + y_79 + y_80 + y_93
        + y_95 - z_3883 >= 0
 c3885: y_0 + y_27 + y_42 + y_55 + y_63 + y_64 - z_3884 >= 0
 c3886: y_46 + y_49 + y_74 + y_95 - z_3885 >= 0
 c3887: y_7 + y_23 + y_31 + y_51 + y_62 + y_89 + y_98 + y_99 - z_3886 >= 0
 c3888: y_2 + y_14 + y_82 + y_83 + y_84 + y_85 - z_3887 >= 0
 c3889: y_9 + y_26 + y_71 - z_3888 >= 0
 c3890: y_22 + y_50 + y_56 + y_65 - z_3889 >= 0
 c3891: y_15 + y_18 + y_36 + y_41 + y_47 + y_74 + y_95 - z_3890 >= 0
 c3892: y_3 + y_19 + y_21 + y_33 + y_38 + y_41 + y_44 + y_48 + y_79 - z_3891
         >= 0
 c3893: y_3 + y_11 + y_19 + y_26 + y_38 + y_44 + y_67 + y_68 + y_69 - z_3892
         >= 0
 c3894: y_2 + y_40 + y_55 + y_83 + y_85 - z_3893 >= 0
 c3895: y_24 + y_30 + y_43 + y_52 + y_59 + y_70 - z_3894 >= 0
 c3896: y_3 + y_19 + y_21 + y_30 + y_33 + y_36 + y_41 + y_43 + y_47 + y_48
        + y_94 - z_3895 >= 0
 c3897: y_18 + y_74 + y_95 - z_3896 >= 0
 c3898: y_5 + y_17 + y_34 + y_91 - z_3897 >= 0
 c3899: y_10 + y_13 + y_28 + y_60 + y_76 + y_78 + y_81 - z_3898 >= 0
 c3900: y_3 + y_15 + y_19 + y_20 + y_21 + y_33 + y_36 + y_41 + y_47 + y_48
        + y_61 + y_79 - z_3899 >= 0
 c3901: y_25 + y_29 + y_35 + y_77 - z_3900 >= 0
 c3902: y_0 + y_27 + y_42 + y_55 + y_64 - z_3901 >= 0
 c3903: y_11 + y_68 + y_86 + y_97 - z_3902 >= 0
 c3904: y_25 + y_29 + y_35 + y_50 + y_56 + y_77 - z_3903 >= 0
 c3905: y_3 + y_15 + y_19 + y_21 + y_33 + y_36 + y_38 + y_41 + y_44 + y_47
        + y_48 + y_61 + y_79 - z_3904 >= 0
 c3906: y_15 + y_18 + y_21 + y_36 + y_41 + y_47 + y_48 + y_79 + y_94 - z_3905
         >= 0
 c3907: y_1 + y_73 + y_75 + y_96 + y_99 - z_3906 >= 0
 c3908: y_92 - z_3907 >= 0
 c3909: y_5 + y_6 + y_58 + y_90 + y_91 - z_3908 >= 0
 c3910: y_4 + y_9 + y_26 + y_32 + y_67 + y_69 - z_3909 >= 0
 c3911: y_5 + y_6 + y_58 + y_90 + y_91 - z_3910 >= 0
 c3912: y_25 + y_29 + y_35 + y_77 - z_3911 >= 0
 c3913: y_25 + y_29 + y_35 + y_50 + y_77 + y_87 - z_3912 >= 0
 c3914: y_17 + y_53 + y_91 + y_96 - z_3913 >= 0
 c3915: y_13 - z_3914 >= 0
 c3916: y_3 + y_5 + y_33 + y_34 + y_44 + y_90 - z_3915 >= 0
 c3917: y_10 + y_13 + y_57 + y_60 + y_72 + y_76 + y_78 + y_81 - z_3916 >= 0
 c3918: y_2 + y_14 + y_82 + y_83 + y_84 + y_85 - z_3917 >= 0
 c3919: y_0 + y_27 - z_3918 >= 0
 c3920: y_12 + y_22 + y_57 + y_65 + y_72 + y_88 - z_3919 >= 0
 c3921: y_4 + y_9 + y_26 + y_32 + y_38 + y_67 + y_69 - z_3920 >= 0
 c3922: y_30 + y_43 + y_59 + y_94 - z_3921 >= 0
 c3923: y_18 + y_21 + y_36 + y_41 + y_47 + y_94 - z_3922 >= 0
 c3924: y_7 + y_31 + y_51 + y_62 + y_89 + y_99 - z_3923 >= 0
 c3925: y_25 + y_29 + y_35 + y_50 + y_56 + y_66 + y_77 + y_87 - z_3924 >= 0
 c3926: y_15 + y_18 + y_21 + y_36 + y_41 + y_47 + y_95 - z_3925 >= 0
 c3927: y_92 - z_3926 >= 0
 c3928: y_10 + y_13 + y_60 + y_76 + y_78 + y_81 - z_3927 >= 0
 c3929: y_9 + y_26 + y_67 + y_68 + y_69 + y_97 - z_3928 >= 0
 c3930: y_0 + y_27 + y_39 + y_42 + y_55 + y_63 + y_64 - z_3929 >= 0
 c3931: y_40 + y_54 + y_66 + y_87 + y_92 - z_3930 >= 0
 c3932: y_7 + y_31 + y_37 + y_89 + y_99 - z_3931 >= 0
 c3933: y_18 + y_21 + y_30 + y_36 + y_41 + y_47 + y_48 + y_94 - z_3932 >= 0
 c3934: y_0 + y_27 + y_42 + y_55 + y_64 - z_3933 >= 0
 c3935: y_65 - z_3934 >= 0
 c3936: y_17 + y_53 + y_63 + y_91 + y_96 - z_3935 >= 0
 c3937: y_23 + y_46 + y_49 + y_74 + y_98 - z_3936 >= 0
 c3938: y_25 + y_29 + y_35 + y_50 + y_56 + y_77 + y_87 - z_3937 >= 0
 c3939: y_0 + y_27 + y_45 - z_3938 >= 0
 c3940: y_12 + y_71 + y_88 - z_3939 >= 0
 c3941: y_17 + y_53 + y_58 + y_91 - z_3940 >= 0
 c3942: y_22 + y_56 + y_65 - z_3941 >= 0
 c3943: y_16 + y_39 + y_53 + y_54 + y_58 + y_63 + y_66 + y_91 - z_3942 >= 0
 c3944: y_5 + y_8 + y_20 + y_34 + y_61 + y_80 + y_93 - z_3943 >= 0
 c3945: y_10 + y_78 + y_81 - z_3944 >= 0
 c3946: y_67 + y_68 + y_97 - z_3945 >= 0
 c3947: y_25 + y_29 + y_35 + y_77 - z_3946 >= 0
 c3948: y_15 + y_20 + y_21 + y_36 + y_41 + y_47 + y_48 + y_61 + y_79 + y_80
        + y_93 + y_95 - z_3947 >= 0
 c3949: y_0 + y_27 + y_42 - z_3948 >= 0
 c3950: y_12 + y_57 + y_65 + y_72 + y_78 + y_88 - z_3949 >= 0
 c3951: y_15 + y_18 + y_20 + y_21 + y_36 + y_41 + y_47 + y_48 + y_61 + y_79
        + y_80 + y_93 + y_95 - z_3950 >= 0
 c3952: y_2 + y_40 + y_42 + y_55 + y_64 - z_3951 >= 0
 c3953: y_2 + y_27 + y_42 + y_55 + y_64 - z_3952 >= 0
 c3954: y_3 + y_5 + y_19 + y_33 + y_38 + y_44 + y_48 + y_61 + y_79 - z_3953 >= 
        0
 c3955: y_0 + y_16 + y_39 + y_42 + y_53 + y_55 + y_63 + y_64 - z_3954 >= 0
 c3956: y_10 + y_12 + y_57 + y_72 + y_78 + y_88 - z_3955 >= 0
 c3957: y_0 + y_27 + y_45 - z_3956 >= 0
 c3958: y_17 + y_53 + y_58 + y_63 + y_91 - z_3957 >= 0
 c3959: y_2 + y_83 + y_85 - z_3958 >= 0
 c3960: y_11 + y_24 + y_30 + y_43 + y_52 + y_59 + y_67 + y_68 + y_69 + y_70
        - z_3959 >= 0
 c3961: y_29 + y_50 + y_56 + y_65 - z_3960 >= 0
 c3962: y_15 + y_18 + y_20 + y_46 + y_49 + y_74 + y_75 + y_79 + y_80 + y_93
        + y_95 - z_3961 >= 0
 c3963: y_13 + y_60 + y_76 - z_3962 >= 0
 c3964: y_40 + y_87 + y_92 - z_3963 >= 0
 c3965: y_15 + y_18 + y_20 + y_21 + y_36 + y_41 + y_47 + y_48 + y_61 + y_79
        + y_80 + y_93 + y_95 - z_3964 >= 0
 c3966: y_18 + y_21 + y_36 + y_41 + y_47 + y_94 - z_3965 >= 0
 c3967: y_40 + y_54 + y_55 + y_87 + y_92 - z_3966 >= 0
 c3968: y_4 + y_9 + y_12 + y_26 + y_32 + y_88 - z_3967 >= 0
 c3969: y_5 + y_6 + y_34 + y_90 - z_3968 >= 0
 c3970: y_13 + y_57 + y_65 + y_72 - z_3969 >= 0
 c3971: y_0 + y_14 + y_27 - z_3970 >= 0
 c3972: y_15 + y_18 + y_21 + y_36 + y_41 + y_47 + y_48 + y_79 + y_95 - z_3971
         >= 0
 c3973: y_2 + y_40 + y_83 + y_85 + y_92 - z_3972 >= 0
 c3974: y_5 + y_6 + y_33 + y_34 + y_44 + y_90 - z_3973 >= 0
 c3975: y_4 + y_6 + y_9 + y_26 + y_32 + y_90 - z_3974 >= 0
 c3976: y_5 + y_20 + y_34 + y_61 + y_80 + y_93 - z_3975 >= 0
 c3977: y_40 + y_83 + y_85 + y_92 - z_3976 >= 0
 c3978: y_15 + y_18 + y_36 + y_41 + y_47 + y_74 + y_95 - z_3977 >= 0
 c3979: y_13 + y_57 + y_60 + y_65 + y_72 + y_76 + y_78 - z_3978 >= 0
 c3980: y_9 + y_11 + y_26 + y_67 + y_68 + y_69 + y_97 - z_3979 >= 0
 c3981: y_9 + y_12 + y_71 - z_3980 >= 0
 c3982: y_1 + y_8 + y_15 + y_20 + y_46 + y_49 + y_75 + y_80 + y_93 + y_95
        - z_3981 >= 0
 c3983: y_1 + y_23 + y_46 + y_49 + y_74 + y_75 + y_95 - z_3982 >= 0
 c3984: y_56 + y_65 - z_3983 >= 0
 c3985: y_5 + y_6 + y_34 + y_44 + y_90 - z_3984 >= 0
 c3986: y_6 + y_22 - z_3985 >= 0
 c3987: y_7 + y_31 + y_37 + y_51 + y_89 + y_99 - z_3986 >= 0
 c3988: y_3 + y_19 + y_26 + y_33 + y_38 + y_44 + y_48 - z_3987 >= 0
 c3989: y_31 + y_37 + y_45 + y_73 + y_89 + y_99 - z_3988 >= 0
 c3990: y_29 + y_50 + y_56 + y_65 - z_3989 >= 0
 c3991: y_3 + y_19 + y_21 + y_30 + y_43 + y_48 + y_52 + y_59 + y_94 - z_3990
         >= 0
 c3992: y_83 + y_85 - z_3991 >= 0
 c3993: y_27 - z_3992 >= 0
 c3994: y_2 + y_14 + y_82 + y_83 + y_84 - z_3993 >= 0
 c3995: y_25 + y_29 + y_35 + y_40 + y_77 + y_87 + y_92 - z_3994 >= 0
 c3996: y_1 + y_37 + y_73 + y_96 - z_3995 >= 0
 c3997: y_17 + y_39 + y_53 + y_58 + y_63 + y_91 - z_3996 >= 0
 c3998: y_16 + y_50 + y_54 + y_56 + y_58 + y_66 - z_3997 >= 0
 c3999: y_3 + y_19 + y_21 + y_33 + y_38 + y_41 + y_43 + y_48 + y_79 - z_3998
         >= 0
 c4000: y_5 + y_15 + y_20 + y_33 + y_34 + y_41 + y_48 + y_61 + y_79 + y_80
        + y_93 - z_3999 >= 0
 c4001: y_3 + y_15 + y_19 + y_20 + y_21 + y_33 + y_36 + y_38 + y_41 + y_44
        + y_47 + y_48 + y_61 + y_79 + y_93 - z_4000 >= 0
 c4002: y_12 + y_22 + y_57 + y_72 + y_88 - z_4001 >= 0
 c4003: y_17 + y_39 + y_53 + y_58 + y_63 + y_91 - z_4002 >= 0
 c4004: y_9 + y_12 + y_71 + y_88 - z_4003 >= 0
 c4005: y_4 + y_9 + y_12 + y_32 + y_71 + y_88 - z_4004 >= 0
 c4006: y_17 + y_39 + y_53 + y_58 + y_63 + y_64 + y_91 - z_4005 >= 0
 c4007: y_4 + y_6 + y_32 + y_90 - z_4006 >= 0
 c4008: y_16 + y_39 + y_50 + y_54 + y_56 + y_58 + y_66 + y_91 - z_4007 >= 0
 c4009: y_0 + y_45 - z_4008 >= 0
 c4010: y_17 + y_53 + y_58 + y_91 - z_4009 >= 0
 c4011: y_16 + y_39 + y_53 + y_54 + y_58 + y_63 + y_66 + y_91 - z_4010 >= 0
 c4012: y_10 + y_13 + y_57 + y_60 + y_72 + y_76 + y_78 + y_81 - z_4011 >= 0
 c4013: y_37 + y_45 + y_73 + y_96 - z_4012 >= 0
 c4014: y_25 + y_29 + y_35 + y_40 + y_50 + y_56 + y_66 + y_77 + y_87 - z_4013
         >= 0
 c4015: y_25 + y_29 + y_35 + y_77 - z_4014 >= 0
 c4016: y_7 + y_23 + y_31 + y_51 + y_62 + y_89 + y_98 + y_99 - z_4015 >= 0
 c4017: y_83 + y_85 - z_4016 >= 0
 c4018: y_4 + y_12 + y_22 + y_32 + y_88 - z_4017 >= 0
 c4019: y_16 + y_39 + y_50 + y_54 + y_56 + y_58 + y_66 - z_4018 >= 0
 c4020: y_37 + y_45 + y_89 - z_4019 >= 0
 c4021: y_73 + y_96 - z_4020 >= 0
 c4022: y_13 + y_57 + y_60 + y_72 + y_76 + y_78 + y_81 - z_4021 >= 0
 c4023: y_9 + y_26 + y_67 + y_69 + y_71 + y_97 - z_4022 >= 0
 c4024: y_18 + y_36 + y_41 + y_47 + y_74 + y_95 - z_4023 >= 0
 c4025: y_13 + y_28 + y_60 + y_76 - z_4024 >= 0
 c4026: y_3 + y_5 + y_15 + y_20 + y_33 + y_34 + y_41 + y_44 + y_48 + y_61 + y_79
        + y_80 + y_93 - z_4025 >= 0
 c4027: y_4 + y_5 + y_6 + y_32 + y_44 + y_90 - z_4026 >= 0
 c4028: y_2 + y_14 + y_82 + y_83 - z_4027 >= 0
 c4029: y_4 + y_9 + y_12 + y_32 + y_88 - z_4028 >= 0
 c4030: y_3 + y_5 + y_19 + y_33 + y_34 + y_38 + y_44 + y_90 - z_4029 >= 0
 c4031: y_16 + y_39 + y_50 + y_54 + y_56 + y_58 + y_66 + y_87 - z_4030 >= 0
 c4032: y_16 + y_39 + y_53 + y_54 + y_58 + y_63 + y_66 + y_91 - z_4031 >= 0
 c4033: y_3 + y_19 + y_21 + y_33 + y_38 + y_44 + y_48 + y_79 - z_4032 >= 0
 c4034: y_1 + y_23 + y_31 + y_46 + y_49 + y_73 + y_89 + y_98 + y_99 - z_4033
         >= 0
 c4035: y_9 + y_11 + y_26 + y_67 + y_68 + y_69 + y_97 - z_4034 >= 0
 c4036: y_15 + y_18 + y_20 + y_36 + y_41 + y_46 + y_47 + y_49 + y_61 + y_74
        + y_79 + y_80 + y_93 + y_95 - z_4035 >= 0
 c4037: y_3 + y_5 + y_19 + y_33 + y_38 + y_44 + y_48 + y_90 - z_4036 >= 0
 c4038: y_12 + y_71 + y_88 - z_4037 >= 0
 c4039: y_4 + y_6 + y_32 + y_44 + y_90 - z_4038 >= 0
 c4040: y_6 + y_58 + y_90 + y_91 - z_4039 >= 0
 c4041: y_15 + y_18 + y_46 + y_49 + y_74 + y_95 - z_4040 >= 0
 c4042: y_30 + y_43 + y_52 + y_59 + y_70 + y_94 - z_4041 >= 0
 c4043: y_25 + y_29 + y_35 + y_50 + y_56 + y_66 + y_77 + y_87 - z_4042 >= 0
 c4044: y_9 + y_11 + y_19 + y_26 + y_38 + y_67 + y_68 + y_69 - z_4043 >= 0
 c4045: y_17 + y_53 + y_96 - z_4044 >= 0
 c4046: y_50 + y_56 + y_65 - z_4045 >= 0
 c4047: y_7 + y_23 + y_31 + y_51 + y_62 + y_89 + y_98 + y_99 - z_4046 >= 0
 c4048: y_16 + y_25 + y_40 + y_50 + y_54 + y_56 + y_66 + y_77 + y_87 - z_4047
         >= 0
 c4049: y_0 + y_16 + y_39 + y_42 + y_53 + y_54 + y_55 + y_63 + y_64 - z_4048
         >= 0
 c4050: y_11 + y_52 + y_67 + y_68 + y_69 + y_97 - z_4049 >= 0
 c4051: y_9 + y_26 + y_67 + y_71 - z_4050 >= 0
 c4052: y_17 + y_39 + y_53 + y_58 + y_63 + y_64 + y_91 - z_4051 >= 0
 c4053: y_3 + y_19 + y_26 + y_33 + y_38 + y_44 + y_48 - z_4052 >= 0
 c4054: y_37 + y_45 - z_4053 >= 0
 c4055: y_6 + y_22 + y_32 + y_88 - z_4054 >= 0
 c4056: y_11 + y_24 + y_43 + y_52 + y_59 + y_68 + y_70 + y_86 - z_4055 >= 0
 c4057: y_22 + y_57 + y_65 - z_4056 >= 0
 c4058: y_1 + y_7 + y_23 + y_31 + y_37 + y_51 + y_73 + y_89 + y_98 + y_99
        - z_4057 >= 0
 c4059: y_25 + y_29 + y_35 + y_50 + y_77 + y_87 - z_4058 >= 0
 c4060: y_25 + y_29 + y_35 + y_50 + y_54 + y_56 + y_66 + y_77 + y_87 - z_4059
         >= 0
 c4061: y_46 + y_49 + y_74 + y_95 - z_4060 >= 0
 c4062: y_4 + y_6 + y_32 + y_90 - z_4061 >= 0
 c4063: y_7 + y_23 + y_31 + y_51 + y_62 + y_89 + y_98 + y_99 - z_4062 >= 0
 c4064: y_17 + y_96 - z_4063 >= 0
 c4065: y_3 + y_19 + y_33 + y_38 + y_44 + y_48 - z_4064 >= 0
 c4066: y_6 + y_22 + y_90 - z_4065 >= 0
 c4067: y_29 + y_77 - z_4066 >= 0
 c4068: y_1 + y_37 + y_45 + y_73 + y_89 + y_96 + y_99 - z_4067 >= 0
 c4069: y_1 + y_23 + y_31 + y_46 + y_73 + y_89 + y_98 + y_99 - z_4068 >= 0
 c4070: y_29 - z_4069 >= 0
 c4071: y_4 + y_12 + y_22 + y_32 + y_88 - z_4070 >= 0
 c4072: y_45 - z_4071 >= 0
 c4073: y_1 + y_23 + y_31 + y_46 + y_49 + y_74 + y_98 + y_99 - z_4072 >= 0
 c4074: y_22 + y_50 + y_56 + y_65 - z_4073 >= 0
 c4075: y_7 + y_31 + y_51 + y_62 + y_89 + y_99 - z_4074 >= 0
 c4076: y_5 + y_6 + y_33 + y_34 + y_44 + y_90 - z_4075 >= 0
 c4077: y_1 + y_23 + y_31 + y_37 + y_73 + y_89 + y_98 + y_99 - z_4076 >= 0
 c4078: y_9 + y_11 + y_26 + y_67 + y_68 + y_69 + y_97 - z_4077 >= 0
 c4079: y_1 + y_23 + y_46 + y_49 + y_73 + y_75 + y_98 + y_99 - z_4078 >= 0
 c4080: - z_4079 >= 0
 c4081: y_8 + y_17 + y_34 + y_75 + y_80 + y_93 + y_96 - z_4080 >= 0
 c4082: y_25 + y_29 + y_35 + y_77 - z_4081 >= 0
 c4083: y_16 + y_39 + y_42 + y_53 + y_54 + y_55 + y_63 + y_64 - z_4082 >= 0
 c4084: y_17 + y_53 + y_63 + y_64 + y_91 - z_4083 >= 0
 c4085: y_13 + y_28 + y_60 + y_76 - z_4084 >= 0
 c4086: y_16 + y_39 + y_53 + y_54 + y_58 + y_63 + y_66 + y_91 - z_4085 >= 0
 c4087: y_5 + y_6 + y_34 + y_90 - z_4086 >= 0
 c4088: y_2 + y_14 + y_27 + y_42 + y_55 + y_82 + y_83 - z_4087 >= 0
 c4089: y_50 + y_56 - z_4088 >= 0
 c4090: y_58 + y_91 - z_4089 >= 0
 c4091: y_11 + y_24 + y_30 + y_43 + y_52 + y_59 + y_68 + y_70 + y_86 - z_4090
         >= 0
 c4092: y_24 + y_52 + y_59 + y_70 + y_86 - z_4091 >= 0
 c4093: y_40 + y_54 + y_66 + y_87 + y_92 - z_4092 >= 0
 c4094: y_17 + y_39 + y_53 + y_58 + y_63 + y_64 + y_91 - z_4093 >= 0
 c4095: y_24 + y_52 + y_59 + y_70 + y_86 - z_4094 >= 0
 c4096: y_5 + y_8 + y_20 + y_34 + y_61 + y_80 + y_93 - z_4095 >= 0
 c4097: y_18 + y_49 + y_74 + y_95 - z_4096 >= 0
 c4098: y_16 + y_39 + y_40 + y_54 + y_55 + y_63 + y_64 + y_66 + y_87 - z_4097
         >= 0
 c4099: y_22 - z_4098 >= 0
 c4100: y_0 + y_17 + y_53 + y_63 + y_64 - z_4099 >= 0
 c4101: y_22 + y_50 + y_56 - z_4100 >= 0
 c4102: y_1 + y_7 + y_23 + y_31 + y_49 + y_51 + y_89 + y_98 + y_99 - z_4101 >= 
        0
 c4103: y_37 + y_45 + y_73 + y_89 - z_4102 >= 0
 c4104: y_12 + y_57 + y_72 + y_88 - z_4103 >= 0
 c4105: y_37 + y_45 - z_4104 >= 0
 c4106: y_85 + y_92 - z_4105 >= 0
 c4107: y_8 + y_15 + y_20 + y_34 + y_46 + y_61 + y_75 + y_79 + y_80 + y_93
        + y_95 - z_4106 >= 0
 c4108: y_2 + y_14 + y_27 + y_42 + y_82 - z_4107 >= 0
 c4109: y_37 + y_45 - z_4108 >= 0
 c4110: y_92 - z_4109 >= 0
 c4111: y_16 + y_50 + y_54 + y_56 + y_66 + y_87 - z_4110 >= 0
 c4112: y_40 + y_87 + y_92 - z_4111 >= 0
 c4113: y_12 + y_22 + y_57 + y_65 + y_72 + y_88 - z_4112 >= 0
 c4114: y_4 + y_5 + y_6 + y_32 + y_44 + y_90 - z_4113 >= 0
 c4115: y_40 + y_87 + y_92 - z_4114 >= 0
 c4116: y_10 + y_13 + y_28 + y_60 + y_76 + y_78 + y_81 - z_4115 >= 0
 c4117: y_15 + y_18 + y_20 + y_21 + y_33 + y_36 + y_41 + y_47 + y_48 + y_61
        + y_79 + y_93 + y_95 - z_4116 >= 0
 c4118: y_10 - z_4117 >= 0
 c4119: y_25 + y_29 + y_35 + y_50 + y_56 + y_66 + y_77 + y_87 - z_4118 >= 0
 c4120: y_17 + y_39 + y_53 + y_58 + y_63 + y_64 + y_91 - z_4119 >= 0
 c4121: y_0 + y_27 + y_42 + y_55 + y_63 + y_64 - z_4120 >= 0
 c4122: y_50 + y_56 + y_58 - z_4121 >= 0
 c4123: y_12 + y_22 + y_32 + y_88 - z_4122 >= 0
 c4124: y_16 + y_40 + y_50 + y_54 + y_66 + y_87 + y_92 - z_4123 >= 0
 c4125: y_10 - z_4124 >= 0
 c4126: y_4 + y_9 + y_12 + y_26 + y_32 - z_4125 >= 0
 c4127: y_15 + y_18 + y_20 + y_46 + y_49 + y_74 + y_75 + y_80 + y_95 - z_4126
         >= 0
 c4128: y_8 + y_15 + y_20 + y_46 + y_49 + y_61 + y_75 + y_80 + y_93 + y_95
        - z_4127 >= 0
 c4129: y_30 + y_43 + y_52 + y_59 + y_94 - z_4128 >= 0
 c4130: y_18 + y_21 + y_36 + y_41 + y_47 + y_48 + y_94 - z_4129 >= 0
 c4131: y_12 + y_71 + y_88 - z_4130 >= 0
 c4132: y_9 + y_71 - z_4131 >= 0
 c4133: y_13 - z_4132 >= 0
 c4134: y_7 + y_31 + y_37 + y_51 + y_89 + y_99 - z_4133 >= 0
 c4135: y_4 + y_9 + y_26 + y_32 + y_38 + y_44 + y_67 + y_69 - z_4134 >= 0
 c4136: y_13 - z_4135 >= 0
 c4137: y_9 + y_26 + y_67 + y_68 + y_69 + y_97 - z_4136 >= 0
 c4138: y_22 + y_50 + y_56 + y_65 - z_4137 >= 0
 c4139: y_13 + y_28 + y_60 + y_76 - z_4138 >= 0
 c4140: y_25 + y_29 + y_35 + y_50 + y_56 + y_77 + y_87 - z_4139 >= 0
 c4141: y_3 + y_19 + y_33 + y_38 + y_44 + y_48 - z_4140 >= 0
 c4142: y_46 + y_49 + y_74 + y_95 - z_4141 >= 0
 c4143: y_16 + y_39 + y_40 + y_50 + y_54 + y_66 + y_87 - z_4142 >= 0
 c4144: y_1 + y_23 + y_46 + y_49 + y_73 + y_75 + y_98 + y_99 - z_4143 >= 0
 c4145: y_13 + y_65 + y_72 - z_4144 >= 0
 c4146: y_0 + y_27 + y_39 + y_42 + y_53 + y_55 + y_63 + y_64 - z_4145 >= 0
 c4147: y_8 + y_15 + y_20 + y_41 + y_46 + y_61 + y_75 + y_79 + y_80 + y_93
        + y_95 - z_4146 >= 0
 c4148: y_7 + y_31 + y_37 + y_51 + y_89 + y_99 - z_4147 >= 0
 c4149: y_7 + y_23 + y_31 + y_51 + y_62 + y_89 + y_98 + y_99 - z_4148 >= 0
 c4150: y_25 + y_35 + y_40 + y_50 + y_66 + y_77 + y_87 + y_92 - z_4149 >= 0
 c4151: y_15 + y_20 + y_21 + y_33 + y_34 + y_36 + y_41 + y_47 + y_48 + y_61
        + y_79 + y_80 + y_93 + y_95 - z_4150 >= 0
 c4152: y_4 + y_9 + y_26 + y_32 + y_71 - z_4151 >= 0
 c4153: y_5 + y_6 + y_34 + y_58 + y_90 + y_91 - z_4152 >= 0
 c4154: y_45 + y_96 - z_4153 >= 0
 c4155: y_16 + y_39 + y_50 + y_53 + y_54 + y_58 + y_66 + y_91 - z_4154 >= 0
 c4156: y_1 + y_23 + y_46 + y_49 + y_74 + y_95 + y_98 - z_4155 >= 0
 c4157: y_10 + y_12 + y_88 - z_4156 >= 0
 c4158: y_37 + y_45 + y_73 + y_96 - z_4157 >= 0
 c4159: y_5 + y_8 + y_17 + y_34 + y_91 - z_4158 >= 0
 c4160: y_3 + y_15 + y_18 + y_20 + y_21 + y_33 + y_36 + y_41 + y_47 + y_48
        + y_61 + y_79 + y_93 + y_95 - z_4159 >= 0
 c4161: y_40 + y_54 + y_55 + y_87 + y_92 - z_4160 >= 0
 c4162: y_12 + y_22 + y_57 + y_65 + y_72 + y_88 - z_4161 >= 0
 c4163: y_10 + y_13 + y_60 + y_76 + y_78 + y_81 - z_4162 >= 0
 c4164: y_11 + y_24 + y_52 + y_59 + y_68 + y_70 + y_86 - z_4163 >= 0
 c4165: y_9 + y_67 + y_71 + y_97 - z_4164 >= 0
 c4166: y_9 + y_71 - z_4165 >= 0
 c4167: y_50 + y_56 + y_66 + y_87 - z_4166 >= 0
 c4168: y_24 + y_30 + y_43 + y_52 + y_59 + y_70 + y_86 - z_4167 >= 0
 c4169: y_23 + y_46 + y_49 + y_74 + y_98 - z_4168 >= 0
 c4170: y_16 + y_39 + y_50 + y_54 + y_56 + y_58 + y_66 + y_87 - z_4169 >= 0
 c4171: y_22 + y_57 + y_65 + y_72 - z_4170 >= 0
 c4172: y_12 + y_22 + y_57 + y_65 + y_72 + y_88 - z_4171 >= 0
 c4173: y_25 + y_35 + y_77 + y_92 - z_4172 >= 0
 c4174: y_2 + y_14 + y_82 + y_83 - z_4173 >= 0
 c4175: y_16 + y_17 + y_39 + y_53 + y_54 + y_58 + y_63 + y_64 + y_91 - z_4174
         >= 0
 c4176: y_10 + y_12 + y_78 + y_88 - z_4175 >= 0
 c4177: y_16 + y_39 + y_40 + y_50 + y_54 + y_66 + y_87 - z_4176 >= 0
 c4178: y_5 + y_8 + y_17 + y_34 + y_96 - z_4177 >= 0
 c4179: y_3 + y_5 + y_20 + y_33 + y_34 + y_38 + y_44 + y_48 + y_61 + y_79 + y_93
        - z_4178 >= 0
 c4180: y_17 + y_53 + y_58 + y_91 - z_4179 >= 0
 c4181: y_4 + y_5 + y_6 + y_32 + y_44 + y_90 - z_4180 >= 0
 c4182: y_7 + y_31 + y_37 + y_51 + y_62 + y_89 + y_99 - z_4181 >= 0
 c4183: y_40 + y_83 + y_85 + y_92 - z_4182 >= 0
 c4184: y_17 + y_96 - z_4183 >= 0
 c4185: y_10 + y_12 + y_57 + y_78 + y_88 - z_4184 >= 0
 c4186: y_0 + y_27 + y_42 + y_55 + y_64 - z_4185 >= 0
 c4187: y_25 + y_29 + y_35 + y_77 + y_87 + y_92 - z_4186 >= 0
 c4188: y_16 + y_40 + y_54 + y_66 + y_87 + y_92 - z_4187 >= 0
 c4189: y_9 + y_26 + y_71 + y_97 - z_4188 >= 0
 c4190: y_3 + y_5 + y_19 + y_33 + y_34 + y_38 + y_44 + y_48 + y_90 - z_4189 >= 
        0
 c4191: y_71 - z_4190 >= 0
 c4192: y_9 + y_71 - z_4191 >= 0
 c4193: y_8 + y_17 + y_75 + y_96 - z_4192 >= 0
 c4194: y_13 + y_60 + y_76 - z_4193 >= 0
 c4195: y_3 + y_19 + y_33 + y_38 + y_44 + y_48 - z_4194 >= 0
 c4196: y_5 + y_8 + y_20 + y_34 + y_61 + y_75 + y_80 + y_93 - z_4195 >= 0
 c4197: y_4 + y_6 + y_32 + y_90 - z_4196 >= 0
 c4198: y_25 + y_29 + y_35 + y_50 + y_56 + y_77 + y_87 - z_4197 >= 0
 c4199: y_16 + y_39 + y_40 + y_54 + y_66 + y_87 + y_92 - z_4198 >= 0
 c4200: y_1 + y_8 + y_73 + y_75 + y_96 - z_4199 >= 0
 c4201: y_5 + y_17 + y_34 + y_91 - z_4200 >= 0
 c4202: y_10 + y_13 + y_28 + y_60 + y_76 + y_78 + y_81 - z_4201 >= 0
 c4203: y_8 + y_20 + y_34 + y_61 + y_75 + y_80 + y_93 - z_4202 >= 0
 c4204: y_3 + y_4 + y_19 + y_26 + y_33 + y_38 + y_44 + y_90 - z_4203 >= 0
 c4205: y_3 + y_4 + y_19 + y_26 + y_32 + y_33 + y_38 + y_44 + y_90 - z_4204 >= 
        0
 c4206: y_22 + y_56 + y_65 - z_4205 >= 0
 c4207: y_12 + y_57 + y_88 - z_4206 >= 0
 c4208: y_31 + y_37 + y_73 + y_89 + y_99 - z_4207 >= 0
 c4209: y_2 + y_14 + y_82 + y_83 + y_84 - z_4208 >= 0
 c4210: y_0 + y_2 + y_27 + y_42 + y_55 + y_64 - z_4209 >= 0
 c4211: y_0 + y_27 + y_42 - z_4210 >= 0
 c4212: y_2 + y_14 + y_82 + y_83 - z_4211 >= 0
 c4213: y_0 + y_27 - z_4212 >= 0
 c4214: y_4 + y_5 + y_6 + y_32 + y_44 + y_90 - z_4213 >= 0
 c4215: y_40 + y_87 + y_92 - z_4214 >= 0
 c4216: y_22 + y_57 + y_65 + y_72 - z_4215 >= 0
 c4217: y_16 + y_39 + y_53 + y_54 + y_55 + y_58 + y_63 + y_64 + y_66 + y_91
        - z_4216 >= 0
 c4218: y_22 + y_50 + y_56 + y_65 - z_4217 >= 0
 c4219: y_9 + y_26 + y_67 + y_71 + y_97 - z_4218 >= 0
 c4220: y_0 + y_27 + y_42 - z_4219 >= 0
 c4221: y_22 + y_57 + y_65 - z_4220 >= 0
 c4222: y_16 + y_17 + y_39 + y_53 + y_55 + y_58 + y_63 + y_64 + y_91 - z_4221
         >= 0
 c4223: y_8 + y_17 + y_96 - z_4222 >= 0
 c4224: y_9 + y_11 + y_26 + y_38 + y_67 + y_68 + y_69 - z_4223 >= 0
 c4225: y_40 + y_85 + y_92 - z_4224 >= 0
 c4226: y_37 + y_45 - z_4225 >= 0
 c4227: y_15 + y_18 + y_21 + y_36 + y_41 + y_47 + y_79 - z_4226 >= 0
 c4228: y_0 + y_27 + y_42 + y_55 + y_64 - z_4227 >= 0
 c4229: y_50 + y_56 + y_65 - z_4228 >= 0
 c4230: y_13 + y_28 + y_60 + y_76 + y_81 - z_4229 >= 0
 c4231: y_22 + y_56 + y_65 - z_4230 >= 0
 c4232: - z_4231 >= 0
 c4233: y_8 + y_17 + y_34 + y_75 + y_80 + y_96 - z_4232 >= 0
 c4234: y_3 + y_19 + y_26 + y_33 + y_38 + y_44 + y_67 + y_69 - z_4233 >= 0
 c4235: y_22 + y_57 + y_65 + y_72 - z_4234 >= 0
 c4236: y_9 + y_26 + y_67 + y_71 + y_97 - z_4235 >= 0
 c4237: y_8 + y_15 + y_20 + y_34 + y_48 + y_61 + y_75 + y_79 + y_80 + y_93
        + y_95 - z_4236 >= 0
 c4238: y_10 + y_13 + y_60 + y_76 + y_78 + y_81 - z_4237 >= 0
 c4239: y_50 + y_56 + y_65 - z_4238 >= 0
 c4240: y_2 + y_83 + y_85 - z_4239 >= 0
 c4241: y_3 + y_11 + y_19 + y_30 + y_38 + y_43 + y_52 + y_59 + y_94 - z_4240
         >= 0
 c4242: y_1 + y_73 + y_96 - z_4241 >= 0
 c4243: y_37 + y_73 + y_96 - z_4242 >= 0
 c4244: y_10 + y_13 + y_57 + y_60 + y_72 + y_76 + y_78 + y_81 - z_4243 >= 0
 c4245: y_2 + y_82 + y_83 + y_84 + y_85 - z_4244 >= 0
 c4246: y_22 + y_57 + y_65 + y_72 - z_4245 >= 0
 c4247: y_4 + y_5 + y_6 + y_34 + y_44 + y_90 - z_4246 >= 0
 c4248: y_13 - z_4247 >= 0
 c4249: y_4 + y_6 + y_9 + y_12 + y_32 + y_90 - z_4248 >= 0
 c4250: y_17 + y_96 - z_4249 >= 0
 c4251: y_1 + y_23 + y_46 + y_49 + y_73 + y_75 + y_98 + y_99 - z_4250 >= 0
 c4252: y_10 + y_12 + y_57 + y_72 + y_76 + y_78 + y_81 + y_88 - z_4251 >= 0
 c4253: y_16 + y_25 + y_40 + y_50 + y_54 + y_66 + y_77 + y_87 + y_92 - z_4252
         >= 0
 c4254: y_15 + y_18 + y_21 + y_36 + y_41 + y_47 - z_4253 >= 0
 c4255: y_22 + y_56 + y_65 - z_4254 >= 0
 c4256: y_9 + y_26 + y_67 + y_69 + y_71 + y_97 - z_4255 >= 0
 c4257: y_11 + y_30 + y_43 + y_52 + y_59 + y_68 - z_4256 >= 0
 c4258: y_29 - z_4257 >= 0
 c4259: y_17 + y_39 + y_53 + y_58 + y_91 - z_4258 >= 0
 c4260: y_4 + y_12 + y_22 + y_32 + y_88 - z_4259 >= 0
 c4261: y_5 + y_17 + y_53 + y_58 + y_91 - z_4260 >= 0
 c4262: y_23 + y_46 + y_49 + y_74 - z_4261 >= 0
 c4263: y_24 + y_30 + y_43 + y_52 + y_59 + y_70 + y_86 - z_4262 >= 0
 c4264: y_10 + y_78 - z_4263 >= 0
 c4265: y_3 + y_15 + y_20 + y_21 + y_33 + y_34 + y_41 + y_47 + y_48 + y_61
        + y_79 + y_80 + y_93 - z_4264 >= 0
 c4266: y_2 + y_42 + y_55 + y_83 + y_85 - z_4265 >= 0
 c4267: y_18 + y_49 + y_74 + y_95 - z_4266 >= 0
 c4268: y_25 + y_50 + y_56 + y_66 + y_77 + y_87 - z_4267 >= 0
 c4269: y_11 + y_24 + y_30 + y_43 + y_52 + y_59 + y_70 - z_4268 >= 0
 c4270: y_4 + y_9 + y_26 + y_32 + y_71 - z_4269 >= 0
 c4271: y_22 + y_57 + y_65 + y_72 - z_4270 >= 0
 c4272: y_4 + y_9 + y_12 + y_32 + y_71 + y_88 - z_4271 >= 0
 c4273: y_4 + y_9 + y_12 + y_32 + y_71 + y_88 - z_4272 >= 0
 c4274: y_5 + y_8 + y_15 + y_20 + y_33 + y_34 + y_61 + y_79 + y_80 + y_93
        - z_4273 >= 0
 c4275: y_31 + y_37 + y_89 + y_99 - z_4274 >= 0
 c4276: y_4 + y_9 + y_12 + y_32 + y_71 + y_88 - z_4275 >= 0
 c4277: y_3 + y_11 + y_19 + y_30 + y_33 + y_38 + y_43 + y_48 + y_52 + y_59
        + y_69 - z_4276 >= 0
 c4278: y_58 + y_91 - z_4277 >= 0
 c4279: y_0 + y_96 - z_4278 >= 0
 c4280: y_16 + y_39 + y_40 + y_54 + y_55 + y_63 + y_64 + y_66 + y_87 - z_4279
         >= 0
 c4281: y_4 + y_6 + y_32 + y_90 - z_4280 >= 0
 c4282: y_15 + y_18 + y_21 + y_36 + y_41 + y_47 + y_48 + y_79 + y_95 - z_4281
         >= 0
 c4283: y_15 + y_18 + y_36 + y_41 + y_46 + y_47 + y_49 + y_74 + y_79 + y_95
        - z_4282 >= 0
 c4284: y_9 + y_11 + y_26 + y_67 + y_68 + y_69 + y_97 - z_4283 >= 0
 c4285: y_0 + y_2 + y_27 + y_42 + y_55 + y_64 - z_4284 >= 0
 c4286: y_13 + y_65 + y_72 - z_4285 >= 0
 c4287: y_17 + y_39 + y_53 + y_58 + y_63 + y_91 - z_4286 >= 0
 c4288: y_8 + y_20 + y_34 + y_46 + y_61 + y_75 + y_80 + y_93 + y_95 - z_4287
         >= 0
 c4289: y_2 + y_14 + y_82 + y_83 + y_84 + y_85 - z_4288 >= 0
 c4290: y_15 + y_18 + y_21 + y_36 + y_41 + y_47 + y_48 + y_79 + y_95 - z_4289
         >= 0
 c4291: y_37 + y_45 + y_96 - z_4290 >= 0
 c4292: y_25 + y_29 + y_35 + y_50 + y_56 + y_77 - z_4291 >= 0
 c4293: y_15 + y_18 + y_21 + y_36 + y_41 + y_47 + y_48 + y_79 - z_4292 >= 0
 c4294: y_16 + y_25 + y_50 + y_54 + y_56 + y_66 + y_87 - z_4293 >= 0
 c4295: y_29 + y_50 + y_56 + y_65 - z_4294 >= 0
 c4296: y_5 + y_15 + y_20 + y_33 + y_34 + y_44 + y_48 + y_61 + y_79 + y_80
        + y_93 - z_4295 >= 0
 c4297: y_1 + y_23 + y_46 + y_49 + y_74 + y_98 - z_4296 >= 0
 c4298: y_16 + y_39 + y_54 + y_58 + y_63 + y_66 + y_87 - z_4297 >= 0
 c4299: y_1 + y_31 + y_37 + y_73 + y_89 + y_96 + y_99 - z_4298 >= 0
 c4300: y_97 - z_4299 >= 0
 c4301: y_10 + y_78 + y_81 - z_4300 >= 0
 c4302: y_45 + y_96 - z_4301 >= 0
 c4303: y_17 + y_39 + y_53 + y_63 + y_64 + y_91 - z_4302 >= 0
 c4304: y_3 + y_4 + y_5 + y_6 + y_19 + y_32 + y_33 + y_38 + y_44 + y_90 - z_4303
         >= 0
 c4305: y_8 + y_15 + y_20 + y_46 + y_61 + y_75 + y_80 + y_93 + y_95 - z_4304
         >= 0
 c4306: y_17 + y_39 + y_53 + y_58 + y_91 - z_4305 >= 0
 c4307: y_18 + y_21 + y_36 + y_41 + y_47 + y_94 - z_4306 >= 0
 c4308: y_8 + y_15 + y_20 + y_46 + y_49 + y_61 + y_75 + y_79 + y_80 + y_93
        + y_95 - z_4307 >= 0
 c4309: y_2 + y_83 + y_84 + y_85 - z_4308 >= 0
 c4310: y_10 + y_12 + y_78 + y_88 - z_4309 >= 0
 c4311: y_4 + y_6 + y_32 + y_90 - z_4310 >= 0
 c4312: y_13 + y_28 + y_60 + y_76 + y_81 - z_4311 >= 0
 c4313: y_5 + y_6 + y_33 + y_34 + y_44 + y_90 - z_4312 >= 0
 c4314: y_22 + y_56 + y_65 - z_4313 >= 0
 c4315: y_22 + y_56 + y_65 - z_4314 >= 0
 c4316: y_27 - z_4315 >= 0
 c4317: y_8 + y_15 + y_20 + y_46 + y_49 + y_61 + y_74 + y_75 + y_79 + y_80
        + y_93 + y_95 - z_4316 >= 0
 c4318: y_2 + y_14 + y_27 + y_82 - z_4317 >= 0
 c4319: y_22 + y_65 - z_4318 >= 0
 c4320: y_7 + y_23 + y_31 + y_51 + y_62 + y_89 + y_98 + y_99 - z_4319 >= 0
 c4321: y_9 + y_12 + y_71 + y_88 - z_4320 >= 0
 c4322: y_6 + y_90 - z_4321 >= 0
 c4323: y_25 + y_29 + y_35 + y_77 - z_4322 >= 0
 c4324: y_6 + y_22 - z_4323 >= 0
 c4325: y_12 + y_57 + y_88 - z_4324 >= 0
 c4326: y_0 + y_17 + y_39 + y_53 + y_55 + y_63 + y_64 + y_91 - z_4325 >= 0
 c4327: y_1 + y_31 + y_37 + y_73 + y_89 + y_99 - z_4326 >= 0
 c4328: y_50 + y_56 - z_4327 >= 0
 c4329: y_3 + y_19 + y_21 + y_33 + y_38 + y_41 + y_44 + y_48 + y_61 + y_79
        - z_4328 >= 0
 c4330: y_8 + y_20 + y_34 + y_61 + y_75 + y_80 + y_93 - z_4329 >= 0
 c4331: y_9 + y_26 + y_71 - z_4330 >= 0
 c4332: y_9 + y_11 + y_26 + y_67 + y_68 + y_69 + y_97 - z_4331 >= 0
 c4333: y_25 + y_29 + y_35 + y_77 - z_4332 >= 0
 c4334: y_11 + y_68 + y_97 - z_4333 >= 0
 c4335: y_18 + y_21 + y_36 + y_41 + y_47 + y_48 + y_94 - z_4334 >= 0
 c4336: y_17 + y_53 + y_63 + y_64 + y_91 - z_4335 >= 0
 c4337: y_25 + y_29 + y_35 + y_50 + y_56 + y_77 - z_4336 >= 0
 c4338: y_7 + y_31 + y_51 + y_62 - z_4337 >= 0
 c4339: y_10 + y_12 + y_57 + y_72 + y_78 + y_88 - z_4338 >= 0
 c4340: y_22 + y_50 + y_56 + y_65 - z_4339 >= 0
 c4341: y_40 + y_92 - z_4340 >= 0
 c4342: y_17 + y_53 + y_91 + y_96 - z_4341 >= 0
 c4343: y_40 + y_83 + y_85 + y_92 - z_4342 >= 0
 c4344: y_2 + y_82 + y_83 + y_85 - z_4343 >= 0
 c4345: y_0 + y_27 + y_45 - z_4344 >= 0
 c4346: y_83 + y_84 + y_85 - z_4345 >= 0
 c4347: y_24 + y_52 + y_59 + y_70 + y_86 - z_4346 >= 0
 c4348: y_17 + y_53 + y_63 + y_64 + y_96 - z_4347 >= 0
 c4349: y_11 + y_67 + y_68 + y_69 + y_97 - z_4348 >= 0
 c4350: y_4 + y_6 + y_12 + y_22 + y_32 + y_88 - z_4349 >= 0
 c4351: y_46 + y_49 + y_74 + y_95 - z_4350 >= 0
 c4352: y_2 + y_14 + y_82 + y_83 + y_84 + y_85 - z_4351 >= 0
 c4353: y_11 + y_24 + y_52 + y_59 + y_68 + y_70 + y_86 - z_4352 >= 0
 c4354: y_10 + y_13 + y_60 + y_72 + y_76 + y_78 + y_81 - z_4353 >= 0
 c4355: y_12 + y_22 + y_57 + y_88 - z_4354 >= 0
 c4356: y_15 + y_18 + y_21 + y_36 + y_41 + y_47 + y_48 + y_79 + y_95 - z_4355
         >= 0
 c4357: y_25 + y_29 + y_35 + y_50 + y_56 + y_77 - z_4356 >= 0
 c4358: y_50 + y_56 + y_66 - z_4357 >= 0
 c4359: y_12 + y_22 + y_57 + y_65 + y_72 + y_88 - z_4358 >= 0
 c4360: y_29 + y_77 - z_4359 >= 0
 c4361: y_2 + y_27 + y_40 + y_42 + y_55 + y_64 - z_4360 >= 0
 c4362: y_11 + y_24 + y_52 + y_59 + y_67 + y_68 + y_69 + y_70 + y_86 + y_97
        - z_4361 >= 0
 c4363: y_3 + y_11 + y_19 + y_38 + y_43 + y_52 + y_59 + y_67 + y_68 + y_69
        - z_4362 >= 0
 c4364: y_22 + y_56 + y_65 - z_4363 >= 0
 c4365: y_5 + y_17 + y_34 - z_4364 >= 0
 c4366: y_16 + y_40 + y_54 + y_66 + y_87 + y_92 - z_4365 >= 0
 c4367: y_5 + y_17 + y_34 - z_4366 >= 0
 c4368: y_3 + y_4 + y_6 + y_26 + y_32 + y_38 + y_44 + y_90 - z_4367 >= 0
 c4369: y_58 + y_91 - z_4368 >= 0
 c4370: y_1 + y_37 + y_73 + y_89 + y_96 + y_99 - z_4369 >= 0
 c4371: y_0 + y_27 + y_42 + y_55 + y_64 - z_4370 >= 0
 c4372: y_16 + y_39 + y_40 + y_50 + y_54 + y_66 + y_87 - z_4371 >= 0
 c4373: y_29 - z_4372 >= 0
 c4374: y_5 + y_6 + y_34 + y_90 + y_91 - z_4373 >= 0
 c4375: y_3 + y_15 + y_19 + y_21 + y_33 + y_36 + y_41 + y_47 + y_48 + y_79
        - z_4374 >= 0
 c4376: y_16 + y_25 + y_40 + y_54 + y_66 + y_77 + y_87 + y_92 - z_4375 >= 0
 c4377: y_9 + y_11 + y_26 + y_67 + y_68 + y_69 + y_97 - z_4376 >= 0
 c4378: y_10 - z_4377 >= 0
 c4379: y_16 + y_39 + y_50 + y_54 + y_56 + y_58 + y_66 + y_91 - z_4378 >= 0
 c4380: y_25 + y_29 + y_35 + y_77 + y_87 + y_92 - z_4379 >= 0
 c4381: y_2 + y_14 + y_27 + y_42 + y_82 - z_4380 >= 0
 c4382: y_4 + y_6 + y_12 + y_22 + y_32 + y_88 + y_90 - z_4381 >= 0
 c4383: y_45 + y_96 - z_4382 >= 0
 c4384: y_12 + y_57 + y_72 + y_88 - z_4383 >= 0
 c4385: y_7 + y_31 + y_51 + y_62 + y_89 + y_98 - z_4384 >= 0
 c4386: y_11 + y_67 + y_68 + y_69 + y_97 - z_4385 >= 0
 c4387: y_4 + y_9 + y_19 + y_26 + y_32 + y_38 + y_44 + y_67 + y_69 - z_4386 >= 
        0
 c4388: y_45 - z_4387 >= 0
 c4389: y_17 + y_39 + y_53 + y_63 + y_64 + y_91 - z_4388 >= 0
 c4390: y_13 + y_28 + y_60 + y_76 + y_78 + y_81 - z_4389 >= 0
 c4391: y_3 + y_19 + y_33 + y_38 + y_44 + y_48 + y_79 - z_4390 >= 0
 c4392: y_4 + y_6 + y_12 + y_22 + y_32 + y_88 + y_90 - z_4391 >= 0
 c4393: y_50 + y_56 + y_66 - z_4392 >= 0
 c4394: y_23 + y_49 + y_74 + y_98 - z_4393 >= 0
 c4395: y_16 + y_39 + y_53 + y_54 + y_58 + y_63 + y_64 + y_66 + y_91 - z_4394
         >= 0
 c4396: y_9 + y_71 - z_4395 >= 0
 c4397: y_16 + y_39 + y_40 + y_53 + y_54 + y_55 + y_63 + y_64 + y_66 + y_87
        - z_4396 >= 0
 c4398: y_71 - z_4397 >= 0
 c4399: y_2 + y_83 + y_85 - z_4398 >= 0
 c4400: y_1 + y_7 + y_23 + y_31 + y_37 + y_51 + y_73 + y_89 + y_98 + y_99
        - z_4399 >= 0
 c4401: y_11 + y_24 + y_30 + y_43 + y_52 + y_59 + y_70 + y_86 - z_4400 >= 0
 c4402: y_16 + y_39 + y_50 + y_53 + y_54 + y_58 + y_63 + y_66 + y_91 - z_4401
         >= 0
 c4403: y_17 + y_53 + y_58 + y_91 - z_4402 >= 0
 c4404: y_0 + y_2 + y_14 + y_27 + y_42 + y_55 - z_4403 >= 0
 c4405: y_28 + y_60 + y_76 + y_81 - z_4404 >= 0
 c4406: y_22 + y_50 + y_56 - z_4405 >= 0
 c4407: y_1 + y_37 + y_73 + y_96 - z_4406 >= 0
 c4408: y_0 + y_27 + y_42 + y_55 + y_64 - z_4407 >= 0
 c4409: y_37 + y_45 - z_4408 >= 0
 c4410: y_4 + y_6 + y_9 + y_26 + y_32 + y_90 - z_4409 >= 0
 c4411: y_2 + y_14 + y_27 + y_42 + y_82 - z_4410 >= 0
 c4412: y_9 + y_26 + y_67 + y_71 - z_4411 >= 0
 c4413: y_25 + y_35 + y_40 + y_66 + y_77 + y_87 + y_92 - z_4412 >= 0
 c4414: y_9 + y_12 + y_71 + y_88 - z_4413 >= 0
 c4415: y_30 + y_43 + y_94 - z_4414 >= 0
 c4416: y_6 + y_12 + y_22 + y_88 - z_4415 >= 0
 c4417: y_7 + y_31 + y_37 + y_51 + y_62 + y_89 + y_98 + y_99 - z_4416 >= 0
 c4418: y_17 + y_53 + y_96 - z_4417 >= 0
 c4419: y_4 + y_5 + y_6 + y_33 + y_34 + y_44 + y_90 - z_4418 >= 0
 c4420: y_0 + y_27 + y_42 + y_55 + y_64 - z_4419 >= 0
 c4421: y_16 + y_39 + y_40 + y_54 + y_55 + y_63 + y_64 + y_66 + y_87 - z_4420
         >= 0
 c4422: y_17 + y_53 + y_63 + y_64 - z_4421 >= 0
 c4423: y_45 - z_4422 >= 0
 c4424: y_1 + y_23 + y_46 + y_49 + y_74 + y_98 + y_99 - z_4423 >= 0
 c4425: y_13 + y_28 + y_60 + y_76 + y_81 - z_4424 >= 0
 c4426: y_25 + y_29 + y_35 + y_77 - z_4425 >= 0
 c4427: y_4 + y_6 + y_32 + y_44 + y_90 - z_4426 >= 0
 c4428: y_46 + y_49 + y_74 + y_95 - z_4427 >= 0
 c4429: y_1 + y_8 + y_46 + y_49 + y_73 + y_75 + y_80 - z_4428 >= 0
 c4430: y_18 + y_21 + y_36 + y_41 + y_47 + y_94 - z_4429 >= 0
 c4431: y_1 + y_73 + y_96 + y_99 - z_4430 >= 0
 c4432: y_3 + y_5 + y_19 + y_33 + y_34 + y_38 + y_44 + y_48 + y_61 + y_79
        - z_4431 >= 0
 c4433: y_25 + y_29 + y_35 + y_40 + y_66 + y_77 + y_87 + y_92 - z_4432 >= 0
 c4434: y_30 + y_43 + y_52 + y_59 + y_94 - z_4433 >= 0
 c4435: y_40 + y_83 + y_85 + y_92 - z_4434 >= 0
 c4436: y_6 + y_22 + y_90 - z_4435 >= 0
 c4437: y_25 + y_29 + y_35 + y_56 + y_77 - z_4436 >= 0
 c4438: y_0 + y_27 + y_42 + y_55 - z_4437 >= 0
 c4439: y_5 + y_8 + y_20 + y_34 + y_75 + y_80 + y_93 - z_4438 >= 0
 c4440: y_3 + y_19 + y_26 + y_33 + y_38 + y_44 + y_67 + y_69 - z_4439 >= 0
 c4441: y_1 + y_8 + y_46 + y_73 + y_75 + y_80 + y_96 - z_4440 >= 0
 c4442: y_40 + y_83 + y_85 + y_92 - z_4441 >= 0
 c4443: y_4 + y_6 + y_22 + y_32 + y_90 - z_4442 >= 0
 c4444: y_28 - z_4443 >= 0
 c4445: y_4 + y_12 + y_22 + y_32 + y_88 - z_4444 >= 0
 c4446: y_28 - z_4445 >= 0
 c4447: y_12 + y_22 + y_57 + y_88 - z_4446 >= 0
 c4448: y_1 + y_8 + y_46 + y_49 + y_73 + y_75 - z_4447 >= 0
 c4449: y_15 + y_18 + y_36 + y_41 + y_47 + y_95 - z_4448 >= 0
 c4450: y_16 + y_39 + y_40 + y_42 + y_54 + y_55 + y_63 + y_64 - z_4449 >= 0
 c4451: y_13 + y_28 + y_60 + y_76 + y_78 + y_81 - z_4450 >= 0
 c4452: y_17 + y_53 + y_63 + y_91 + y_96 - z_4451 >= 0
 c4453: y_4 + y_9 + y_26 + y_32 + y_67 - z_4452 >= 0
 c4454: y_1 + y_7 + y_23 + y_31 + y_37 + y_51 + y_73 + y_89 + y_98 + y_99
        - z_4453 >= 0
 c4455: y_65 + y_72 - z_4454 >= 0
 c4456: y_18 + y_36 + y_41 + y_47 + y_74 + y_95 - z_4455 >= 0
 c4457: y_0 + y_2 + y_27 + y_42 + y_55 - z_4456 >= 0
 c4458: y_10 + y_13 + y_60 + y_76 + y_78 + y_81 - z_4457 >= 0
 c4459: y_40 + y_85 + y_92 - z_4458 >= 0
 c4460: y_24 + y_30 + y_43 + y_52 + y_59 + y_70 + y_94 - z_4459 >= 0
 c4461: y_25 + y_29 + y_50 + y_56 + y_66 + y_77 + y_87 - z_4460 >= 0
 c4462: y_37 + y_45 + y_89 - z_4461 >= 0
 c4463: y_5 + y_8 + y_20 + y_34 + y_61 + y_75 + y_80 + y_93 - z_4462 >= 0
 c4464: y_25 + y_29 + y_35 + y_50 + y_56 + y_77 - z_4463 >= 0
 c4465: y_16 + y_39 + y_40 + y_54 + y_55 + y_66 + y_87 + y_92 - z_4464 >= 0
 c4466: y_3 + y_19 + y_21 + y_33 + y_38 + y_41 + y_44 + y_48 + y_61 + y_79
        - z_4465 >= 0
 c4467: y_29 - z_4466 >= 0
 c4468: y_4 + y_6 + y_32 + y_90 - z_4467 >= 0
 c4469: y_40 + y_54 + y_66 + y_87 + y_92 - z_4468 >= 0
 c4470: y_21 + y_30 + y_36 + y_41 + y_43 + y_47 + y_48 + y_94 - z_4469 >= 0
 c4471: y_3 + y_19 + y_21 + y_30 + y_38 + y_43 + y_48 + y_59 + y_94 - z_4470
         >= 0
 c4472: y_2 + y_14 + y_82 + y_83 + y_85 - z_4471 >= 0
 c4473: y_24 + y_30 + y_43 + y_52 + y_59 + y_70 + y_94 - z_4472 >= 0
 c4474: y_21 + y_30 + y_36 + y_41 + y_43 + y_47 + y_48 + y_94 - z_4473 >= 0
 c4475: y_71 - z_4474 >= 0
 c4476: y_0 + y_45 - z_4475 >= 0
 c4477: y_1 + y_23 + y_46 + y_49 + y_74 + y_75 + y_98 - z_4476 >= 0
 c4478: y_12 + y_22 + y_57 + y_65 + y_72 + y_88 - z_4477 >= 0
 c4479: y_5 + y_8 + y_20 + y_34 + y_61 + y_75 + y_80 + y_93 - z_4478 >= 0
 c4480: y_50 + y_56 + y_65 - z_4479 >= 0
 c4481: y_1 + y_31 + y_37 + y_73 + y_89 + y_99 - z_4480 >= 0
 c4482: y_10 + y_76 + y_78 + y_81 - z_4481 >= 0
 c4483: y_0 + y_27 + y_42 + y_55 + y_64 - z_4482 >= 0
 c4484: y_0 + y_64 + y_96 - z_4483 >= 0
 c4485: y_25 + y_29 + y_35 + y_50 + y_56 + y_77 + y_87 - z_4484 >= 0
 c4486: y_3 + y_15 + y_19 + y_20 + y_21 + y_33 + y_34 + y_41 + y_44 + y_48
        + y_61 + y_79 + y_93 - z_4485 >= 0
 c4487: y_10 - z_4486 >= 0
 c4488: y_2 + y_14 + y_82 + y_83 - z_4487 >= 0
 c4489: y_22 + y_57 + y_65 + y_72 - z_4488 >= 0
 c4490: y_10 + y_12 + y_57 + y_72 + y_78 + y_88 - z_4489 >= 0
 c4491: y_23 + y_98 - z_4490 >= 0
 c4492: y_45 + y_96 - z_4491 >= 0
 c4493: y_83 + y_85 - z_4492 >= 0
 c4494: y_0 + y_27 + y_42 + y_55 + y_64 - z_4493 >= 0
 c4495: y_16 + y_39 + y_40 + y_42 + y_54 + y_55 + y_63 + y_64 - z_4494 >= 0
 c4496: y_8 + y_17 + y_75 + y_80 + y_96 - z_4495 >= 0
 c4497: y_9 + y_67 + y_68 + y_69 + y_97 - z_4496 >= 0
 c4498: y_1 + y_7 + y_23 + y_31 + y_51 + y_62 + y_89 + y_98 + y_99 - z_4497 >= 
        0
 c4499: y_97 - z_4498 >= 0
 c4500: y_4 + y_6 + y_32 + y_90 - z_4499 >= 0
 c4501: y_1 + y_23 + y_31 + y_37 + y_73 + y_89 + y_98 + y_99 - z_4500 >= 0
 c4502: y_3 + y_11 + y_19 + y_30 + y_38 + y_43 + y_52 + y_59 + y_68 + y_69
        - z_4501 >= 0
 c4503: y_10 + y_13 + y_57 + y_60 + y_72 + y_76 + y_78 + y_81 - z_4502 >= 0
 c4504: y_12 + y_71 + y_88 - z_4503 >= 0
 c4505: y_25 + y_29 + y_35 + y_50 + y_56 + y_66 + y_77 + y_87 - z_4504 >= 0
 c4506: y_0 + y_27 + y_39 + y_42 + y_54 + y_55 + y_63 + y_64 - z_4505 >= 0
 c4507: y_9 + y_26 + y_32 + y_71 - z_4506 >= 0
 c4508: y_7 + y_23 + y_51 + y_98 - z_4507 >= 0
 c4509: y_8 + y_20 + y_34 + y_75 + y_80 + y_93 - z_4508 >= 0
 c4510: y_22 - z_4509 >= 0
 c4511: y_83 + y_84 + y_85 - z_4510 >= 0
 c4512: y_28 - z_4511 >= 0
 c4513: y_1 + y_23 + y_46 + y_49 + y_74 + y_98 - z_4512 >= 0
 c4514: y_1 + y_31 + y_37 + y_73 + y_89 + y_99 - z_4513 >= 0
 c4515: y_16 + y_39 + y_40 + y_50 + y_54 + y_66 + y_87 - z_4514 >= 0
 c4516: y_12 + y_22 + y_32 + y_57 + y_88 - z_4515 >= 0
 c4517: y_12 + y_71 + y_88 - z_4516 >= 0
 c4518: y_57 + y_65 + y_72 - z_4517 >= 0
 c4519: y_16 + y_39 + y_40 + y_54 + y_55 + y_63 + y_64 + y_66 + y_87 - z_4518
         >= 0
 c4520: y_16 + y_25 + y_40 + y_54 + y_66 + y_87 + y_92 - z_4519 >= 0
 c4521: y_6 + y_58 - z_4520 >= 0
 c4522: y_5 + y_6 + y_34 + y_90 - z_4521 >= 0
 c4523: y_2 + y_14 + y_27 + y_82 - z_4522 >= 0
 c4524: y_5 + y_8 + y_17 + y_34 - z_4523 >= 0
 c4525: y_24 + y_70 + y_86 - z_4524 >= 0
 c4526: y_7 + y_51 + y_62 - z_4525 >= 0
 c4527: y_24 + y_70 + y_86 - z_4526 >= 0
 c4528: y_11 + y_68 + y_97 - z_4527 >= 0
 c4529: y_1 + y_7 + y_23 + y_31 + y_51 + y_62 + y_89 + y_98 + y_99 - z_4528 >= 
        0
 c4530: y_17 + y_53 + y_58 + y_91 - z_4529 >= 0
 c4531: y_9 + y_11 + y_26 + y_38 + y_52 + y_67 + y_68 + y_69 + y_97 - z_4530
         >= 0
 c4532: y_2 + y_14 + y_42 + y_82 + y_83 + y_85 - z_4531 >= 0
 c4533: y_13 + y_60 + y_65 + y_72 + y_76 - z_4532 >= 0
 c4534: y_15 + y_18 + y_21 + y_36 + y_41 + y_47 + y_48 + y_79 + y_94 - z_4533
         >= 0
 c4535: y_25 + y_29 + y_35 + y_77 - z_4534 >= 0
 c4536: y_11 + y_24 + y_52 + y_59 + y_68 + y_70 + y_86 + y_97 - z_4535 >= 0
 c4537: y_5 + y_6 + y_90 - z_4536 >= 0
 c4538: y_6 + y_58 + y_90 - z_4537 >= 0
 c4539: y_7 + y_23 + y_31 + y_51 + y_98 - z_4538 >= 0
 c4540: y_11 + y_24 + y_52 + y_59 + y_68 + y_70 + y_86 + y_97 - z_4539 >= 0
 c4541: y_83 + y_84 + y_85 - z_4540 >= 0
 c4542: y_7 + y_23 + y_31 + y_51 + y_62 + y_89 + y_98 + y_99 - z_4541 >= 0
 c4543: y_7 + y_31 + y_51 + y_62 + y_89 + y_99 - z_4542 >= 0
 c4544: y_1 + y_23 + y_46 + y_49 + y_74 + y_95 + y_98 - z_4543 >= 0
 c4545: y_40 + y_42 + y_54 + y_55 + y_64 - z_4544 >= 0
 c4546: y_3 + y_19 + y_21 + y_33 + y_36 + y_41 + y_43 + y_47 + y_48 + y_79
        + y_94 - z_4545 >= 0
 c4547: y_2 + y_14 + y_27 + y_82 - z_4546 >= 0
 c4548: y_10 + y_13 + y_57 + y_60 + y_72 + y_76 + y_78 + y_81 - z_4547 >= 0
 c4549: y_4 + y_6 + y_32 + y_90 - z_4548 >= 0
 c4550: y_11 + y_52 + y_59 + y_67 + y_68 + y_69 + y_97 - z_4549 >= 0
 c4551: y_25 + y_29 + y_35 + y_50 + y_56 + y_66 + y_77 + y_87 - z_4550 >= 0
 c4552: y_46 + y_49 + y_74 + y_95 - z_4551 >= 0
 c4553: y_40 + y_92 - z_4552 >= 0
 c4554: y_5 + y_6 + y_90 - z_4553 >= 0
 c4555: y_12 + y_71 - z_4554 >= 0
 c4556: y_18 + y_21 + y_36 + y_41 + y_47 + y_94 - z_4555 >= 0
 c4557: y_16 + y_50 + y_54 + y_56 + y_66 + y_87 - z_4556 >= 0
 c4558: y_0 + y_45 - z_4557 >= 0
 c4559: y_9 + y_26 + y_67 + y_69 + y_71 + y_97 - z_4558 >= 0
 c4560: y_3 + y_15 + y_19 + y_21 + y_33 + y_36 + y_41 + y_47 + y_48 + y_79
        - z_4559 >= 0
 c4561: y_1 + y_31 + y_37 + y_73 + y_89 + y_99 - z_4560 >= 0
 c4562: y_1 + y_23 + y_46 + y_49 + y_73 + y_75 + y_98 + y_99 - z_4561 >= 0
 c4563: y_7 + y_31 + y_37 + y_51 + y_62 + y_89 + y_99 - z_4562 >= 0
 c4564: y_10 + y_12 + y_88 - z_4563 >= 0
 c4565: y_65 - z_4564 >= 0
 c4566: y_11 + y_24 + y_30 + y_43 + y_52 + y_59 + y_67 + y_68 + y_69 + y_70
        - z_4565 >= 0
 c4567: y_3 + y_19 + y_21 + y_33 + y_38 + y_41 + y_43 + y_48 - z_4566 >= 0
 c4568: y_7 + y_23 + y_51 + y_98 - z_4567 >= 0
 c4569: y_0 + y_2 + y_14 + y_27 + y_42 + y_55 + y_82 - z_4568 >= 0
 c4570: y_15 + y_18 + y_21 + y_36 + y_41 + y_47 + y_74 + y_79 + y_95 - z_4569
         >= 0
 c4571: y_1 + y_23 + y_46 + y_49 + y_74 + y_98 - z_4570 >= 0
 c4572: y_2 + y_14 + y_27 + y_42 + y_82 + y_83 - z_4571 >= 0
 c4573: y_11 + y_43 + y_52 + y_59 + y_67 + y_68 + y_69 - z_4572 >= 0
 c4574: y_16 + y_39 + y_40 + y_42 + y_54 + y_55 + y_63 + y_64 - z_4573 >= 0
 c4575: y_25 + y_29 + y_35 + y_50 + y_56 + y_77 - z_4574 >= 0
 c4576: y_10 + y_12 + y_57 + y_72 + y_78 + y_88 - z_4575 >= 0
 c4577: y_1 + y_7 + y_23 + y_31 + y_51 + y_73 + y_89 + y_98 + y_99 - z_4576 >= 
        0
 c4578: y_11 + y_19 + y_43 + y_52 + y_59 + y_67 + y_68 + y_69 - z_4577 >= 0
 c4579: y_16 + y_39 + y_40 + y_54 + y_55 + y_66 + y_87 + y_92 - z_4578 >= 0
 c4580: y_13 - z_4579 >= 0
 c4581: y_6 + y_22 - z_4580 >= 0
 c4582: y_37 + y_45 + y_73 + y_96 - z_4581 >= 0
 c4583: y_3 + y_9 + y_11 + y_19 + y_26 + y_38 + y_44 + y_67 + y_68 + y_69
        - z_4582 >= 0
 c4584: y_40 + y_87 + y_92 - z_4583 >= 0
 c4585: y_10 + y_60 + y_76 + y_78 + y_81 - z_4584 >= 0
 c4586: y_11 + y_67 + y_68 + y_69 + y_97 - z_4585 >= 0
 c4587: y_24 + y_30 + y_43 + y_52 + y_59 + y_70 + y_86 - z_4586 >= 0
 c4588: y_10 + y_78 + y_81 - z_4587 >= 0
 c4589: y_1 + y_37 + y_73 + y_89 + y_96 + y_99 - z_4588 >= 0
 c4590: y_16 + y_39 + y_50 + y_54 + y_56 + y_66 + y_87 - z_4589 >= 0
 c4591: y_37 + y_45 + y_73 + y_96 - z_4590 >= 0
 c4592: y_8 + y_20 + y_34 + y_61 + y_75 + y_80 + y_93 - z_4591 >= 0
 c4593: y_8 + y_15 + y_20 + y_34 + y_41 + y_48 + y_61 + y_75 + y_79 + y_80
        + y_93 + y_95 - z_4592 >= 0
 c4594: y_16 + y_25 + y_50 + y_54 + y_56 + y_66 + y_77 + y_87 - z_4593 >= 0
 c4595: y_68 + y_97 - z_4594 >= 0
 c4596: y_12 + y_22 + y_57 + y_72 + y_88 - z_4595 >= 0
 c4597: y_13 + y_28 + y_60 + y_76 + y_81 - z_4596 >= 0
 c4598: y_10 + y_12 + y_88 - z_4597 >= 0
 c4599: y_1 + y_37 + y_73 + y_96 + y_99 - z_4598 >= 0
 c4600: y_3 + y_15 + y_20 + y_21 + y_33 + y_36 + y_41 + y_47 + y_48 + y_61
        + y_79 + y_80 + y_93 + y_95 - z_4599 >= 0
 c4601: y_45 - z_4600 >= 0
 c4602: y_25 + y_29 + y_35 + y_77 + y_92 - z_4601 >= 0
 c4603: y_5 + y_6 + y_34 + y_90 - z_4602 >= 0
 c4604: y_22 + y_57 + y_65 - z_4603 >= 0
 c4605: y_3 + y_19 + y_21 + y_30 + y_33 + y_38 + y_41 + y_43 + y_47 + y_48
        + y_94 - z_4604 >= 0
 c4606: y_16 + y_25 + y_35 + y_40 + y_50 + y_54 + y_56 + y_66 + y_77 + y_87
        + y_92 - z_4605 >= 0
 c4607: y_25 + y_29 + y_35 + y_50 + y_56 + y_66 + y_77 + y_87 - z_4606 >= 0
 c4608: y_83 + y_84 + y_85 - z_4607 >= 0
 c4609: y_0 + y_27 - z_4608 >= 0
 c4610: y_30 + y_43 + y_52 + y_59 + y_94 - z_4609 >= 0
 c4611: y_12 + y_32 + y_71 + y_88 - z_4610 >= 0
 c4612: y_22 + y_56 + y_65 - z_4611 >= 0
 c4613: y_16 + y_39 + y_53 + y_54 + y_58 + y_91 - z_4612 >= 0
 c4614: y_16 + y_39 + y_53 + y_54 + y_55 + y_58 + y_63 + y_64 + y_66 - z_4613
         >= 0
 c4615: y_13 + y_28 + y_60 + y_72 + y_76 + y_78 + y_81 - z_4614 >= 0
 c4616: y_13 + y_28 + y_60 + y_76 - z_4615 >= 0
 c4617: y_8 + y_20 + y_34 + y_75 + y_80 + y_93 + y_96 - z_4616 >= 0
 c4618: y_10 + y_13 + y_28 + y_60 + y_76 + y_78 + y_81 - z_4617 >= 0
 c4619: y_12 + y_22 + y_57 + y_88 - z_4618 >= 0
 c4620: y_4 + y_5 + y_6 + y_34 + y_44 + y_90 - z_4619 >= 0
 c4621: y_30 + y_43 + y_52 + y_59 + y_94 - z_4620 >= 0
 c4622: y_1 + y_8 + y_46 + y_73 + y_75 + y_96 + y_99 - z_4621 >= 0
 c4623: y_9 + y_26 + y_67 + y_69 - z_4622 >= 0
 c4624: y_2 + y_40 + y_83 + y_85 + y_92 - z_4623 >= 0
 c4625: y_13 + y_28 + y_60 + y_76 + y_81 - z_4624 >= 0
 c4626: y_10 + y_13 + y_57 + y_60 + y_72 + y_76 + y_78 + y_81 - z_4625 >= 0
 c4627: y_39 + y_53 + y_58 + y_91 - z_4626 >= 0
 c4628: y_25 + y_29 + y_35 + y_77 - z_4627 >= 0
 c4629: y_2 + y_40 + y_55 + y_83 + y_85 - z_4628 >= 0
 c4630: y_18 + y_21 + y_36 + y_41 + y_47 + y_48 + y_79 + y_94 - z_4629 >= 0
 c4631: y_4 + y_6 + y_32 + y_90 - z_4630 >= 0
 c4632: y_7 + y_31 + y_51 + y_62 + y_89 + y_98 + y_99 - z_4631 >= 0
 c4633: y_13 + y_28 + y_60 - z_4632 >= 0
 c4634: y_12 + y_71 + y_88 - z_4633 >= 0
 c4635: y_6 + y_90 - z_4634 >= 0
 c4636: y_9 + y_26 + y_67 + y_69 + y_97 - z_4635 >= 0
 c4637: y_3 + y_15 + y_20 + y_21 + y_33 + y_36 + y_41 + y_47 + y_48 + y_61
        + y_79 + y_80 + y_93 + y_95 - z_4636 >= 0
 c4638: y_5 + y_6 + y_34 + y_44 + y_90 - z_4637 >= 0
 c4639: y_50 + y_56 - z_4638 >= 0
 c4640: y_17 + y_53 + y_63 + y_64 + y_96 - z_4639 >= 0
 c4641: y_3 + y_19 + y_21 + y_33 + y_38 + y_43 + y_44 + y_48 - z_4640 >= 0
 c4642: y_1 + y_8 + y_23 + y_46 + y_49 + y_73 + y_75 - z_4641 >= 0
 c4643: y_22 + y_57 + y_65 + y_72 - z_4642 >= 0
 c4644: y_83 + y_85 - z_4643 >= 0
 c4645: y_50 + y_56 - z_4644 >= 0
 c4646: y_31 + y_37 + y_73 + y_89 + y_99 - z_4645 >= 0
 c4647: y_1 + y_23 + y_46 + y_49 + y_74 + y_98 - z_4646 >= 0
 c4648: y_23 + y_46 + y_49 + y_74 + y_95 + y_98 - z_4647 >= 0
 c4649: y_1 + y_31 + y_37 + y_73 + y_89 + y_99 - z_4648 >= 0
 c4650: y_22 + y_56 + y_65 - z_4649 >= 0
 c4651: y_4 + y_6 + y_12 + y_22 + y_32 + y_88 - z_4650 >= 0
 c4652: y_37 + y_45 + y_89 - z_4651 >= 0
 c4653: y_4 + y_12 + y_22 + y_32 + y_88 - z_4652 >= 0
 c4654: y_3 + y_19 + y_33 + y_38 + y_44 + y_48 + y_90 - z_4653 >= 0
 c4655: y_40 + y_87 + y_92 - z_4654 >= 0
 c4656: y_24 + y_30 + y_43 + y_52 + y_59 + y_70 + y_94 - z_4655 >= 0
 c4657: y_1 + y_7 + y_23 + y_31 + y_51 + y_62 + y_89 + y_98 + y_99 - z_4656 >= 
        0
 c4658: y_40 + y_83 + y_85 + y_92 - z_4657 >= 0
 c4659: y_9 + y_26 + y_67 + y_69 - z_4658 >= 0
 c4660: y_9 + y_26 + y_71 - z_4659 >= 0
 c4661: y_83 + y_85 - z_4660 >= 0
 c4662: y_4 + y_6 + y_32 + y_44 + y_90 - z_4661 >= 0
 c4663: y_83 + y_84 + y_85 - z_4662 >= 0
 c4664: y_15 + y_20 + y_21 + y_33 + y_36 + y_41 + y_47 + y_48 + y_61 + y_79
        + y_80 + y_93 + y_95 - z_4663 >= 0
 c4665: y_1 + y_23 + y_31 + y_49 + y_89 + y_98 + y_99 - z_4664 >= 0
 c4666: y_13 + y_28 + y_60 + y_76 + y_81 - z_4665 >= 0
 c4667: y_65 - z_4666 >= 0
 c4668: y_96 - z_4667 >= 0
 c4669: y_25 + y_29 + y_35 + y_40 + y_50 + y_66 + y_77 + y_87 + y_92 - z_4668
         >= 0
 c4670: y_22 + y_57 + y_65 + y_72 - z_4669 >= 0
 c4671: y_4 + y_12 + y_22 + y_32 + y_88 - z_4670 >= 0
 c4672: y_13 + y_60 + y_76 - z_4671 >= 0
 c4673: y_21 + y_30 + y_36 + y_47 + y_94 - z_4672 >= 0
 c4674: y_4 + y_9 + y_12 + y_32 + y_71 + y_88 - z_4673 >= 0
 c4675: y_16 + y_39 + y_40 + y_54 + y_63 + y_66 + y_87 - z_4674 >= 0
 c4676: y_9 + y_12 + y_71 + y_88 - z_4675 >= 0
 c4677: y_4 + y_6 + y_22 + y_32 - z_4676 >= 0
 c4678: y_10 + y_13 + y_60 + y_72 + y_76 + y_78 + y_81 - z_4677 >= 0
 c4679: y_5 + y_6 + y_34 + y_90 - z_4678 >= 0
 c4680: y_10 + y_72 + y_78 + y_81 - z_4679 >= 0
 c4681: y_29 + y_50 + y_56 - z_4680 >= 0
 c4682: y_3 + y_19 + y_33 + y_38 + y_44 + y_48 + y_79 - z_4681 >= 0
 c4683: y_29 + y_56 + y_65 - z_4682 >= 0
 c4684: y_21 + y_30 + y_36 + y_41 + y_43 + y_47 + y_48 + y_94 - z_4683 >= 0
 c4685: y_4 + y_6 + y_9 + y_26 + y_32 + y_44 + y_90 - z_4684 >= 0
 c4686: y_4 + y_9 + y_12 + y_32 + y_71 + y_88 - z_4685 >= 0
 c4687: y_71 - z_4686 >= 0
 c4688: y_16 + y_39 + y_53 + y_54 + y_58 + y_63 + y_66 + y_91 - z_4687 >= 0
 c4689: y_3 + y_5 + y_19 + y_33 + y_34 + y_38 + y_44 + y_48 + y_61 + y_79
        - z_4688 >= 0
 c4690: y_83 + y_85 - z_4689 >= 0
 c4691: y_7 + y_31 + y_51 + y_62 + y_89 - z_4690 >= 0
 c4692: y_16 + y_50 + y_54 + y_56 + y_58 + y_66 - z_4691 >= 0
 c4693: y_4 + y_6 + y_32 + y_44 + y_90 - z_4692 >= 0
 c4694: y_8 + y_15 + y_20 + y_34 + y_41 + y_48 + y_61 + y_75 + y_79 + y_80
        + y_93 + y_95 - z_4693 >= 0
 c4695: y_9 + y_26 + y_71 - z_4694 >= 0
 c4696: y_9 + y_71 - z_4695 >= 0
 c4697: y_0 + y_39 + y_42 + y_53 + y_55 + y_63 + y_64 - z_4696 >= 0
 c4698: y_65 - z_4697 >= 0
 c4699: y_5 + y_8 + y_17 + y_34 + y_80 + y_93 - z_4698 >= 0
 c4700: y_11 + y_24 + y_52 + y_68 + y_70 + y_86 + y_97 - z_4699 >= 0
 c4701: y_13 + y_57 + y_60 + y_65 + y_72 + y_76 + y_78 - z_4700 >= 0
 c4702: y_22 + y_57 + y_65 + y_72 - z_4701 >= 0
 c4703: y_15 + y_20 + y_46 + y_49 + y_61 + y_74 + y_75 + y_79 + y_80 + y_93
        + y_95 - z_4702 >= 0
 c4704: y_18 + y_36 + y_47 + y_74 + y_95 - z_4703 >= 0
 c4705: y_16 + y_39 + y_53 + y_54 + y_58 + y_63 + y_66 + y_91 - z_4704 >= 0
 c4706: y_45 - z_4705 >= 0
 c4707: y_4 + y_6 + y_32 + y_90 - z_4706 >= 0
 c4708: y_37 + y_45 + y_96 - z_4707 >= 0
 c4709: y_12 + y_71 + y_88 - z_4708 >= 0
 c4710: y_29 + y_50 + y_56 + y_65 - z_4709 >= 0
 c4711: y_0 + y_27 + y_45 - z_4710 >= 0
 c4712: y_1 + y_8 + y_73 + y_75 + y_96 - z_4711 >= 0
 c4713: y_83 + y_84 + y_85 - z_4712 >= 0
 c4714: y_0 + y_27 + y_42 + y_55 + y_63 + y_64 - z_4713 >= 0
 c4715: y_8 + y_15 + y_20 + y_46 + y_49 + y_74 + y_75 + y_80 + y_93 + y_95
        - z_4714 >= 0
 c4716: y_3 + y_19 + y_21 + y_30 + y_33 + y_38 + y_43 + y_48 + y_52 + y_59
        - z_4715 >= 0
 c4717: y_9 + y_71 - z_4716 >= 0
 c4718: y_9 + y_26 + y_67 + y_71 + y_97 - z_4717 >= 0
 c4719: y_5 + y_6 + y_34 + y_44 + y_90 - z_4718 >= 0
 c4720: y_25 + y_35 + y_77 + y_92 - z_4719 >= 0
 c4721: y_9 + y_71 + y_97 - z_4720 >= 0
 c4722: y_16 + y_39 + y_50 + y_54 + y_58 + y_63 + y_66 + y_87 - z_4721 >= 0
 c4723: y_9 + y_12 + y_71 + y_88 - z_4722 >= 0
 c4724: y_2 + y_14 + y_82 + y_83 + y_85 - z_4723 >= 0
 c4725: y_0 + y_2 + y_27 + y_42 + y_55 + y_64 - z_4724 >= 0
 c4726: y_3 + y_19 + y_21 + y_33 + y_38 + y_41 + y_43 + y_44 + y_48 + y_79
        - z_4725 >= 0
 c4727: y_40 + y_85 + y_92 - z_4726 >= 0
 c4728: y_5 + y_8 + y_20 + y_34 + y_61 + y_80 + y_93 - z_4727 >= 0
 c4729: y_10 + y_12 + y_57 + y_72 + y_78 + y_88 - z_4728 >= 0
 c4730: y_9 + y_11 + y_26 + y_67 + y_68 + y_69 + y_97 - z_4729 >= 0
 c4731: y_12 + y_22 + y_57 + y_72 + y_88 - z_4730 >= 0
 c4732: y_16 + y_25 + y_40 + y_50 + y_54 + y_56 + y_66 + y_87 - z_4731 >= 0
 c4733: y_37 + y_45 - z_4732 >= 0
 c4734: y_0 + y_27 + y_42 + y_55 + y_64 - z_4733 >= 0
 c4735: y_4 + y_6 + y_12 + y_22 + y_32 + y_88 + y_90 - z_4734 >= 0
 c4736: y_22 + y_50 + y_56 + y_65 - z_4735 >= 0
 c4737: y_24 + y_52 + y_59 + y_70 + y_86 - z_4736 >= 0
 c4738: y_16 + y_25 + y_40 + y_50 + y_54 + y_56 + y_66 + y_77 + y_87 + y_92
        - z_4737 >= 0
 c4739: y_6 + y_58 + y_90 + y_91 - z_4738 >= 0
 c4740: y_22 + y_56 + y_65 - z_4739 >= 0
 c4741: y_1 + y_8 + y_73 + y_96 - z_4740 >= 0
 c4742: y_9 + y_12 + y_71 - z_4741 >= 0
 c4743: y_8 + y_73 + y_96 - z_4742 >= 0
 c4744: y_11 + y_19 + y_38 + y_43 + y_52 + y_59 + y_67 + y_68 + y_69 - z_4743
         >= 0
 c4745: y_2 + y_14 + y_27 + y_82 - z_4744 >= 0
 c4746: y_25 + y_29 + y_35 + y_40 + y_50 + y_54 + y_56 + y_66 + y_77 + y_87
        - z_4745 >= 0
 c4747: y_25 + y_35 + y_40 + y_66 + y_77 + y_87 + y_92 - z_4746 >= 0
 c4748: y_4 + y_5 + y_6 + y_32 + y_44 + y_90 - z_4747 >= 0
 c4749: y_2 + y_40 + y_42 + y_55 - z_4748 >= 0
 c4750: y_83 + y_84 + y_85 - z_4749 >= 0
 c4751: y_16 + y_39 + y_53 + y_54 + y_55 + y_63 + y_64 + y_66 - z_4750 >= 0
 c4752: y_3 + y_19 + y_33 + y_38 + y_44 + y_48 - z_4751 >= 0
 c4753: y_19 + y_21 + y_30 + y_43 + y_52 + y_59 + y_94 - z_4752 >= 0
 c4754: y_31 + y_37 + y_45 + y_73 + y_89 + y_99 - z_4753 >= 0
 c4755: y_22 + y_50 + y_56 + y_65 - z_4754 >= 0
 c4756: y_10 + y_13 + y_28 + y_60 + y_76 + y_78 + y_81 - z_4755 >= 0
 c4757: y_2 + y_14 + y_82 + y_83 + y_84 + y_85 - z_4756 >= 0
 c4758: y_1 + y_8 + y_73 + y_75 + y_80 + y_96 - z_4757 >= 0
 c4759: y_1 + y_23 + y_31 + y_49 + y_73 + y_89 + y_98 + y_99 - z_4758 >= 0
 c4760: y_8 + y_15 + y_20 + y_34 + y_46 + y_61 + y_75 + y_79 + y_80 + y_93
        + y_95 - z_4759 >= 0
 c4761: y_13 + y_28 + y_60 + y_76 + y_78 + y_81 - z_4760 >= 0
 c4762: y_31 + y_37 + y_89 + y_99 - z_4761 >= 0
 c4763: y_12 + y_22 + y_57 + y_65 + y_72 + y_88 - z_4762 >= 0
 c4764: y_29 - z_4763 >= 0
 c4765: y_16 + y_39 + y_50 + y_54 + y_56 + y_66 + y_87 - z_4764 >= 0
 c4766: y_10 + y_13 + y_57 + y_60 + y_72 + y_76 + y_78 + y_81 - z_4765 >= 0
 c4767: y_16 + y_17 + y_39 + y_53 + y_54 + y_58 + y_63 + y_91 - z_4766 >= 0
 c4768: y_7 + y_31 + y_51 + y_62 + y_89 + y_99 - z_4767 >= 0
 c4769: y_19 + y_21 + y_30 + y_36 + y_43 + y_47 + y_48 + y_59 + y_94 - z_4768
         >= 0
 c4770: y_5 + y_8 + y_20 + y_34 + y_61 + y_75 + y_80 + y_93 - z_4769 >= 0
 c4771: y_4 + y_9 + y_26 + y_32 + y_67 + y_69 - z_4770 >= 0
 c4772: y_2 + y_40 + y_83 + y_85 - z_4771 >= 0
 c4773: y_0 + y_17 + y_64 + y_96 - z_4772 >= 0
 c4774: y_45 + y_96 - z_4773 >= 0
 c4775: y_6 + y_22 + y_90 - z_4774 >= 0
 c4776: y_4 + y_6 + y_32 + y_90 - z_4775 >= 0
 c4777: y_16 + y_39 + y_50 + y_54 + y_56 + y_58 + y_66 - z_4776 >= 0
 c4778: y_3 + y_11 + y_19 + y_26 + y_33 + y_38 + y_43 + y_44 + y_67 + y_69
        - z_4777 >= 0
 c4779: y_8 + y_17 + y_34 + y_96 - z_4778 >= 0
 c4780: y_2 + y_40 + y_55 + y_83 + y_85 + y_92 - z_4779 >= 0
 c4781: y_1 + y_7 + y_23 + y_31 + y_37 + y_51 + y_73 + y_89 + y_98 + y_99
        - z_4780 >= 0
 c4782: y_6 + y_90 - z_4781 >= 0
 c4783: y_12 + y_22 + y_57 + y_88 - z_4782 >= 0
 c4784: y_4 + y_6 + y_32 + y_90 - z_4783 >= 0
 c4785: y_21 + y_30 + y_43 + y_59 + y_94 - z_4784 >= 0
 c4786: y_4 + y_12 + y_32 + y_88 - z_4785 >= 0
 c4787: y_25 + y_29 + y_35 + y_77 - z_4786 >= 0
 c4788: y_16 + y_39 + y_53 + y_54 + y_58 + y_63 + y_64 + y_66 + y_87 - z_4787
         >= 0
 c4789: y_17 + y_53 + y_58 + y_91 - z_4788 >= 0
 c4790: y_7 + y_23 + y_31 + y_51 + y_62 + y_89 + y_98 + y_99 - z_4789 >= 0
 c4791: y_2 + y_14 + y_27 + y_42 + y_55 + y_82 + y_83 - z_4790 >= 0
 c4792: y_6 + y_22 + y_90 - z_4791 >= 0
 c4793: y_5 + y_8 + y_20 + y_34 + y_61 + y_75 + y_80 + y_93 - z_4792 >= 0
 c4794: y_13 + y_57 + y_60 + y_65 + y_72 + y_76 + y_78 + y_81 - z_4793 >= 0
 c4795: y_30 + y_43 + y_52 + y_59 + y_94 - z_4794 >= 0
 c4796: y_29 + y_56 + y_65 - z_4795 >= 0
 c4797: y_1 + y_37 + y_73 + y_89 + y_96 + y_99 - z_4796 >= 0
 c4798: y_25 + y_35 + y_77 + y_92 - z_4797 >= 0
 c4799: y_11 + y_24 + y_30 + y_43 + y_52 + y_59 + y_70 + y_86 - z_4798 >= 0
 c4800: y_16 + y_17 + y_39 + y_53 + y_58 + y_63 + y_91 - z_4799 >= 0
 c4801: y_1 + y_31 + y_37 + y_73 + y_89 + y_99 - z_4800 >= 0
 c4802: y_0 + y_27 + y_42 - z_4801 >= 0
 c4803: y_0 + y_96 - z_4802 >= 0
 c4804: y_0 + y_16 + y_39 + y_42 + y_53 + y_54 + y_55 + y_63 + y_64 - z_4803
         >= 0
 c4805: y_9 + y_71 - z_4804 >= 0
 c4806: y_30 + y_43 + y_52 + y_59 + y_94 - z_4805 >= 0
 c4807: y_37 + y_45 + y_73 + y_96 - z_4806 >= 0
 c4808: y_6 + y_22 - z_4807 >= 0
 c4809: y_4 + y_6 + y_32 + y_90 - z_4808 >= 0
 c4810: y_5 + y_17 + y_34 + y_91 - z_4809 >= 0
 c4811: y_15 + y_18 + y_21 + y_36 + y_41 + y_47 + y_48 + y_79 + y_95 - z_4810
         >= 0
 c4812: y_16 + y_39 + y_40 + y_42 + y_54 + y_55 + y_63 + y_64 - z_4811 >= 0
 c4813: y_16 + y_39 + y_53 + y_54 + y_55 + y_58 + y_63 + y_64 + y_66 + y_91
        - z_4812 >= 0
 c4814: y_3 + y_19 + y_33 + y_38 + y_43 + y_44 + y_48 + y_67 + y_69 - z_4813
         >= 0
 c4815: y_3 + y_19 + y_21 + y_30 + y_33 + y_38 + y_43 + y_48 + y_52 + y_59
        - z_4814 >= 0
 c4816: y_13 + y_57 + y_60 + y_65 + y_72 + y_76 + y_78 - z_4815 >= 0
 c4817: y_25 + y_35 + y_40 + y_77 + y_87 + y_92 - z_4816 >= 0
 c4818: y_16 + y_17 + y_39 + y_53 + y_58 + y_63 + y_91 - z_4817 >= 0
 c4819: y_16 + y_39 + y_40 + y_54 + y_63 + y_66 + y_87 - z_4818 >= 0
 c4820: y_73 + y_96 - z_4819 >= 0
 c4821: y_83 + y_84 + y_85 - z_4820 >= 0
 c4822: y_5 + y_8 + y_15 + y_20 + y_34 + y_61 + y_75 + y_79 + y_80 + y_93
        - z_4821 >= 0
 c4823: y_1 + y_46 + y_49 + y_74 + y_75 + y_95 - z_4822 >= 0
 c4824: y_24 + y_30 + y_52 + y_59 + y_70 + y_86 - z_4823 >= 0
 c4825: y_3 + y_5 + y_19 + y_33 + y_34 + y_38 + y_44 + y_48 + y_61 + y_90
        - z_4824 >= 0
 c4826: y_15 + y_20 + y_41 + y_46 + y_49 + y_61 + y_74 + y_75 + y_79 + y_80
        + y_93 + y_95 - z_4825 >= 0
 c4827: y_16 + y_39 + y_50 + y_54 + y_58 + y_63 + y_66 + y_87 - z_4826 >= 0
 c4828: y_10 + y_13 + y_57 + y_60 + y_72 + y_76 + y_78 + y_81 - z_4827 >= 0
 c4829: y_16 + y_17 + y_39 + y_53 + y_54 + y_58 + y_63 + y_64 + y_91 - z_4828
         >= 0
 c4830: y_24 + y_70 + y_86 - z_4829 >= 0
 c4831: y_57 + y_65 + y_72 - z_4830 >= 0
 c4832: y_11 + y_24 + y_52 + y_59 + y_68 + y_70 + y_86 + y_97 - z_4831 >= 0
 c4833: y_4 + y_6 + y_26 + y_32 + y_38 + y_44 + y_90 - z_4832 >= 0
 c4834: y_21 + y_30 + y_43 + y_52 + y_59 + y_94 - z_4833 >= 0
 c4835: y_83 + y_84 + y_85 - z_4834 >= 0
 c4836: y_8 + y_15 + y_20 + y_34 + y_41 + y_46 + y_48 + y_61 + y_75 + y_79
        + y_80 + y_93 + y_95 - z_4835 >= 0
 c4837: y_13 + y_28 + y_60 + y_76 + y_78 + y_81 - z_4836 >= 0
 c4838: y_5 + y_8 + y_15 + y_20 + y_34 + y_61 + y_75 + y_79 + y_80 + y_93
        - z_4837 >= 0
 c4839: y_37 + y_45 - z_4838 >= 0
 c4840: y_0 + y_16 + y_39 + y_42 + y_53 + y_54 + y_55 + y_63 + y_64 - z_4839
         >= 0
 c4841: y_22 + y_56 + y_57 + y_65 - z_4840 >= 0
 c4842: y_11 + y_24 + y_30 + y_43 + y_52 + y_59 + y_68 + y_70 - z_4841 >= 0
 c4843: y_16 + y_39 + y_50 + y_53 + y_54 + y_58 + y_63 + y_66 + y_87 - z_4842
         >= 0
 c4844: y_10 + y_13 + y_57 + y_60 + y_72 + y_76 + y_78 + y_81 - z_4843 >= 0
 c4845: y_40 + y_87 + y_92 - z_4844 >= 0
 c4846: y_11 + y_24 + y_30 + y_43 + y_52 + y_59 + y_70 - z_4845 >= 0
 c4847: y_50 + y_56 + y_65 - z_4846 >= 0
 c4848: y_73 + y_96 - z_4847 >= 0
 c4849: y_83 + y_85 - z_4848 >= 0
 c4850: y_5 + y_8 + y_15 + y_20 + y_34 + y_61 + y_75 + y_79 + y_80 + y_93 + y_95
        - z_4849 >= 0
 c4851: y_13 + y_28 + y_60 + y_76 + y_78 + y_81 - z_4850 >= 0
 c4852: y_25 + y_29 + y_35 + y_50 + y_54 + y_56 + y_66 + y_77 + y_87 - z_4851
         >= 0
 c4853: y_13 + y_28 + y_60 + y_76 - z_4852 >= 0
 c4854: y_2 + y_14 + y_82 + y_83 + y_84 + y_85 - z_4853 >= 0
 c4855: y_8 + y_17 + y_96 - z_4854 >= 0
 c4856: y_25 + y_29 + y_35 + y_77 - z_4855 >= 0
 c4857: y_37 + y_45 - z_4856 >= 0
 c4858: y_45 - z_4857 >= 0
 c4859: y_2 + y_83 + y_84 + y_85 - z_4858 >= 0
 c4860: y_8 + y_73 + y_96 - z_4859 >= 0
 c4861: y_11 + y_30 + y_43 + y_52 + y_59 + y_68 + y_94 - z_4860 >= 0
 c4862: y_5 + y_17 + y_34 + y_53 + y_58 + y_91 - z_4861 >= 0
 c4863: y_12 + y_57 + y_88 - z_4862 >= 0
 c4864: y_24 + y_30 + y_43 + y_52 + y_59 + y_70 + y_94 - z_4863 >= 0
 c4865: y_3 + y_5 + y_15 + y_20 + y_33 + y_34 + y_41 + y_44 + y_48 + y_61 + y_79
        + y_80 + y_93 - z_4864 >= 0
 c4866: y_17 + y_53 + y_91 + y_96 - z_4865 >= 0
 c4867: y_2 + y_27 + y_42 + y_55 + y_83 - z_4866 >= 0
 c4868: y_92 - z_4867 >= 0
 c4869: y_4 + y_9 + y_26 + y_32 + y_38 + y_44 + y_90 - z_4868 >= 0
 c4870: y_24 + y_30 + y_43 + y_52 + y_59 + y_70 + y_86 - z_4869 >= 0
 c4871: y_4 + y_6 + y_9 + y_26 + y_32 + y_90 - z_4870 >= 0
 c4872: y_10 + y_13 + y_60 + y_76 + y_78 + y_81 - z_4871 >= 0
 c4873: y_30 + y_43 + y_52 + y_59 + y_94 - z_4872 >= 0
 c4874: y_40 + y_54 + y_66 + y_87 + y_92 - z_4873 >= 0
 c4875: y_71 - z_4874 >= 0
 c4876: y_2 + y_40 + y_42 + y_55 - z_4875 >= 0
 c4877: y_22 + y_57 + y_65 - z_4876 >= 0
 c4878: y_0 + y_27 + y_42 + y_53 + y_55 + y_63 + y_64 - z_4877 >= 0
 c4879: y_23 + y_46 + y_49 + y_74 + y_98 - z_4878 >= 0
 c4880: y_56 + y_65 - z_4879 >= 0
 c4881: y_92 - z_4880 >= 0
 c4882: y_17 + y_96 - z_4881 >= 0
 c4883: y_4 + y_12 + y_22 + y_32 + y_88 - z_4882 >= 0
 c4884: y_17 + y_53 + y_58 + y_91 - z_4883 >= 0
 c4885: y_11 + y_67 + y_68 + y_69 + y_97 - z_4884 >= 0
 c4886: y_16 + y_50 + y_54 + y_56 + y_58 + y_66 - z_4885 >= 0
 c4887: y_4 + y_6 + y_22 + y_32 + y_90 - z_4886 >= 0
 c4888: y_5 + y_6 + y_34 + y_58 + y_90 + y_91 - z_4887 >= 0
 c4889: y_25 + y_29 + y_50 + y_56 + y_77 - z_4888 >= 0
 c4890: y_17 + y_39 + y_53 + y_58 + y_63 + y_64 + y_91 - z_4889 >= 0
 c4891: y_17 + y_39 + y_53 + y_58 + y_91 - z_4890 >= 0
 c4892: y_1 + y_46 + y_49 + y_74 + y_75 + y_80 + y_95 - z_4891 >= 0
 c4893: y_0 + y_27 + y_42 + y_55 + y_63 + y_64 - z_4892 >= 0
 c4894: y_4 + y_6 + y_32 + y_90 - z_4893 >= 0
 c4895: y_5 + y_6 + y_34 + y_44 + y_90 - z_4894 >= 0
 c4896: y_40 + y_87 + y_92 - z_4895 >= 0
 c4897: y_16 + y_17 + y_39 + y_53 + y_54 + y_58 + y_63 + y_64 + y_91 - z_4896
         >= 0
 c4898: y_1 + y_23 + y_46 + y_49 + y_74 + y_75 + y_95 + y_98 - z_4897 >= 0
 c4899: y_0 + y_2 + y_27 + y_42 + y_55 + y_64 - z_4898 >= 0
 c4900: y_3 + y_21 + y_33 + y_36 + y_41 + y_47 + y_48 + y_79 + y_94 - z_4899
         >= 0
 c4901: y_11 + y_24 + y_52 + y_59 + y_68 + y_70 + y_86 + y_97 - z_4900 >= 0
 c4902: y_12 + y_22 + y_57 + y_72 + y_88 - z_4901 >= 0
 c4903: y_3 + y_4 + y_5 + y_19 + y_33 + y_38 + y_44 + y_90 - z_4902 >= 0
 c4904: y_1 + y_31 + y_37 + y_73 + y_89 + y_99 - z_4903 >= 0
 c4905: y_45 + y_96 - z_4904 >= 0
 c4906: y_12 + y_22 + y_57 + y_88 - z_4905 >= 0
 c4907: y_11 + y_24 + y_52 + y_59 + y_68 + y_70 + y_86 + y_97 - z_4906 >= 0
 c4908: y_3 + y_11 + y_19 + y_30 + y_38 + y_43 + y_52 + y_59 + y_68 + y_69
        - z_4907 >= 0
 c4909: y_4 + y_6 + y_32 + y_90 - z_4908 >= 0
 c4910: y_3 + y_5 + y_19 + y_33 + y_38 + y_44 + y_48 + y_61 + y_79 - z_4909 >= 
        0
 c4911: y_13 + y_28 + y_60 + y_76 + y_81 - z_4910 >= 0
 c4912: y_1 + y_31 + y_37 + y_73 + y_89 + y_99 - z_4911 >= 0
 c4913: y_5 + y_6 + y_34 + y_90 - z_4912 >= 0
 c4914: y_16 + y_39 + y_54 + y_58 + y_63 + y_66 + y_87 - z_4913 >= 0
 c4915: y_7 + y_23 + y_31 + y_51 + y_62 + y_98 - z_4914 >= 0
 c4916: y_11 + y_24 + y_30 + y_43 + y_52 + y_59 + y_70 + y_94 - z_4915 >= 0
 c4917: y_0 + y_27 + y_42 + y_55 + y_64 - z_4916 >= 0
 c4918: y_57 + y_65 + y_72 - z_4917 >= 0
 c4919: y_10 + y_13 + y_60 + y_72 + y_76 + y_78 + y_81 - z_4918 >= 0
 c4920: y_7 + y_31 + y_51 + y_62 + y_89 + y_98 + y_99 - z_4919 >= 0
 c4921: y_40 + y_55 + y_92 - z_4920 >= 0
 c4922: y_3 + y_11 + y_19 + y_26 + y_33 + y_38 + y_43 + y_44 + y_67 + y_68
        + y_69 - z_4921 >= 0
 c4923: y_9 + y_12 + y_71 - z_4922 >= 0
 c4924: y_16 + y_39 + y_53 + y_54 + y_58 + y_63 + y_64 + y_66 + y_91 - z_4923
         >= 0
 c4925: y_28 - z_4924 >= 0
 c4926: y_13 + y_28 + y_60 + y_76 + y_78 + y_81 - z_4925 >= 0
 c4927: y_24 + y_52 + y_59 + y_70 + y_86 - z_4926 >= 0
 c4928: y_45 + y_96 - z_4927 >= 0
 c4929: y_17 + y_53 + y_58 + y_91 - z_4928 >= 0
 c4930: y_0 + y_27 + y_42 + y_55 + y_64 - z_4929 >= 0
 c4931: y_25 + y_29 + y_35 + y_77 - z_4930 >= 0
 c4932: y_22 + y_50 + y_56 + y_65 - z_4931 >= 0
 c4933: y_3 + y_5 + y_33 + y_34 + y_38 + y_44 + y_90 - z_4932 >= 0
 c4934: y_6 + y_58 + y_91 - z_4933 >= 0
 c4935: y_0 + y_27 + y_42 + y_55 + y_64 - z_4934 >= 0
 c4936: y_4 + y_6 + y_32 + y_44 + y_90 - z_4935 >= 0
 c4937: y_5 + y_17 + y_34 + y_91 - z_4936 >= 0
 c4938: y_3 + y_4 + y_5 + y_6 + y_19 + y_32 + y_33 + y_38 + y_44 + y_90 - z_4937
         >= 0
 c4939: y_24 + y_52 + y_59 + y_70 + y_86 - z_4938 >= 0
 c4940: y_13 + y_28 + y_60 + y_76 + y_78 + y_81 - z_4939 >= 0
 c4941: y_2 + y_14 + y_82 + y_83 + y_84 + y_85 - z_4940 >= 0
 c4942: y_13 + y_28 + y_60 + y_76 - z_4941 >= 0
 c4943: y_13 + y_28 + y_60 + y_76 + y_81 - z_4942 >= 0
 c4944: y_5 + y_8 + y_17 + y_34 + y_80 - z_4943 >= 0
 c4945: y_53 + y_58 + y_91 - z_4944 >= 0
 c4946: y_24 + y_52 + y_59 + y_70 + y_86 - z_4945 >= 0
 c4947: y_6 + y_58 + y_91 - z_4946 >= 0
 c4948: y_3 + y_11 + y_19 + y_30 + y_38 + y_43 + y_52 + y_59 + y_67 + y_68
        + y_69 - z_4947 >= 0
 c4949: y_9 + y_11 + y_26 + y_67 + y_68 + y_69 + y_97 - z_4948 >= 0
 c4950: y_19 + y_21 + y_30 + y_43 + y_48 + y_52 + y_59 + y_94 - z_4949 >= 0
 c4951: y_9 + y_26 + y_67 + y_71 - z_4950 >= 0
 c4952: y_5 + y_15 + y_20 + y_33 + y_34 + y_44 + y_48 + y_61 + y_79 + y_80
        + y_93 - z_4951 >= 0
 c4953: y_11 + y_19 + y_38 + y_43 + y_52 + y_59 + y_67 + y_68 + y_69 - z_4952
         >= 0
 c4954: y_22 + y_50 + y_56 + y_65 - z_4953 >= 0
 c4955: y_0 + y_27 + y_42 + y_55 + y_63 + y_64 - z_4954 >= 0
 c4956: y_3 + y_19 + y_21 + y_33 + y_38 + y_41 + y_44 + y_48 + y_79 - z_4955
         >= 0
 c4957: y_5 + y_6 + y_34 + y_90 + y_91 - z_4956 >= 0
 c4958: y_45 + y_96 - z_4957 >= 0
 c4959: y_16 + y_17 + y_39 + y_53 + y_58 + y_63 + y_91 - z_4958 >= 0
 c4960: y_13 + y_60 + y_72 + y_76 + y_81 - z_4959 >= 0
 c4961: y_2 + y_14 + y_27 + y_42 + y_55 + y_82 + y_83 - z_4960 >= 0
 c4962: y_10 + y_12 + y_57 + y_72 + y_78 + y_88 - z_4961 >= 0
 c4963: y_16 + y_39 + y_40 + y_54 + y_55 + y_63 + y_64 + y_66 + y_87 - z_4962
         >= 0
 c4964: y_9 + y_11 + y_26 + y_38 + y_67 + y_68 + y_69 + y_97 - z_4963 >= 0
 c4965: y_27 - z_4964 >= 0
 c4966: y_25 + y_35 + y_40 + y_77 + y_87 + y_92 - z_4965 >= 0
 c4967: y_13 + y_28 + y_60 + y_76 + y_78 + y_81 - z_4966 >= 0
 c4968: y_2 + y_40 + y_42 + y_55 + y_83 - z_4967 >= 0
 c4969: y_2 + y_14 + y_82 + y_83 + y_84 + y_85 - z_4968 >= 0
 c4970: y_5 + y_8 + y_15 + y_20 + y_33 + y_34 + y_48 + y_61 + y_79 + y_80 + y_93
        - z_4969 >= 0
 c4971: y_15 + y_18 + y_20 + y_21 + y_36 + y_41 + y_46 + y_47 + y_48 + y_61
        + y_79 + y_80 + y_93 + y_95 - z_4970 >= 0
 c4972: y_25 + y_29 + y_35 + y_77 - z_4971 >= 0
 c4973: y_22 + y_56 - z_4972 >= 0
 c4974: y_18 + y_36 + y_49 + y_74 + y_95 - z_4973 >= 0
 c4975: y_1 + y_73 + y_75 + y_96 + y_99 - z_4974 >= 0
 c4976: y_9 + y_26 + y_67 + y_69 + y_71 + y_97 - z_4975 >= 0
 c4977: y_2 + y_14 + y_82 + y_83 + y_84 + y_85 - z_4976 >= 0
 c4978: y_37 + y_45 - z_4977 >= 0
 c4979: y_25 + y_29 + y_35 + y_50 + y_56 + y_77 - z_4978 >= 0
 c4980: y_6 + y_22 + y_90 - z_4979 >= 0
 c4981: y_18 + y_36 + y_41 + y_47 + y_74 + y_95 - z_4980 >= 0
 c4982: y_5 + y_17 + y_34 + y_91 - z_4981 >= 0
 c4983: y_10 + y_12 + y_57 + y_72 + y_78 + y_88 - z_4982 >= 0
 c4984: y_85 - z_4983 >= 0
 c4985: y_50 + y_56 + y_66 - z_4984 >= 0
 c4986: y_23 + y_49 + y_74 + y_98 - z_4985 >= 0
 c4987: y_10 + y_13 + y_57 + y_60 + y_72 + y_76 + y_78 + y_81 - z_4986 >= 0
 c4988: y_45 - z_4987 >= 0
 c4989: y_5 + y_17 + y_34 + y_91 - z_4988 >= 0
 c4990: y_16 + y_39 + y_53 + y_54 + y_58 + y_66 + y_91 - z_4989 >= 0
 c4991: y_4 + y_6 + y_26 + y_32 + y_38 + y_44 + y_90 - z_4990 >= 0
 c4992: y_2 + y_14 + y_27 + y_82 - z_4991 >= 0
 c4993: y_1 + y_23 + y_46 + y_49 + y_74 + y_98 - z_4992 >= 0
 c4994: y_2 + y_14 + y_82 + y_83 + y_85 - z_4993 >= 0
 c4995: y_10 + y_78 + y_81 - z_4994 >= 0
 c4996: y_17 + y_53 + y_91 - z_4995 >= 0
 c4997: y_13 + y_65 + y_72 - z_4996 >= 0
 c4998: y_12 + y_57 + y_72 + y_88 - z_4997 >= 0
 c4999: y_15 + y_18 + y_21 + y_36 + y_41 + y_47 + y_48 + y_79 + y_95 - z_4998
         >= 0
 c5000: y_21 + y_30 + y_36 + y_41 + y_43 + y_47 + y_48 + y_94 - z_4999 >= 0
 c5001: y_13 + y_60 + y_76 - z_5000 >= 0
 c5002: y_0 + y_27 + y_42 + y_55 - z_5001 >= 0
 c5003: y_3 + y_19 + y_21 + y_30 + y_36 + y_41 + y_43 + y_47 + y_48 + y_94
        - z_5002 >= 0
 c5004: y_7 + y_23 + y_31 + y_51 + y_62 + y_89 + y_98 + y_99 - z_5003 >= 0
 c5005: y_6 + y_58 + y_91 - z_5004 >= 0
 c5006: y_3 + y_11 + y_19 + y_26 + y_33 + y_38 + y_43 + y_44 + y_67 + y_68
        + y_69 - z_5005 >= 0
 c5007: y_10 + y_13 + y_57 + y_60 + y_72 + y_76 + y_78 + y_81 - z_5006 >= 0
 c5008: y_11 + y_24 + y_52 + y_59 + y_67 + y_68 + y_69 + y_70 + y_86 + y_97
        - z_5007 >= 0
 c5009: y_24 + y_30 + y_43 + y_52 + y_59 + y_70 + y_94 - z_5008 >= 0
 c5010: y_10 + y_13 + y_60 + y_76 + y_78 + y_81 - z_5009 >= 0
 c5011: y_3 + y_4 + y_9 + y_19 + y_26 + y_32 + y_38 + y_44 + y_69 + y_90
        - z_5010 >= 0
 c5012: y_17 + y_96 - z_5011 >= 0
 c5013: y_1 + y_23 + y_31 + y_46 + y_49 + y_73 + y_89 + y_98 + y_99 - z_5012
         >= 0
 c5014: y_2 + y_14 + y_27 + y_42 + y_55 + y_82 + y_83 - z_5013 >= 0
 c5015: y_2 + y_40 + y_42 + y_55 + y_64 - z_5014 >= 0
 c5016: y_13 + y_28 + y_60 + y_76 - z_5015 >= 0
 c5017: y_29 - z_5016 >= 0
 c5018: y_3 + y_4 + y_5 + y_6 + y_33 + y_34 + y_38 + y_44 + y_90 - z_5017 >= 0
 c5019: y_2 + y_14 + y_27 + y_42 + y_82 - z_5018 >= 0
 c5020: y_39 + y_53 + y_58 + y_91 - z_5019 >= 0
 c5021: y_1 + y_8 + y_46 + y_73 + y_75 + y_99 - z_5020 >= 0
 c5022: y_11 + y_19 + y_38 + y_43 + y_52 + y_59 + y_67 + y_68 + y_69 - z_5021
         >= 0
 c5023: y_10 + y_76 + y_78 + y_81 - z_5022 >= 0
 c5024: y_16 + y_40 + y_54 + y_66 + y_87 + y_92 - z_5023 >= 0
 c5025: y_3 + y_4 + y_9 + y_19 + y_26 + y_38 + y_44 + y_67 + y_69 - z_5024 >= 0
 c5026: y_4 + y_6 + y_32 + y_90 - z_5025 >= 0
 c5027: y_65 - z_5026 >= 0
 c5028: y_10 + y_13 + y_28 + y_60 + y_76 + y_78 + y_81 - z_5027 >= 0
 c5029: y_24 + y_70 + y_86 - z_5028 >= 0
 c5030: y_3 + y_19 + y_21 + y_33 + y_38 + y_41 + y_44 + y_48 + y_79 - z_5029
         >= 0
 c5031: y_4 + y_9 + y_12 + y_32 + y_71 + y_88 - z_5030 >= 0
 c5032: y_0 + y_64 - z_5031 >= 0
 c5033: y_16 + y_25 + y_40 + y_50 + y_54 + y_56 + y_66 + y_77 + y_87 - z_5032
         >= 0
 c5034: y_9 + y_12 + y_32 + y_71 + y_88 - z_5033 >= 0
 c5035: y_5 + y_20 + y_34 + y_61 + y_80 + y_93 - z_5034 >= 0
 c5036: y_2 + y_14 + y_27 + y_42 + y_82 + y_83 - z_5035 >= 0
 c5037: y_25 + y_29 + y_35 + y_50 + y_56 + y_77 - z_5036 >= 0
 c5038: y_12 + y_71 + y_88 - z_5037 >= 0
 c5039: y_3 + y_5 + y_19 + y_33 + y_38 + y_44 + y_48 + y_61 + y_79 - z_5038 >= 
        0
 c5040: y_8 + y_17 + y_75 + y_96 - z_5039 >= 0
 c5041: y_25 + y_29 + y_35 + y_77 - z_5040 >= 0
 c5042: y_9 + y_11 + y_26 + y_67 + y_68 + y_69 + y_97 - z_5041 >= 0
 c5043: y_13 + y_57 + y_60 + y_65 + y_72 + y_76 + y_78 + y_81 - z_5042 >= 0
 c5044: y_2 + y_42 + y_55 + y_83 + y_85 - z_5043 >= 0
 c5045: y_10 + y_13 + y_57 + y_60 + y_72 + y_76 + y_78 + y_81 - z_5044 >= 0
 c5046: y_2 + y_14 + y_27 + y_82 - z_5045 >= 0
 c5047: y_1 + y_8 + y_46 + y_49 + y_73 + y_75 - z_5046 >= 0
 c5048: y_39 + y_40 + y_42 + y_54 + y_55 + y_63 + y_64 - z_5047 >= 0
 c5049: y_7 + y_31 + y_51 + y_62 + y_89 + y_99 - z_5048 >= 0
 c5050: y_0 + y_64 - z_5049 >= 0
 c5051: y_5 + y_8 + y_15 + y_20 + y_34 + y_61 + y_75 + y_79 + y_80 + y_93
        - z_5050 >= 0
 c5052: y_85 + y_92 - z_5051 >= 0
 c5053: y_1 + y_7 + y_23 + y_31 + y_37 + y_51 + y_73 + y_89 + y_98 + y_99
        - z_5052 >= 0
 c5054: y_16 + y_50 + y_54 + y_56 + y_66 + y_87 - z_5053 >= 0
 c5055: y_25 + y_29 + y_35 + y_50 + y_56 + y_66 + y_77 + y_87 - z_5054 >= 0
 c5056: y_7 + y_23 + y_31 + y_51 + y_62 + y_89 + y_98 + y_99 - z_5055 >= 0
 c5057: y_24 + y_30 + y_43 + y_52 + y_59 + y_70 + y_94 - z_5056 >= 0
 c5058: y_16 + y_39 + y_53 + y_54 + y_55 + y_58 + y_63 + y_64 + y_91 - z_5057
         >= 0
 c5059: y_4 + y_9 + y_12 + y_26 + y_32 + y_71 + y_88 - z_5058 >= 0
 c5060: y_16 + y_39 + y_50 + y_54 + y_56 + y_66 + y_87 - z_5059 >= 0
 c5061: y_17 + y_96 - z_5060 >= 0
 c5062: y_17 + y_39 + y_53 + y_58 + y_91 - z_5061 >= 0
 c5063: y_22 + y_56 + y_65 - z_5062 >= 0
 c5064: y_0 + y_16 + y_39 + y_42 + y_53 + y_54 + y_55 + y_63 + y_64 - z_5063
         >= 0
 c5065: y_4 + y_9 + y_12 + y_32 + y_71 + y_88 - z_5064 >= 0
 c5066: y_1 + y_31 + y_37 + y_73 + y_89 + y_96 + y_99 - z_5065 >= 0
 c5067: y_4 + y_6 + y_9 + y_26 + y_32 + y_90 - z_5066 >= 0
 c5068: y_40 + y_85 + y_92 - z_5067 >= 0
 c5069: y_50 + y_56 + y_65 - z_5068 >= 0
 c5070: y_18 + y_21 + y_30 + y_36 + y_41 + y_43 + y_47 + y_48 + y_94 - z_5069
         >= 0
 c5071: y_50 + y_56 + y_65 - z_5070 >= 0
 c5072: y_45 - z_5071 >= 0
 c5073: y_4 + y_9 + y_26 + y_32 + y_90 - z_5072 >= 0
 c5074: y_0 + y_27 + y_42 - z_5073 >= 0
 c5075: y_9 + y_12 + y_71 + y_88 - z_5074 >= 0
 c5076: y_1 + y_8 + y_46 + y_49 + y_75 + y_80 + y_95 - z_5075 >= 0
 c5077: y_10 + y_13 + y_60 + y_72 + y_76 + y_78 + y_81 - z_5076 >= 0
 c5078: y_12 + y_22 + y_32 + y_57 + y_88 - z_5077 >= 0
 c5079: y_15 + y_18 + y_21 + y_36 + y_41 + y_47 + y_95 - z_5078 >= 0
 c5080: y_1 + y_8 + y_73 + y_75 + y_96 - z_5079 >= 0
 c5081: y_5 + y_6 + y_34 + y_90 - z_5080 >= 0
 c5082: y_3 + y_5 + y_15 + y_19 + y_20 + y_33 + y_34 + y_38 + y_41 + y_44 + y_48
        + y_61 + y_79 + y_93 - z_5081 >= 0
 c5083: y_13 + y_57 + y_60 + y_72 + y_76 + y_78 + y_81 - z_5082 >= 0
 c5084: y_0 + y_45 - z_5083 >= 0
 c5085: y_50 + y_56 + y_65 - z_5084 >= 0
 c5086: y_3 + y_5 + y_15 + y_20 + y_21 + y_33 + y_34 + y_41 + y_48 + y_61 + y_79
        + y_80 + y_93 - z_5085 >= 0
 c5087: y_50 + y_56 + y_58 - z_5086 >= 0
 c5088: y_3 + y_4 + y_19 + y_33 + y_38 + y_44 + y_90 - z_5087 >= 0
 c5089: y_0 + y_2 + y_14 + y_27 + y_42 + y_55 + y_82 - z_5088 >= 0
 c5090: y_24 + y_52 + y_59 + y_70 + y_86 - z_5089 >= 0
 c5091: y_1 + y_8 + y_73 + y_75 + y_96 + y_99 - z_5090 >= 0
 c5092: y_1 + y_23 + y_31 + y_46 + y_49 + y_73 + y_89 + y_98 + y_99 - z_5091
         >= 0
 c5093: y_83 + y_84 + y_85 - z_5092 >= 0
 c5094: y_4 + y_12 + y_22 + y_32 + y_88 - z_5093 >= 0
 c5095: y_24 + y_70 + y_86 - z_5094 >= 0
 c5096: y_9 + y_12 + y_32 + y_71 + y_88 - z_5095 >= 0
 c5097: y_5 + y_17 + y_34 + y_91 - z_5096 >= 0
 c5098: y_3 + y_4 + y_9 + y_19 + y_26 + y_32 + y_38 + y_44 + y_67 + y_69
        - z_5097 >= 0
 c5099: y_40 + y_92 - z_5098 >= 0
 c5100: y_13 + y_60 + y_72 + y_76 - z_5099 >= 0
 c5101: y_3 + y_4 + y_19 + y_33 + y_38 + y_44 + y_90 - z_5100 >= 0
 c5102: y_1 + y_31 + y_37 + y_73 + y_89 + y_99 - z_5101 >= 0
 c5103: y_10 + y_60 + y_76 + y_78 + y_81 - z_5102 >= 0
 c5104: y_15 + y_18 + y_21 + y_36 + y_41 + y_47 + y_48 + y_79 + y_95 - z_5103
         >= 0
 c5105: y_5 + y_6 + y_17 + y_58 + y_91 - z_5104 >= 0
 c5106: y_0 + y_2 + y_14 + y_27 + y_42 + y_55 + y_82 - z_5105 >= 0
 c5107: y_3 + y_4 + y_19 + y_26 + y_33 + y_38 + y_44 + y_67 + y_69 - z_5106 >= 
        0
 c5108: y_10 + y_13 + y_57 + y_60 + y_72 + y_76 + y_78 + y_81 - z_5107 >= 0
 c5109: y_0 + y_16 + y_39 + y_42 + y_53 + y_54 + y_55 + y_63 + y_64 - z_5108
         >= 0
 c5110: y_1 + y_8 + y_46 + y_73 + y_75 + y_80 + y_96 - z_5109 >= 0
 c5111: y_3 + y_19 + y_21 + y_33 + y_38 + y_43 + y_48 - z_5110 >= 0
 c5112: y_3 + y_11 + y_19 + y_33 + y_38 + y_43 + y_48 + y_52 + y_59 + y_68
        + y_69 - z_5111 >= 0
 c5113: y_4 + y_6 + y_32 + y_90 - z_5112 >= 0
 c5114: y_25 + y_29 + y_35 + y_50 + y_56 + y_77 + y_87 - z_5113 >= 0
 c5115: y_8 + y_20 + y_34 + y_75 + y_80 + y_93 + y_96 - z_5114 >= 0
 c5116: y_30 + y_43 + y_52 + y_59 + y_94 - z_5115 >= 0
 c5117: y_29 + y_56 + y_65 - z_5116 >= 0
 c5118: y_0 + y_39 + y_42 + y_53 + y_55 + y_63 + y_64 - z_5117 >= 0
 c5119: y_50 + y_56 + y_65 - z_5118 >= 0
 c5120: y_3 + y_19 + y_21 + y_30 + y_33 + y_38 + y_43 + y_48 + y_59 - z_5119
         >= 0
 c5121: y_40 + y_54 + y_55 + y_87 + y_92 - z_5120 >= 0
 c5122: y_24 + y_30 + y_52 + y_59 + y_70 + y_86 - z_5121 >= 0
 c5123: y_2 + y_14 + y_27 + y_42 + y_55 + y_82 + y_83 - z_5122 >= 0
 c5124: y_4 + y_9 + y_26 + y_32 + y_67 - z_5123 >= 0
 c5125: y_15 + y_18 + y_20 + y_36 + y_41 + y_46 + y_47 + y_49 + y_74 + y_79
        + y_93 + y_95 - z_5124 >= 0
 c5126: y_3 + y_19 + y_21 + y_33 + y_36 + y_38 + y_41 + y_47 + y_48 + y_79
        - z_5125 >= 0
 c5127: y_8 + y_17 + y_73 + y_96 - z_5126 >= 0
 c5128: y_25 + y_40 + y_87 + y_92 - z_5127 >= 0
 c5129: y_13 + y_57 + y_60 + y_72 + y_76 + y_78 + y_81 - z_5128 >= 0
 c5130: y_3 + y_11 + y_19 + y_26 + y_38 + y_43 + y_52 + y_67 + y_68 + y_69
        - z_5129 >= 0
 c5131: y_0 + y_27 + y_42 + y_64 - z_5130 >= 0
 c5132: y_40 + y_54 + y_55 + y_92 - z_5131 >= 0
 c5133: y_17 + y_53 + y_58 + y_91 - z_5132 >= 0
 c5134: y_15 + y_18 + y_46 + y_49 + y_74 + y_95 - z_5133 >= 0
 c5135: y_1 + y_23 + y_46 + y_49 + y_74 + y_75 + y_95 - z_5134 >= 0
 c5136: y_0 + y_27 + y_39 + y_42 + y_53 + y_55 + y_63 + y_64 - z_5135 >= 0
 c5137: y_11 + y_24 + y_52 + y_59 + y_68 + y_70 + y_86 - z_5136 >= 0
 c5138: y_18 + y_21 + y_36 + y_41 + y_47 + y_48 + y_94 - z_5137 >= 0
 c5139: y_9 + y_26 + y_67 + y_71 - z_5138 >= 0
 c5140: y_5 + y_8 + y_20 + y_34 + y_61 + y_75 + y_80 + y_93 - z_5139 >= 0
 c5141: y_15 + y_18 + y_21 + y_36 + y_41 + y_47 + y_79 + y_95 - z_5140 >= 0
 c5142: y_16 + y_50 + y_54 + y_56 + y_66 + y_87 - z_5141 >= 0
 c5143: y_25 + y_29 + y_35 + y_50 + y_56 + y_66 + y_77 + y_87 - z_5142 >= 0
 c5144: y_3 + y_4 + y_19 + y_26 + y_33 + y_38 + y_44 + y_90 - z_5143 >= 0
 c5145: y_4 + y_6 + y_32 + y_90 - z_5144 >= 0
 c5146: y_25 + y_29 + y_50 + y_56 + y_77 - z_5145 >= 0
 c5147: y_2 + y_14 + y_82 + y_83 + y_84 - z_5146 >= 0
 c5148: y_4 + y_5 + y_6 + y_32 + y_44 + y_90 - z_5147 >= 0
 c5149: y_46 + y_49 + y_74 + y_95 - z_5148 >= 0
 c5150: y_50 + y_56 + y_58 - z_5149 >= 0
 c5151: y_2 + y_14 + y_27 + y_42 + y_55 + y_83 - z_5150 >= 0
 c5152: y_23 + y_46 + y_49 + y_74 + y_98 - z_5151 >= 0
 c5153: y_13 + y_57 + y_60 + y_72 + y_76 + y_78 + y_81 - z_5152 >= 0
 c5154: y_2 + y_14 + y_27 + y_42 + y_55 + y_82 + y_83 - z_5153 >= 0
 c5155: y_0 + y_42 + y_53 + y_55 + y_63 + y_64 - z_5154 >= 0
 c5156: y_0 + y_2 + y_14 + y_27 + y_42 + y_55 + y_82 - z_5155 >= 0
 c5157: y_6 + y_22 - z_5156 >= 0
 c5158: y_15 + y_18 + y_20 + y_21 + y_36 + y_41 + y_47 + y_48 + y_79 + y_95
        - z_5157 >= 0
 c5159: y_15 + y_20 + y_41 + y_46 + y_47 + y_61 + y_75 + y_79 + y_80 + y_93
        + y_95 - z_5158 >= 0
 c5160: y_15 + y_20 + y_46 + y_49 + y_61 + y_74 + y_75 + y_79 + y_80 + y_93
        + y_95 - z_5159 >= 0
 c5161: y_29 - z_5160 >= 0
 c5162: y_10 + y_12 - z_5161 >= 0
 c5163: y_12 + y_22 + y_32 + y_57 + y_88 - z_5162 >= 0
 c5164: y_7 + y_23 + y_31 + y_51 + y_62 + y_89 + y_98 + y_99 - z_5163 >= 0
 c5165: y_6 + y_22 - z_5164 >= 0
 c5166: y_22 + y_57 + y_65 + y_72 - z_5165 >= 0
 c5167: y_18 + y_46 + y_49 + y_74 + y_95 - z_5166 >= 0
 c5168: y_11 + y_19 + y_26 + y_38 + y_52 + y_67 + y_68 + y_69 - z_5167 >= 0
 c5169: y_13 + y_28 + y_60 + y_76 + y_81 - z_5168 >= 0
 c5170: y_7 + y_31 + y_51 + y_62 + y_89 + y_99 - z_5169 >= 0
 c5171: y_15 + y_18 + y_20 + y_21 + y_36 + y_41 + y_47 + y_48 + y_61 + y_79
        + y_93 + y_95 - z_5170 >= 0
 c5172: y_11 + y_24 + y_30 + y_43 + y_52 + y_59 + y_67 + y_68 + y_69 + y_70
        - z_5171 >= 0
 c5173: y_3 + y_4 + y_19 + y_26 + y_32 + y_33 + y_38 + y_44 + y_67 + y_69
        - z_5172 >= 0
 c5174: y_1 + y_23 + y_31 + y_46 + y_49 + y_73 + y_89 + y_98 + y_99 - z_5173
         >= 0
 c5175: y_16 + y_58 + y_91 - z_5174 >= 0
 c5176: y_1 + y_46 + y_49 + y_74 + y_75 + y_95 - z_5175 >= 0
 c5177: y_3 + y_5 + y_20 + y_33 + y_34 + y_44 + y_48 + y_61 + y_79 + y_93
        - z_5176 >= 0
 c5178: y_4 + y_9 + y_19 + y_26 + y_32 + y_38 + y_44 + y_67 + y_69 - z_5177 >= 
        0
 c5179: y_10 + y_13 + y_28 + y_60 + y_72 + y_76 + y_78 + y_81 - z_5178 >= 0
 c5180: y_17 + y_53 + y_58 + y_91 - z_5179 >= 0
 c5181: y_8 + y_15 + y_20 + y_34 + y_46 + y_61 + y_75 + y_79 + y_80 + y_93
        + y_95 - z_5180 >= 0
 c5182: y_40 + y_54 + y_87 + y_92 - z_5181 >= 0
 c5183: y_1 + y_23 + y_31 + y_46 + y_49 + y_74 + y_98 + y_99 - z_5182 >= 0
 c5184: y_7 + y_23 + y_31 + y_51 + y_62 + y_89 + y_98 + y_99 - z_5183 >= 0
 c5185: y_7 + y_31 + y_51 + y_62 + y_89 + y_98 + y_99 - z_5184 >= 0
 c5186: y_0 + y_42 + y_63 + y_64 - z_5185 >= 0
 c5187: y_7 + y_23 + y_31 + y_51 + y_98 - z_5186 >= 0
 c5188: y_29 - z_5187 >= 0
 c5189: y_25 + y_35 + y_40 + y_66 + y_77 + y_87 + y_92 - z_5188 >= 0
 c5190: y_2 + y_14 + y_82 + y_83 + y_84 + y_85 - z_5189 >= 0
 c5191: y_5 + y_6 + y_34 + y_90 - z_5190 >= 0
 c5192: y_24 + y_70 + y_86 - z_5191 >= 0
 c5193: y_22 + y_57 + y_65 + y_72 - z_5192 >= 0
 c5194: y_16 + y_39 + y_53 + y_54 + y_58 + y_63 + y_66 + y_91 - z_5193 >= 0
 c5195: y_25 + y_29 + y_56 + y_77 - z_5194 >= 0
 c5196: y_7 + y_23 + y_31 + y_51 + y_98 + y_99 - z_5195 >= 0
 c5197: y_45 - z_5196 >= 0
 c5198: y_9 + y_26 + y_67 + y_69 + y_97 - z_5197 >= 0
 c5199: y_25 + y_29 + y_35 + y_77 - z_5198 >= 0
 c5200: y_16 + y_39 + y_53 + y_54 + y_58 + y_63 + y_91 - z_5199 >= 0
 c5201: y_14 + y_27 - z_5200 >= 0
 c5202: y_1 + y_23 + y_31 + y_37 + y_73 + y_89 + y_98 + y_99 - z_5201 >= 0
 c5203: y_56 + y_65 - z_5202 >= 0
 c5204: y_7 + y_23 + y_31 + y_51 + y_62 + y_89 + y_98 + y_99 - z_5203 >= 0
 c5205: y_3 + y_19 + y_21 + y_33 + y_38 + y_43 + y_44 + y_48 - z_5204 >= 0
 c5206: y_11 + y_52 + y_67 + y_68 + y_69 + y_86 + y_97 - z_5205 >= 0
 c5207: y_29 - z_5206 >= 0
 c5208: y_8 + y_17 + y_73 + y_96 - z_5207 >= 0
 c5209: y_22 + y_56 + y_57 + y_65 - z_5208 >= 0
 c5210: y_37 + y_45 + y_89 - z_5209 >= 0
 c5211: y_3 + y_15 + y_19 + y_21 + y_33 + y_36 + y_38 + y_41 + y_44 + y_47
        + y_48 + y_61 + y_79 - z_5210 >= 0
 c5212: y_16 + y_39 + y_40 + y_54 + y_63 + y_66 + y_87 - z_5211 >= 0
 c5213: y_3 + y_19 + y_21 + y_33 + y_38 + y_41 + y_44 + y_48 + y_61 + y_79
        - z_5212 >= 0
 c5214: y_1 + y_7 + y_31 + y_37 + y_51 + y_73 + y_89 + y_99 - z_5213 >= 0
 c5215: y_0 + y_27 + y_42 + y_64 - z_5214 >= 0
 c5216: y_11 + y_19 + y_26 + y_38 + y_43 + y_52 + y_59 + y_67 + y_68 + y_69
        - z_5215 >= 0
 c5217: y_83 + y_85 + y_92 - z_5216 >= 0
 c5218: y_25 + y_35 + y_40 + y_66 + y_77 + y_87 + y_92 - z_5217 >= 0
 c5219: y_4 + y_6 + y_9 + y_12 + y_32 + y_88 + y_90 - z_5218 >= 0
 c5220: y_9 + y_71 - z_5219 >= 0
 c5221: y_65 - z_5220 >= 0
 c5222: y_3 + y_4 + y_5 + y_19 + y_33 + y_38 + y_44 + y_90 - z_5221 >= 0
 c5223: y_13 + y_60 + y_76 - z_5222 >= 0
 c5224: y_4 + y_6 + y_32 + y_90 - z_5223 >= 0
 c5225: y_22 + y_56 + y_65 - z_5224 >= 0
 c5226: y_3 + y_9 + y_11 + y_19 + y_26 + y_38 + y_44 + y_67 + y_68 + y_69
        - z_5225 >= 0
 c5227: y_11 + y_24 + y_43 + y_52 + y_59 + y_68 + y_69 + y_70 + y_86 - z_5226
         >= 0
 c5228: y_45 - z_5227 >= 0
 c5229: y_15 + y_46 + y_49 + y_74 + y_75 + y_95 - z_5228 >= 0
 c5230: y_4 + y_6 + y_12 + y_22 + y_32 + y_88 + y_90 - z_5229 >= 0
 c5231: y_4 + y_6 + y_22 + y_32 + y_90 - z_5230 >= 0
 c5232: y_13 + y_65 + y_72 - z_5231 >= 0
 c5233: y_15 + y_18 + y_20 + y_21 + y_36 + y_41 + y_47 + y_48 + y_61 + y_79
        + y_80 + y_93 + y_95 - z_5232 >= 0
 c5234: y_3 + y_11 + y_19 + y_26 + y_33 + y_38 + y_44 + y_67 + y_69 - z_5233
         >= 0
 c5235: y_22 + y_56 + y_65 - z_5234 >= 0
 c5236: y_3 + y_4 + y_19 + y_26 + y_32 + y_33 + y_38 + y_44 + y_90 - z_5235 >= 
        0
 c5237: y_5 + y_34 + y_44 + y_61 + y_90 - z_5236 >= 0
 c5238: y_3 + y_4 + y_5 + y_19 + y_32 + y_33 + y_38 + y_44 + y_90 - z_5237 >= 0
 c5239: y_8 + y_73 + y_75 + y_96 - z_5238 >= 0
 c5240: y_13 + y_28 + y_60 + y_76 - z_5239 >= 0
 c5241: y_0 + y_27 - z_5240 >= 0
 c5242: y_40 + y_85 + y_92 - z_5241 >= 0
 c5243: y_3 + y_19 + y_26 + y_33 + y_38 + y_44 + y_67 + y_69 - z_5242 >= 0
 c5244: y_15 + y_18 + y_46 + y_49 + y_74 + y_95 - z_5243 >= 0
 c5245: y_15 + y_20 + y_46 + y_49 + y_74 + y_75 + y_80 + y_93 + y_95 - z_5244
         >= 0
 c5246: y_18 + y_21 + y_36 + y_41 + y_47 + y_48 + y_79 + y_94 - z_5245 >= 0
 c5247: y_3 + y_4 + y_5 + y_6 + y_19 + y_32 + y_33 + y_38 + y_44 + y_90 - z_5246
         >= 0
 c5248: y_11 + y_24 + y_52 + y_59 + y_68 + y_69 + y_70 + y_86 + y_97 - z_5247
         >= 0
 c5249: y_16 + y_39 + y_50 + y_54 + y_56 + y_58 + y_66 + y_91 - z_5248 >= 0
 c5250: y_15 + y_20 + y_46 + y_49 + y_74 + y_75 + y_80 + y_93 + y_95 - z_5249
         >= 0
 c5251: y_23 + y_46 + y_49 + y_74 + y_75 + y_95 - z_5250 >= 0
 c5252: y_25 + y_29 + y_35 + y_50 + y_56 + y_66 + y_77 + y_87 - z_5251 >= 0
 c5253: y_15 + y_18 + y_20 + y_21 + y_36 + y_41 + y_46 + y_47 + y_61 + y_79
        + y_80 + y_93 + y_95 - z_5252 >= 0
 c5254: y_2 + y_40 + y_42 + y_55 + y_64 - z_5253 >= 0
 c5255: y_15 + y_18 + y_36 + y_41 + y_47 + y_74 + y_95 - z_5254 >= 0
 c5256: y_4 + y_6 + y_12 + y_22 + y_32 + y_88 + y_90 - z_5255 >= 0
 c5257: y_29 - z_5256 >= 0
 c5258: y_5 + y_8 + y_20 + y_34 + y_61 + y_75 + y_80 + y_93 - z_5257 >= 0
 c5259: y_40 + y_87 + y_92 - z_5258 >= 0
 c5260: y_16 + y_39 + y_53 + y_54 + y_58 + y_63 + y_66 + y_87 + y_91 - z_5259
         >= 0
 c5261: y_24 + y_70 + y_86 - z_5260 >= 0
 c5262: y_12 + y_22 + y_57 + y_88 - z_5261 >= 0
 c5263: y_16 + y_39 + y_53 + y_54 + y_58 + y_63 + y_64 + y_66 + y_91 - z_5262
         >= 0
 c5264: y_13 + y_60 + y_65 + y_72 + y_76 - z_5263 >= 0
 c5265: y_1 + y_8 + y_46 + y_49 + y_74 + y_75 + y_80 + y_95 - z_5264 >= 0
 c5266: y_14 + y_27 - z_5265 >= 0
 c5267: y_17 + y_53 + y_96 - z_5266 >= 0
 c5268: y_16 + y_50 + y_54 + y_56 + y_66 + y_87 - z_5267 >= 0
 c5269: y_22 + y_50 + y_56 + y_65 - z_5268 >= 0
 c5270: y_15 + y_18 + y_21 + y_36 + y_41 + y_47 + y_48 + y_79 + y_95 - z_5269
         >= 0
 c5271: y_3 + y_11 + y_19 + y_26 + y_38 + y_43 + y_44 + y_67 + y_68 + y_69
        - z_5270 >= 0
 c5272: y_4 + y_5 + y_6 + y_34 + y_44 + y_90 - z_5271 >= 0
 c5273: y_23 + y_49 + y_74 + y_98 - z_5272 >= 0
 c5274: y_4 + y_6 + y_22 + y_32 + y_90 - z_5273 >= 0
 c5275: y_11 + y_24 + y_30 + y_43 + y_52 + y_59 + y_68 + y_70 + y_86 - z_5274
         >= 0
 c5276: y_2 + y_40 + y_83 + y_85 + y_92 - z_5275 >= 0
 c5277: y_2 + y_83 + y_84 + y_85 - z_5276 >= 0
 c5278: y_5 + y_17 + y_53 + y_58 + y_91 - z_5277 >= 0
 c5279: y_3 + y_15 + y_19 + y_20 + y_21 + y_33 + y_38 + y_41 + y_44 + y_48
        + y_61 + y_79 + y_93 - z_5278 >= 0
 c5280: y_25 + y_35 + y_40 + y_77 + y_87 + y_92 - z_5279 >= 0
 c5281: y_5 + y_8 + y_17 + y_34 + y_75 + y_80 + y_93 - z_5280 >= 0
 c5282: y_50 + y_56 - z_5281 >= 0
 c5283: y_11 + y_24 + y_30 + y_43 + y_52 + y_59 + y_70 - z_5282 >= 0
 c5284: y_5 + y_17 + y_34 + y_53 + y_58 + y_91 - z_5283 >= 0
 c5285: y_13 + y_60 + y_76 - z_5284 >= 0
 c5286: y_6 + y_58 + y_91 - z_5285 >= 0
 c5287: y_1 + y_7 + y_23 + y_31 + y_51 + y_73 + y_89 + y_98 + y_99 - z_5286 >= 
        0
 c5288: y_9 + y_71 + y_97 - z_5287 >= 0
 c5289: y_0 + y_27 + y_42 + y_55 + y_64 - z_5288 >= 0
 c5290: y_24 + y_30 + y_43 + y_52 + y_59 + y_70 + y_86 - z_5289 >= 0
 c5291: y_11 + y_30 + y_43 + y_52 + y_59 + y_70 + y_94 - z_5290 >= 0
 c5292: y_13 + y_28 + y_60 + y_76 + y_78 + y_81 - z_5291 >= 0
 c5293: y_37 + y_45 - z_5292 >= 0
 c5294: y_16 + y_39 + y_53 + y_54 + y_58 + y_63 + y_91 - z_5293 >= 0
 c5295: y_50 + y_56 + y_65 - z_5294 >= 0
 c5296: y_18 + y_21 + y_36 + y_41 + y_47 - z_5295 >= 0
 c5297: y_7 + y_23 + y_31 + y_51 + y_62 + y_89 + y_98 + y_99 - z_5296 >= 0
 c5298: y_29 - z_5297 >= 0
 c5299: y_1 + y_7 + y_23 + y_31 + y_51 + y_62 + y_89 + y_98 + y_99 - z_5298 >= 
        0
 c5300: y_25 + y_29 + y_35 + y_77 + y_87 + y_92 - z_5299 >= 0
 c5301: y_83 + y_84 + y_85 - z_5300 >= 0
 c5302: y_15 + y_18 + y_20 + y_21 + y_33 + y_36 + y_41 + y_47 + y_48 + y_61
        + y_79 + y_80 + y_93 + y_95 - z_5301 >= 0
 c5303: y_45 - z_5302 >= 0
 c5304: y_3 + y_5 + y_15 + y_20 + y_33 + y_34 + y_44 + y_48 + y_61 + y_79 + y_80
        + y_93 - z_5303 >= 0
 c5305: y_45 + y_96 - z_5304 >= 0
 c5306: y_40 + y_92 - z_5305 >= 0
 c5307: y_3 + y_15 + y_20 + y_21 + y_33 + y_34 + y_41 + y_47 + y_48 + y_61
        + y_79 + y_80 + y_93 + y_95 - z_5306 >= 0
 c5308: y_12 + y_71 + y_88 - z_5307 >= 0
 c5309: y_3 + y_5 + y_15 + y_20 + y_33 + y_34 + y_41 + y_44 + y_48 + y_61 + y_79
        + y_93 - z_5308 >= 0
 c5310: y_1 + y_7 + y_23 + y_31 + y_51 + y_73 + y_89 + y_98 + y_99 - z_5309 >= 
        0
 c5311: y_14 + y_27 + y_82 - z_5310 >= 0
 c5312: y_1 + y_7 + y_23 + y_31 + y_51 + y_73 + y_89 + y_98 + y_99 - z_5311 >= 
        0
 c5313: y_13 + y_57 + y_65 + y_72 - z_5312 >= 0
 c5314: y_2 + y_83 + y_84 + y_85 - z_5313 >= 0
 c5315: y_9 + y_12 + y_71 + y_88 - z_5314 >= 0
 c5316: y_13 + y_28 + y_60 + y_76 - z_5315 >= 0
 c5317: y_5 + y_8 + y_20 + y_34 + y_61 + y_80 + y_93 - z_5316 >= 0
 c5318: y_0 + y_27 + y_42 - z_5317 >= 0
 c5319: y_12 + y_22 + y_57 + y_72 + y_88 - z_5318 >= 0
 c5320: y_13 + y_28 + y_60 + y_76 - z_5319 >= 0
 c5321: y_1 + y_7 + y_23 + y_31 + y_37 + y_51 + y_62 + y_73 + y_89 + y_98 + y_99
        - z_5320 >= 0
 c5322: y_12 + y_57 + y_88 - z_5321 >= 0
 c5323: y_16 + y_39 + y_40 + y_50 + y_54 + y_66 + y_87 - z_5322 >= 0
 c5324: y_83 + y_85 - z_5323 >= 0
 c5325: y_37 + y_45 - z_5324 >= 0
 c5326: y_7 + y_23 + y_31 + y_51 + y_62 + y_89 + y_98 + y_99 - z_5325 >= 0
 c5327: y_37 + y_45 + y_89 - z_5326 >= 0
 c5328: y_2 + y_27 + y_42 + y_55 + y_83 - z_5327 >= 0
 c5329: y_1 + y_31 + y_37 + y_73 + y_89 + y_99 - z_5328 >= 0
 c5330: y_21 + y_30 + y_36 + y_41 + y_43 + y_47 + y_48 + y_94 - z_5329 >= 0
 c5331: y_4 + y_9 + y_12 + y_32 + y_88 - z_5330 >= 0
 c5332: y_68 + y_97 - z_5331 >= 0
 c5333: y_11 + y_24 + y_30 + y_43 + y_52 + y_59 + y_68 + y_70 + y_86 - z_5332
         >= 0
 c5334: y_12 + y_22 + y_57 + y_65 + y_72 + y_88 - z_5333 >= 0
 c5335: y_12 + y_22 + y_57 + y_65 + y_72 + y_88 - z_5334 >= 0
 c5336: y_65 - z_5335 >= 0
 c5337: y_12 + y_22 + y_57 + y_88 - z_5336 >= 0
 c5338: y_15 + y_20 + y_33 + y_34 + y_41 + y_48 + y_61 + y_75 + y_79 + y_80
        + y_93 + y_95 - z_5337 >= 0
 c5339: y_16 + y_39 + y_53 + y_54 + y_58 + y_63 + y_64 + y_66 + y_91 - z_5338
         >= 0
 c5340: y_45 + y_73 + y_96 - z_5339 >= 0
 c5341: y_68 + y_97 - z_5340 >= 0
 c5342: y_25 + y_29 + y_35 + y_77 - z_5341 >= 0
 c5343: y_58 - z_5342 >= 0
 c5344: y_12 + y_22 + y_57 + y_65 + y_72 + y_88 - z_5343 >= 0
 c5345: y_9 + y_26 + y_71 - z_5344 >= 0
 c5346: y_22 + y_57 + y_65 + y_72 + y_88 - z_5345 >= 0
 c5347: y_10 + y_57 + y_72 + y_76 + y_78 + y_81 - z_5346 >= 0
 c5348: y_10 + y_13 + y_60 + y_72 + y_76 + y_78 + y_81 - z_5347 >= 0
 c5349: y_13 + y_57 + y_60 + y_65 + y_72 + y_76 + y_78 + y_81 - z_5348 >= 0
 c5350: y_39 + y_53 + y_58 + y_91 - z_5349 >= 0
 c5351: y_15 + y_20 + y_41 + y_46 + y_49 + y_61 + y_75 + y_79 + y_80 + y_93
        + y_95 - z_5350 >= 0
 c5352: y_5 + y_8 + y_15 + y_20 + y_34 + y_61 + y_75 + y_79 + y_80 + y_93
        - z_5351 >= 0
 c5353: y_13 - z_5352 >= 0
 c5354: y_15 + y_18 + y_20 + y_21 + y_36 + y_41 + y_47 + y_48 + y_61 + y_79
        + y_93 + y_95 - z_5353 >= 0
 c5355: y_22 - z_5354 >= 0
 c5356: y_58 + y_91 - z_5355 >= 0
 c5357: y_13 + y_28 + y_60 + y_76 + y_78 + y_81 - z_5356 >= 0
 c5358: y_4 + y_5 + y_6 + y_32 + y_90 - z_5357 >= 0
 c5359: y_5 + y_34 + y_44 + y_61 + y_90 + y_93 - z_5358 >= 0
 c5360: y_45 + y_96 - z_5359 >= 0
 c5361: y_13 + y_60 + y_65 + y_72 + y_76 - z_5360 >= 0
 c5362: y_0 + y_2 + y_27 + y_42 + y_55 + y_64 - z_5361 >= 0
 c5363: y_15 + y_18 + y_21 + y_36 + y_41 + y_47 + y_48 + y_79 + y_94 - z_5362
         >= 0
 c5364: y_5 + y_17 + y_34 + y_91 - z_5363 >= 0
 c5365: y_13 + y_28 + y_60 + y_76 - z_5364 >= 0
 c5366: y_37 + y_45 + y_89 - z_5365 >= 0
 c5367: y_45 - z_5366 >= 0
 c5368: y_25 + y_29 + y_50 + y_56 + y_77 - z_5367 >= 0
 c5369: y_15 + y_18 + y_46 + y_47 + y_49 + y_74 + y_95 - z_5368 >= 0
 c5370: y_24 + y_52 + y_59 + y_70 + y_86 - z_5369 >= 0
 c5371: y_4 + y_6 + y_32 + y_90 - z_5370 >= 0
 c5372: y_6 + y_22 - z_5371 >= 0
 c5373: y_8 + y_15 + y_20 + y_34 + y_46 + y_61 + y_75 + y_80 + y_93 + y_95
        - z_5372 >= 0
 c5374: y_2 + y_83 + y_84 + y_85 - z_5373 >= 0
 c5375: y_3 + y_15 + y_19 + y_21 + y_33 + y_36 + y_38 + y_41 + y_44 + y_47
        + y_48 + y_61 + y_79 - z_5374 >= 0
 c5376: y_8 + y_17 + y_34 + y_96 - z_5375 >= 0
 c5377: y_0 + y_45 - z_5376 >= 0
 c5378: y_0 + y_27 + y_42 - z_5377 >= 0
 c5379: y_6 + y_90 - z_5378 >= 0
 c5380: y_45 - z_5379 >= 0
 c5381: y_15 + y_18 + y_21 + y_36 + y_41 + y_47 + y_79 + y_95 - z_5380 >= 0
 c5382: y_6 + y_12 + y_22 + y_32 + y_88 - z_5381 >= 0
 c5383: y_3 + y_5 + y_15 + y_20 + y_33 + y_34 + y_44 + y_48 + y_61 + y_79 + y_80
        + y_93 - z_5382 >= 0
 c5384: y_25 + y_29 + y_35 + y_77 - z_5383 >= 0
 c5385: y_8 + y_17 + y_96 - z_5384 >= 0
 c5386: y_7 + y_51 + y_62 - z_5385 >= 0
 c5387: y_12 + y_22 + y_57 + y_72 + y_88 - z_5386 >= 0
 c5388: y_3 + y_15 + y_19 + y_20 + y_21 + y_33 + y_38 + y_41 + y_44 + y_48
        + y_61 + y_79 + y_93 - z_5387 >= 0
 c5389: y_10 + y_12 + y_57 + y_72 + y_78 + y_88 - z_5388 >= 0
 c5390: y_0 + y_27 + y_42 + y_64 - z_5389 >= 0
 c5391: y_12 + y_71 + y_88 - z_5390 >= 0
 c5392: y_13 + y_28 + y_60 + y_76 + y_78 + y_81 - z_5391 >= 0
 c5393: y_7 + y_51 + y_62 - z_5392 >= 0
 c5394: y_22 - z_5393 >= 0
 c5395: y_50 + y_56 + y_58 - z_5394 >= 0
 c5396: y_7 + y_31 + y_51 + y_62 + y_98 - z_5395 >= 0
 c5397: y_22 + y_57 + y_65 + y_72 - z_5396 >= 0
 c5398: y_3 + y_19 + y_33 + y_38 + y_44 + y_48 + y_61 + y_79 - z_5397 >= 0
 c5399: y_7 + y_31 + y_51 + y_62 + y_89 + y_98 + y_99 - z_5398 >= 0
 c5400: y_8 + y_73 + y_96 - z_5399 >= 0
 c5401: y_5 + y_8 + y_15 + y_20 + y_34 + y_61 + y_75 + y_79 + y_80 + y_93
        - z_5400 >= 0
 c5402: y_8 + y_20 + y_34 + y_75 + y_80 + y_93 + y_96 - z_5401 >= 0
 c5403: y_13 + y_28 + y_60 + y_76 + y_81 - z_5402 >= 0
 c5404: y_25 + y_29 + y_35 + y_50 + y_56 + y_77 + y_87 - z_5403 >= 0
 c5405: y_22 + y_56 + y_65 - z_5404 >= 0
 c5406: y_17 + y_39 + y_53 + y_58 + y_63 + y_91 - z_5405 >= 0
 c5407: y_1 + y_73 + y_96 - z_5406 >= 0
 c5408: y_5 + y_8 + y_15 + y_20 + y_34 + y_61 + y_75 + y_79 + y_80 + y_93 + y_95
        - z_5407 >= 0
 c5409: y_23 + y_46 + y_49 + y_74 - z_5408 >= 0
 c5410: y_13 + y_28 + y_60 + y_72 + y_76 + y_78 + y_81 - z_5409 >= 0
 c5411: y_29 - z_5410 >= 0
 c5412: y_9 + y_26 + y_71 - z_5411 >= 0
 c5413: y_4 + y_6 + y_22 + y_32 + y_90 - z_5412 >= 0
 c5414: y_22 + y_56 + y_57 + y_65 - z_5413 >= 0
 c5415: y_25 + y_29 + y_77 - z_5414 >= 0
 c5416: y_7 + y_23 + y_31 + y_51 + y_62 + y_89 + y_98 + y_99 - z_5415 >= 0
 c5417: y_96 - z_5416 >= 0
 c5418: y_15 + y_20 + y_46 + y_49 + y_74 + y_75 + y_80 + y_95 - z_5417 >= 0
 c5419: y_25 + y_35 + y_40 + y_66 + y_77 + y_87 + y_92 - z_5418 >= 0
 c5420: y_24 + y_70 + y_86 - z_5419 >= 0
 c5421: y_5 + y_6 + y_34 + y_44 + y_90 - z_5420 >= 0
 c5422: y_25 + y_29 + y_50 + y_56 + y_66 + y_77 + y_87 - z_5421 >= 0
 c5423: - z_5422 >= 0
 c5424: y_7 + y_51 + y_62 + y_98 - z_5423 >= 0
 c5425: y_13 + y_28 + y_60 + y_76 + y_81 - z_5424 >= 0
 c5426: y_10 + y_12 + y_57 + y_72 + y_78 + y_88 - z_5425 >= 0
 c5427: y_10 + y_13 + y_57 + y_60 + y_72 + y_76 + y_78 + y_81 - z_5426 >= 0
 c5428: y_0 + y_27 - z_5427 >= 0
 c5429: y_16 + y_39 + y_40 + y_54 + y_55 + y_66 + y_87 - z_5428 >= 0
 c5430: y_40 + y_92 - z_5429 >= 0
 c5431: y_3 + y_4 + y_19 + y_26 + y_32 + y_33 + y_38 + y_44 + y_90 - z_5430 >= 
        0
 c5432: y_2 + y_14 + y_82 + y_83 + y_84 + y_85 - z_5431 >= 0
 c5433: y_4 + y_9 + y_26 + y_32 + y_38 + y_67 + y_69 - z_5432 >= 0
 c5434: y_7 + y_31 + y_37 + y_51 + y_62 + y_89 + y_99 - z_5433 >= 0
 c5435: y_23 + y_46 + y_49 + y_74 + y_98 - z_5434 >= 0
 c5436: y_2 + y_40 + y_83 + y_85 + y_92 - z_5435 >= 0
 c5437: y_16 + y_39 + y_50 + y_54 + y_56 + y_66 + y_87 - z_5436 >= 0
 c5438: y_3 + y_19 + y_21 + y_33 + y_36 + y_41 + y_43 + y_47 + y_48 + y_79
        + y_94 - z_5437 >= 0
 c5439: y_22 + y_57 + y_65 + y_72 - z_5438 >= 0
 c5440: y_0 + y_2 + y_27 + y_42 + y_55 - z_5439 >= 0
 c5441: y_18 + y_21 + y_30 + y_36 + y_41 + y_47 + y_94 - z_5440 >= 0
 c5442: y_17 + y_39 + y_53 + y_58 + y_63 + y_91 - z_5441 >= 0
 c5443: y_4 + y_9 + y_26 + y_32 - z_5442 >= 0
 c5444: y_7 + y_23 + y_31 + y_51 + y_62 + y_89 + y_98 + y_99 - z_5443 >= 0
 c5445: y_73 + y_96 - z_5444 >= 0
 c5446: y_2 + y_14 + y_82 + y_83 + y_84 + y_85 - z_5445 >= 0
 c5447: y_21 + y_30 + y_43 + y_59 + y_94 - z_5446 >= 0
 c5448: y_4 + y_9 + y_12 + y_32 + y_71 + y_88 - z_5447 >= 0
 c5449: y_25 + y_29 + y_35 + y_40 + y_50 + y_56 + y_66 + y_77 + y_87 + y_92
        - z_5448 >= 0
 c5450: y_22 + y_56 + y_65 - z_5449 >= 0
 c5451: y_10 + y_13 + y_28 + y_60 + y_72 + y_76 + y_78 + y_81 - z_5450 >= 0
 c5452: y_5 + y_20 + y_33 + y_34 + y_44 + y_48 + y_61 + y_79 + y_80 + y_93
        - z_5451 >= 0
 c5453: y_3 + y_15 + y_19 + y_20 + y_21 + y_33 + y_36 + y_41 + y_44 + y_47
        + y_48 + y_61 + y_79 + y_93 - z_5452 >= 0
 c5454: y_5 + y_8 + y_20 + y_34 + y_61 + y_75 + y_80 + y_93 - z_5453 >= 0
 c5455: y_12 + y_71 + y_88 - z_5454 >= 0
 c5456: y_45 - z_5455 >= 0
 c5457: y_5 + y_6 + y_34 + y_44 + y_90 - z_5456 >= 0
 c5458: y_37 + y_45 - z_5457 >= 0
 c5459: y_11 + y_24 + y_30 + y_43 + y_52 + y_59 + y_68 + y_70 - z_5458 >= 0
 c5460: y_15 + y_18 + y_36 + y_41 + y_47 + y_74 + y_95 - z_5459 >= 0
 c5461: y_17 + y_39 + y_53 + y_58 + y_91 - z_5460 >= 0
 c5462: y_11 + y_24 + y_52 + y_59 + y_68 + y_69 + y_70 + y_86 + y_97 - z_5461
         >= 0
 c5463: y_50 + y_56 + y_65 - z_5462 >= 0
 c5464: y_18 + y_21 + y_30 + y_36 + y_41 + y_43 + y_47 + y_94 - z_5463 >= 0
 c5465: y_3 + y_5 + y_19 + y_33 + y_34 + y_38 + y_44 + y_48 + y_61 - z_5464 >= 
        0
 c5466: y_4 + y_6 + y_32 + y_90 - z_5465 >= 0
 c5467: y_1 + y_37 + y_73 + y_96 + y_99 - z_5466 >= 0
 c5468: y_13 + y_57 + y_60 + y_65 + y_72 + y_76 + y_78 - z_5467 >= 0
 c5469: y_8 + y_15 + y_20 + y_34 + y_41 + y_48 + y_61 + y_75 + y_79 + y_80
        + y_93 + y_95 - z_5468 >= 0
 c5470: y_37 + y_45 - z_5469 >= 0
 c5471: y_11 + y_24 + y_30 + y_43 + y_52 + y_59 + y_70 + y_94 - z_5470 >= 0
 c5472: y_9 + y_26 + y_67 + y_69 + y_71 + y_97 - z_5471 >= 0
 c5473: y_25 + y_29 + y_35 + y_50 + y_77 + y_87 - z_5472 >= 0
 c5474: y_3 + y_19 + y_26 + y_33 + y_38 + y_44 + y_67 + y_69 - z_5473 >= 0
 c5475: y_7 + y_31 + y_37 + y_51 + y_62 + y_89 + y_99 - z_5474 >= 0
 c5476: y_17 + y_53 + y_96 - z_5475 >= 0
 c5477: y_3 + y_11 + y_19 + y_26 + y_33 + y_38 + y_43 + y_44 + y_48 + y_67
        + y_69 - z_5476 >= 0
 c5478: y_3 + y_5 + y_33 + y_34 + y_38 + y_44 + y_61 + y_90 - z_5477 >= 0
 c5479: y_11 + y_67 + y_68 + y_97 - z_5478 >= 0
 c5480: y_16 + y_17 + y_39 + y_53 + y_54 + y_58 + y_63 + y_91 - z_5479 >= 0
 c5481: y_15 + y_18 + y_20 + y_21 + y_33 + y_36 + y_41 + y_47 + y_48 + y_61
        + y_79 + y_93 + y_95 - z_5480 >= 0
 c5482: y_2 + y_14 + y_27 + y_42 + y_82 - z_5481 >= 0
 c5483: y_25 + y_29 + y_35 + y_40 + y_50 + y_66 + y_77 + y_87 + y_92 - z_5482
         >= 0
 c5484: y_25 + y_29 + y_35 + y_50 + y_77 + y_87 - z_5483 >= 0
 c5485: y_0 + y_27 + y_42 - z_5484 >= 0
 c5486: y_40 + y_92 - z_5485 >= 0
 c5487: y_3 + y_19 + y_21 + y_33 + y_36 + y_38 + y_41 + y_43 + y_47 + y_48
        + y_79 - z_5486 >= 0
 c5488: y_1 + y_23 + y_46 + y_49 + y_74 + y_98 - z_5487 >= 0
 c5489: y_83 + y_84 + y_85 - z_5488 >= 0
 c5490: y_15 + y_18 + y_46 + y_49 + y_74 + y_95 - z_5489 >= 0
 c5491: y_0 + y_2 + y_27 + y_42 + y_55 + y_64 - z_5490 >= 0
 c5492: y_25 + y_29 + y_35 + y_50 + y_56 + y_77 + y_87 - z_5491 >= 0
 c5493: y_11 + y_24 + y_52 + y_59 + y_68 + y_70 + y_86 + y_97 - z_5492 >= 0
 c5494: y_40 + y_83 + y_85 + y_92 - z_5493 >= 0
 c5495: y_16 + y_17 + y_39 + y_53 + y_54 + y_58 + y_63 + y_64 + y_91 - z_5494
         >= 0
 c5496: y_25 + y_29 + y_35 + y_77 - z_5495 >= 0
 c5497: y_4 + y_12 + y_22 + y_32 + y_88 - z_5496 >= 0
 c5498: y_3 + y_19 + y_21 + y_33 + y_38 + y_41 + y_43 + y_44 + y_48 + y_79
        - z_5497 >= 0
 c5499: y_8 + y_15 + y_20 + y_41 + y_46 + y_61 + y_75 + y_79 + y_80 + y_93
        + y_95 - z_5498 >= 0
 c5500: y_0 + y_27 + y_42 - z_5499 >= 0
 c5501: y_4 + y_9 + y_26 + y_32 + y_38 + y_44 + y_67 + y_69 + y_90 - z_5500 >= 
        0
 c5502: y_5 + y_17 + y_34 - z_5501 >= 0
 c5503: y_16 + y_50 + y_56 + y_66 - z_5502 >= 0
 c5504: y_58 + y_91 - z_5503 >= 0
 c5505: y_65 - z_5504 >= 0
 c5506: y_65 - z_5505 >= 0
 c5507: y_3 + y_15 + y_19 + y_20 + y_21 + y_33 + y_36 + y_38 + y_41 + y_44
        + y_47 + y_48 + y_61 + y_79 - z_5506 >= 0
 c5508: y_4 + y_6 + y_12 + y_22 + y_32 + y_88 - z_5507 >= 0
 c5509: y_92 - z_5508 >= 0
 c5510: y_16 + y_39 + y_50 + y_54 + y_56 + y_58 + y_66 - z_5509 >= 0
 c5511: y_25 + y_29 + y_35 + y_77 - z_5510 >= 0
 c5512: y_3 + y_5 + y_19 + y_33 + y_34 + y_38 + y_44 + y_90 - z_5511 >= 0
 c5513: y_3 + y_5 + y_20 + y_33 + y_34 + y_44 + y_48 + y_61 + y_79 + y_80 + y_93
        - z_5512 >= 0
 c5514: y_18 + y_21 + y_36 + y_41 + y_47 - z_5513 >= 0
 c5515: y_16 + y_39 + y_53 + y_54 + y_58 + y_91 - z_5514 >= 0
 c5516: y_3 + y_15 + y_20 + y_21 + y_33 + y_41 + y_44 + y_47 + y_48 + y_61
        + y_79 + y_93 - z_5515 >= 0
 c5517: y_24 + y_70 + y_86 - z_5516 >= 0
 c5518: y_4 + y_6 + y_32 + y_90 - z_5517 >= 0
 c5519: y_3 + y_11 + y_19 + y_30 + y_38 + y_43 + y_52 + y_59 + y_68 + y_69
        - z_5518 >= 0
 c5520: y_45 - z_5519 >= 0
 c5521: y_2 + y_14 + y_27 + y_82 + y_83 - z_5520 >= 0
 c5522: y_16 + y_39 + y_53 + y_54 + y_55 + y_58 + y_63 + y_64 + y_66 + y_91
        - z_5521 >= 0
 c5523: y_24 + y_52 + y_59 + y_70 + y_86 - z_5522 >= 0
 c5524: y_1 + y_37 + y_73 + y_96 + y_99 - z_5523 >= 0
 c5525: y_0 + y_2 + y_14 + y_27 + y_42 + y_82 - z_5524 >= 0
 c5526: y_10 + y_12 + y_88 - z_5525 >= 0
 c5527: y_6 + y_22 - z_5526 >= 0
 c5528: y_11 + y_68 + y_86 + y_97 - z_5527 >= 0
 c5529: y_9 + y_12 + y_71 + y_88 - z_5528 >= 0
 c5530: y_1 + y_73 + y_96 - z_5529 >= 0
 c5531: y_2 + y_14 + y_27 + y_42 + y_55 + y_82 + y_83 - z_5530 >= 0
 c5532: y_15 + y_18 + y_20 + y_21 + y_36 + y_41 + y_47 + y_48 + y_61 + y_79
        + y_95 - z_5531 >= 0
 c5533: y_11 + y_19 + y_38 + y_43 + y_52 + y_59 + y_67 + y_68 + y_69 - z_5532
         >= 0
 c5534: y_6 + y_22 + y_90 - z_5533 >= 0
 c5535: y_16 + y_39 + y_40 + y_54 + y_55 + y_63 + y_64 + y_66 - z_5534 >= 0
 c5536: y_37 + y_45 - z_5535 >= 0
 c5537: y_5 + y_34 + y_61 + y_93 - z_5536 >= 0
 c5538: y_45 - z_5537 >= 0
 c5539: y_8 + y_15 + y_20 + y_34 + y_41 + y_46 + y_61 + y_75 + y_79 + y_80
        + y_93 + y_95 - z_5538 >= 0
 c5540: y_4 + y_6 + y_22 + y_32 + y_90 - z_5539 >= 0
 c5541: y_10 + y_12 + y_57 + y_72 + y_78 + y_88 - z_5540 >= 0
 c5542: y_0 + y_27 + y_42 + y_64 - z_5541 >= 0
 c5543: y_1 + y_8 + y_23 + y_46 + y_49 + y_73 + y_75 - z_5542 >= 0
 c5544: y_3 + y_11 + y_19 + y_33 + y_38 + y_43 + y_48 + y_52 + y_59 + y_69
        - z_5543 >= 0
 c5545: - z_5544 >= 0
 c5546: y_25 + y_29 + y_35 + y_50 + y_56 + y_66 + y_77 + y_87 - z_5545 >= 0
 c5547: y_21 + y_30 + y_36 + y_43 + y_47 + y_59 + y_94 - z_5546 >= 0
 c5548: y_9 + y_12 + y_71 - z_5547 >= 0
 c5549: y_0 + y_42 + y_53 + y_55 + y_63 + y_64 - z_5548 >= 0
 c5550: y_0 + y_27 + y_45 - z_5549 >= 0
 c5551: y_1 + y_23 + y_46 + y_49 + y_74 + y_95 + y_98 - z_5550 >= 0
 c5552: y_10 + y_13 + y_57 + y_60 + y_72 + y_76 + y_78 + y_81 - z_5551 >= 0
 c5553: y_25 + y_29 + y_35 + y_50 + y_56 + y_77 + y_87 - z_5552 >= 0
 c5554: y_83 + y_85 + y_92 - z_5553 >= 0
 c5555: y_83 + y_84 + y_85 - z_5554 >= 0
 c5556: y_25 + y_29 + y_35 + y_77 - z_5555 >= 0
 c5557: y_22 + y_65 - z_5556 >= 0
 c5558: y_25 + y_29 + y_35 + y_77 + y_87 - z_5557 >= 0
 c5559: y_11 + y_19 + y_26 + y_38 + y_43 + y_52 + y_59 + y_67 + y_68 + y_69
        - z_5558 >= 0
 c5560: y_0 + y_45 - z_5559 >= 0
 c5561: y_0 + y_27 + y_42 + y_55 + y_64 - z_5560 >= 0
 c5562: y_40 + y_66 + y_87 + y_92 - z_5561 >= 0
 c5563: y_3 + y_19 + y_33 + y_38 + y_44 + y_48 - z_5562 >= 0
 c5564: y_25 + y_35 + y_40 + y_77 + y_87 + y_92 - z_5563 >= 0
 c5565: y_4 + y_9 + y_26 + y_32 + y_71 - z_5564 >= 0
 c5566: y_15 + y_18 + y_20 + y_41 + y_46 + y_47 + y_49 + y_61 + y_74 + y_75
        + y_79 + y_80 + y_93 + y_95 - z_5565 >= 0
 c5567: y_3 + y_5 + y_20 + y_33 + y_34 + y_44 + y_48 + y_61 + y_79 + y_93
        - z_5566 >= 0
 c5568: y_24 + y_52 + y_59 + y_70 + y_86 - z_5567 >= 0
 c5569: y_1 + y_23 + y_31 + y_49 + y_73 + y_89 + y_98 + y_99 - z_5568 >= 0
 c5570: y_97 - z_5569 >= 0
 c5571: y_45 - z_5570 >= 0
 c5572: y_16 + y_39 + y_40 + y_42 + y_54 + y_55 + y_63 + y_64 - z_5571 >= 0
 c5573: y_2 + y_14 + y_27 + y_42 + y_55 + y_82 + y_83 - z_5572 >= 0
 c5574: y_29 - z_5573 >= 0
 c5575: y_10 + y_76 + y_78 + y_81 - z_5574 >= 0
 c5576: y_15 + y_18 + y_20 + y_36 + y_41 + y_46 + y_47 + y_49 + y_61 + y_74
        + y_79 + y_80 + y_93 + y_95 - z_5575 >= 0
 c5577: y_16 + y_39 + y_40 + y_54 + y_66 + y_87 + y_92 - z_5576 >= 0
 c5578: y_24 + y_70 + y_86 - z_5577 >= 0
 c5579: y_37 + y_45 - z_5578 >= 0
 c5580: y_13 + y_28 + y_60 + y_76 + y_78 + y_81 - z_5579 >= 0
 c5581: y_4 + y_9 + y_19 + y_26 + y_32 + y_38 + y_44 + y_67 + y_69 - z_5580 >= 
        0
 c5582: y_37 + y_45 - z_5581 >= 0
 c5583: y_29 - z_5582 >= 0
 c5584: y_25 + y_40 + y_54 + y_66 + y_77 + y_87 + y_92 - z_5583 >= 0
 c5585: y_37 + y_45 - z_5584 >= 0
 c5586: y_1 + y_7 + y_23 + y_31 + y_51 + y_73 + y_89 + y_98 + y_99 - z_5585 >= 
        0
 c5587: y_4 + y_9 + y_26 + y_32 + y_67 + y_69 - z_5586 >= 0
 c5588: y_13 + y_28 + y_60 + y_76 + y_81 - z_5587 >= 0
 c5589: y_0 + y_45 - z_5588 >= 0
 c5590: y_11 + y_24 + y_30 + y_43 + y_52 + y_59 + y_68 + y_70 + y_86 - z_5589
         >= 0
 c5591: y_1 + y_8 + y_73 + y_75 + y_96 - z_5590 >= 0
 c5592: y_0 + y_27 + y_42 + y_55 + y_63 + y_64 - z_5591 >= 0
 c5593: y_7 + y_31 + y_37 + y_51 + y_62 + y_89 + y_99 - z_5592 >= 0
 c5594: y_3 + y_15 + y_18 + y_21 + y_33 + y_36 + y_41 + y_47 + y_48 + y_79
        - z_5593 >= 0
 c5595: y_5 + y_6 + y_58 + y_90 + y_91 - z_5594 >= 0
 c5596: y_37 + y_45 + y_89 - z_5595 >= 0
 c5597: y_24 + y_30 + y_43 + y_52 + y_59 + y_70 + y_94 - z_5596 >= 0
 c5598: y_4 + y_5 + y_6 + y_32 + y_90 - z_5597 >= 0
 c5599: y_28 + y_60 - z_5598 >= 0
 c5600: y_23 + y_46 + y_49 + y_74 + y_95 - z_5599 >= 0
 c5601: y_17 + y_53 + y_91 + y_96 - z_5600 >= 0
 c5602: y_1 + y_23 + y_31 + y_73 + y_89 + y_98 + y_99 - z_5601 >= 0
 c5603: y_11 + y_24 + y_30 + y_43 + y_52 + y_59 + y_70 - z_5602 >= 0
 c5604: y_83 + y_84 + y_85 - z_5603 >= 0
 c5605: y_25 + y_29 + y_35 + y_77 - z_5604 >= 0
 c5606: y_2 + y_14 + y_82 + y_83 + y_85 - z_5605 >= 0
 c5607: y_1 + y_8 + y_73 + y_75 + y_80 + y_96 - z_5606 >= 0
 c5608: y_5 + y_8 + y_17 + y_34 + y_75 + y_80 + y_96 - z_5607 >= 0
 c5609: y_25 + y_29 + y_35 + y_77 - z_5608 >= 0
 c5610: y_25 + y_29 + y_35 + y_77 - z_5609 >= 0
 c5611: y_17 + y_53 + y_58 + y_91 - z_5610 >= 0
 c5612: y_1 + y_8 + y_73 + y_75 + y_96 - z_5611 >= 0
 c5613: y_25 + y_29 + y_35 + y_50 + y_56 + y_77 - z_5612 >= 0
 c5614: y_4 + y_12 + y_22 + y_32 + y_88 - z_5613 >= 0
 c5615: y_11 + y_24 + y_30 + y_43 + y_52 + y_59 + y_68 + y_69 + y_70 - z_5614
         >= 0
 c5616: y_3 + y_15 + y_19 + y_20 + y_21 + y_33 + y_38 + y_41 + y_44 + y_47
        + y_48 + y_61 + y_79 - z_5615 >= 0
 c5617: y_29 + y_50 + y_56 + y_65 - z_5616 >= 0
 c5618: y_17 + y_34 + y_53 + y_91 - z_5617 >= 0
 c5619: y_9 + y_12 + y_71 + y_88 - z_5618 >= 0
 c5620: y_5 + y_17 + y_34 + y_53 + y_91 - z_5619 >= 0
 c5621: y_5 + y_6 + y_58 + y_90 + y_91 - z_5620 >= 0
 c5622: y_40 + y_55 + y_92 - z_5621 >= 0
 c5623: y_12 + y_22 + y_57 + y_72 + y_88 - z_5622 >= 0
 c5624: y_1 + y_31 + y_37 + y_73 + y_89 + y_99 - z_5623 >= 0
 c5625: y_22 + y_56 + y_65 - z_5624 >= 0
 c5626: y_1 + y_23 + y_31 + y_49 + y_98 + y_99 - z_5625 >= 0
 c5627: y_0 + y_96 - z_5626 >= 0
 c5628: y_16 + y_39 + y_40 + y_50 + y_54 + y_66 + y_87 - z_5627 >= 0
 c5629: y_1 + y_8 + y_20 + y_46 + y_49 + y_75 + y_80 + y_93 + y_95 - z_5628 >= 
        0
 c5630: y_1 + y_8 + y_46 + y_49 + y_73 + y_75 - z_5629 >= 0
 c5631: y_40 + y_87 + y_92 - z_5630 >= 0
 c5632: y_25 + y_35 + y_40 + y_66 + y_77 + y_87 + y_92 - z_5631 >= 0
 c5633: y_22 + y_57 + y_65 + y_72 - z_5632 >= 0
 c5634: y_16 + y_17 + y_39 + y_53 + y_58 + y_63 + y_64 + y_91 - z_5633 >= 0
 c5635: y_16 + y_39 + y_40 + y_42 + y_54 + y_55 + y_63 + y_64 + y_66 + y_87
        - z_5634 >= 0
 c5636: y_2 + y_14 + y_82 + y_83 - z_5635 >= 0
 c5637: y_1 + y_37 + y_73 + y_96 + y_99 - z_5636 >= 0
 c5638: y_29 + y_35 + y_77 - z_5637 >= 0
 c5639: y_10 + y_13 + y_57 + y_60 + y_72 + y_76 + y_78 + y_81 - z_5638 >= 0
 c5640: y_0 + y_64 - z_5639 >= 0
 c5641: y_5 + y_8 + y_17 + y_34 - z_5640 >= 0
 c5642: y_6 + y_22 - z_5641 >= 0
 c5643: y_24 + y_30 + y_43 + y_52 + y_59 + y_70 - z_5642 >= 0
 c5644: y_8 + y_15 + y_20 + y_46 + y_49 + y_75 + y_80 + y_93 + y_95 - z_5643
         >= 0
 c5645: y_0 + y_27 + y_42 + y_55 + y_63 + y_64 - z_5644 >= 0
 c5646: y_17 + y_39 + y_53 + y_58 + y_63 + y_91 - z_5645 >= 0
 c5647: y_50 + y_56 - z_5646 >= 0
 c5648: y_8 + y_15 + y_20 + y_34 + y_61 + y_75 + y_80 + y_93 - z_5647 >= 0
 c5649: y_50 + y_56 + y_65 - z_5648 >= 0
 c5650: y_13 + y_28 + y_60 + y_72 + y_76 + y_78 + y_81 - z_5649 >= 0
 c5651: y_25 + y_29 + y_35 + y_50 + y_56 + y_66 + y_77 + y_87 - z_5650 >= 0
 c5652: y_22 + y_65 - z_5651 >= 0
 c5653: y_1 + y_37 + y_73 + y_89 + y_96 + y_99 - z_5652 >= 0
 c5654: y_18 + y_21 + y_30 + y_36 + y_41 + y_47 + y_94 - z_5653 >= 0
 c5655: y_2 + y_14 + y_82 + y_83 + y_84 + y_85 - z_5654 >= 0
 c5656: y_6 + y_58 + y_90 + y_91 - z_5655 >= 0
 c5657: y_1 + y_23 + y_31 + y_46 + y_49 + y_73 + y_89 + y_98 + y_99 - z_5656
         >= 0
 c5658: y_1 + y_7 + y_23 + y_31 + y_51 + y_62 + y_89 + y_98 + y_99 - z_5657 >= 
        0
 c5659: y_0 + y_64 - z_5658 >= 0
 c5660: y_8 + y_17 + y_96 - z_5659 >= 0
 c5661: y_0 + y_27 + y_42 + y_55 + y_64 - z_5660 >= 0
 c5662: y_10 + y_57 + y_72 + y_76 + y_78 + y_81 - z_5661 >= 0
 c5663: y_5 + y_8 + y_20 + y_34 + y_61 + y_80 + y_93 - z_5662 >= 0
 c5664: y_7 + y_31 + y_51 + y_62 - z_5663 >= 0
 c5665: y_2 + y_14 + y_82 + y_83 + y_84 + y_85 - z_5664 >= 0
 c5666: y_12 + y_71 + y_88 - z_5665 >= 0
 c5667: y_12 + y_22 + y_32 + y_88 - z_5666 >= 0
 c5668: y_2 + y_40 + y_83 + y_85 + y_92 - z_5667 >= 0
 c5669: y_10 + y_13 + y_57 + y_60 + y_72 + y_76 + y_78 + y_81 - z_5668 >= 0
 c5670: y_13 + y_28 + y_60 + y_76 + y_81 - z_5669 >= 0
 c5671: y_4 + y_6 + y_32 + y_90 - z_5670 >= 0
 c5672: y_25 + y_29 + y_35 + y_50 + y_77 + y_87 - z_5671 >= 0
 c5673: y_6 + y_22 - z_5672 >= 0
 c5674: y_10 + y_13 + y_60 + y_76 + y_78 + y_81 - z_5673 >= 0
 c5675: y_1 + y_31 + y_37 + y_73 + y_89 + y_99 - z_5674 >= 0
 c5676: y_1 + y_8 + y_73 + y_75 + y_96 - z_5675 >= 0
 c5677: y_11 + y_24 + y_52 + y_59 + y_68 + y_70 + y_86 + y_97 - z_5676 >= 0
 c5678: y_45 - z_5677 >= 0
 c5679: y_15 + y_18 + y_21 + y_36 + y_41 + y_47 + y_95 - z_5678 >= 0
 c5680: y_17 + y_39 + y_53 + y_58 + y_91 - z_5679 >= 0
 c5681: y_9 + y_26 + y_67 + y_71 - z_5680 >= 0
 c5682: y_0 + y_27 + y_42 + y_55 - z_5681 >= 0
 c5683: y_67 + y_68 + y_97 - z_5682 >= 0
 c5684: y_25 + y_29 + y_35 + y_50 + y_56 + y_77 + y_87 - z_5683 >= 0
 c5685: y_45 + y_96 - z_5684 >= 0
 c5686: y_13 + y_57 + y_60 + y_65 + y_72 + y_76 + y_78 + y_81 - z_5685 >= 0
 c5687: y_9 + y_11 + y_26 + y_67 + y_68 + y_69 + y_97 - z_5686 >= 0
 c5688: y_4 + y_6 + y_22 + y_32 + y_90 - z_5687 >= 0
 c5689: y_10 + y_12 + y_57 + y_72 + y_78 + y_88 - z_5688 >= 0
 c5690: y_18 + y_46 + y_49 + y_74 + y_95 - z_5689 >= 0
 c5691: y_10 + y_12 + y_88 - z_5690 >= 0
 c5692: y_25 + y_35 + y_40 + y_77 + y_87 + y_92 - z_5691 >= 0
 c5693: y_4 + y_9 + y_26 + y_32 + y_67 + y_69 - z_5692 >= 0
 c5694: y_1 + y_8 + y_73 + y_75 + y_80 + y_96 - z_5693 >= 0
 c5695: y_16 + y_25 + y_40 + y_50 + y_54 + y_56 + y_66 + y_87 - z_5694 >= 0
 c5696: y_9 + y_26 + y_67 + y_68 + y_69 - z_5695 >= 0
 c5697: y_83 + y_85 - z_5696 >= 0
 c5698: y_11 + y_24 + y_52 + y_68 + y_70 + y_86 + y_97 - z_5697 >= 0
 c5699: y_0 + y_64 - z_5698 >= 0
 c5700: y_37 + y_45 - z_5699 >= 0
 c5701: y_10 + y_13 + y_28 + y_60 + y_76 + y_78 + y_81 - z_5700 >= 0
 c5702: y_2 + y_83 + y_85 - z_5701 >= 0
 c5703: y_2 + y_83 + y_85 - z_5702 >= 0
 c5704: y_15 + y_18 + y_46 + y_47 + y_49 + y_74 + y_95 - z_5703 >= 0
 c5705: y_25 + y_29 + y_50 + y_56 + y_66 + y_77 + y_87 - z_5704 >= 0
 c5706: y_45 - z_5705 >= 0
 c5707: y_5 + y_17 + y_53 + y_58 + y_91 - z_5706 >= 0
 c5708: y_8 + y_20 + y_46 + y_75 + y_80 + y_93 + y_95 - z_5707 >= 0
 c5709: y_12 + y_57 + y_72 + y_88 - z_5708 >= 0
 c5710: y_5 + y_15 + y_20 + y_33 + y_34 + y_44 + y_48 + y_61 + y_79 + y_80
        + y_93 - z_5709 >= 0
 c5711: y_5 + y_8 + y_20 + y_34 + y_61 + y_80 + y_93 - z_5710 >= 0
 c5712: y_6 + y_22 - z_5711 >= 0
 c5713: y_0 + y_16 + y_39 + y_42 + y_53 + y_54 + y_55 + y_63 + y_64 - z_5712
         >= 0
 c5714: y_4 + y_9 + y_12 + y_32 + y_88 - z_5713 >= 0
 c5715: y_2 + y_14 + y_82 + y_83 + y_85 - z_5714 >= 0
 c5716: y_11 + y_24 + y_30 + y_43 + y_52 + y_59 + y_68 + y_70 - z_5715 >= 0
 c5717: y_29 - z_5716 >= 0
 c5718: y_10 + y_13 + y_60 + y_72 + y_76 + y_78 + y_81 - z_5717 >= 0
 c5719: y_4 + y_9 + y_26 + y_32 + y_67 + y_69 - z_5718 >= 0
 c5720: y_9 + y_26 + y_67 + y_69 + y_71 + y_97 - z_5719 >= 0
 c5721: y_7 + y_23 + y_51 + y_98 - z_5720 >= 0
 c5722: y_12 + y_22 + y_57 + y_72 + y_88 - z_5721 >= 0
 c5723: y_15 + y_18 + y_20 + y_21 + y_36 + y_41 + y_47 + y_48 + y_61 + y_79
        + y_80 + y_93 + y_95 - z_5722 >= 0
 c5724: y_9 + y_26 + y_67 + y_69 - z_5723 >= 0
 c5725: y_4 + y_9 + y_26 + y_32 + y_67 + y_69 - z_5724 >= 0
 c5726: y_3 + y_19 + y_33 + y_38 + y_44 + y_48 - z_5725 >= 0
 c5727: y_3 + y_19 + y_26 + y_33 + y_38 + y_44 + y_67 + y_69 - z_5726 >= 0
 c5728: y_24 + y_52 + y_59 + y_70 + y_86 - z_5727 >= 0
 c5729: y_10 + y_12 + y_57 + y_72 + y_78 + y_88 - z_5728 >= 0
 c5730: y_15 + y_18 + y_21 + y_36 + y_41 + y_47 + y_79 + y_95 - z_5729 >= 0
 c5731: y_5 + y_34 - z_5730 >= 0
 c5732: y_1 + y_7 + y_23 + y_31 + y_37 + y_51 + y_73 + y_89 + y_98 + y_99
        - z_5731 >= 0
 c5733: y_15 + y_18 + y_46 + y_49 + y_74 + y_95 - z_5732 >= 0
 c5734: y_7 + y_31 + y_37 + y_51 + y_89 + y_99 - z_5733 >= 0
 c5735: y_25 + y_29 + y_35 + y_77 + y_87 + y_92 - z_5734 >= 0
 c5736: y_6 + y_58 - z_5735 >= 0
 c5737: y_9 + y_26 + y_67 + y_71 + y_97 - z_5736 >= 0
 c5738: y_17 + y_96 - z_5737 >= 0
 c5739: y_15 + y_18 + y_21 + y_36 + y_41 + y_47 + y_48 + y_79 + y_95 - z_5738
         >= 0
 c5740: y_4 + y_9 + y_26 + y_32 + y_38 + y_67 + y_69 - z_5739 >= 0
 c5741: y_5 + y_17 + y_34 + y_58 + y_91 - z_5740 >= 0
 c5742: y_3 + y_19 + y_21 + y_33 + y_38 + y_44 + y_48 + y_79 - z_5741 >= 0
 c5743: y_4 + y_12 + y_22 + y_32 + y_88 - z_5742 >= 0
 c5744: y_0 + y_16 + y_39 + y_42 + y_53 + y_54 + y_55 + y_63 + y_64 - z_5743
         >= 0
 c5745: y_40 + y_55 + y_92 - z_5744 >= 0
 c5746: y_22 + y_57 + y_65 + y_72 - z_5745 >= 0
 c5747: y_2 + y_40 + y_83 + y_85 + y_92 - z_5746 >= 0
 c5748: y_12 + y_71 + y_88 - z_5747 >= 0
 c5749: y_13 + y_28 + y_60 + y_76 + y_81 - z_5748 >= 0
 c5750: y_4 + y_9 + y_26 + y_32 + y_38 + y_67 + y_69 - z_5749 >= 0
 c5751: y_9 + y_26 + y_67 + y_69 + y_71 - z_5750 >= 0
 c5752: y_10 + y_13 + y_60 + y_76 + y_78 + y_81 - z_5751 >= 0
 c5753: y_3 + y_11 + y_19 + y_33 + y_38 + y_43 + y_48 + y_67 + y_68 + y_69
        - z_5752 >= 0
 c5754: y_1 + y_8 + y_73 + y_75 + y_96 - z_5753 >= 0
 c5755: y_23 + y_46 + y_49 + y_74 + y_98 - z_5754 >= 0
 c5756: y_50 + y_56 + y_65 - z_5755 >= 0
 c5757: y_5 + y_15 + y_20 + y_33 + y_34 + y_44 + y_48 + y_61 + y_79 + y_80
        + y_93 - z_5756 >= 0
 c5758: y_37 + y_45 + y_89 - z_5757 >= 0
 c5759: y_9 + y_11 + y_26 + y_38 + y_67 + y_68 + y_69 + y_97 - z_5758 >= 0
 c5760: y_11 + y_24 + y_52 + y_59 + y_68 + y_70 + y_86 - z_5759 >= 0
 c5761: y_0 + y_2 + y_14 + y_27 + y_42 + y_55 - z_5760 >= 0
 c5762: y_9 + y_11 + y_26 + y_67 + y_68 + y_69 + y_97 - z_5761 >= 0
 c5763: y_50 + y_56 - z_5762 >= 0
 c5764: y_9 + y_12 + y_71 + y_88 - z_5763 >= 0
 c5765: y_22 + y_57 + y_65 + y_72 - z_5764 >= 0
 c5766: y_12 + y_57 + y_88 - z_5765 >= 0
 c5767: y_2 + y_14 + y_82 + y_83 + y_84 + y_85 - z_5766 >= 0
 c5768: y_16 + y_25 + y_40 + y_50 + y_54 + y_66 + y_77 + y_87 + y_92 - z_5767
         >= 0
 c5769: y_0 + y_14 + y_27 + y_42 - z_5768 >= 0
 c5770: y_37 + y_45 + y_73 - z_5769 >= 0
 c5771: y_22 + y_57 + y_65 + y_72 - z_5770 >= 0
 c5772: y_1 + y_31 + y_37 + y_73 + y_89 + y_99 - z_5771 >= 0
 c5773: y_7 + y_31 + y_51 + y_62 + y_89 + y_99 - z_5772 >= 0
 c5774: y_25 + y_29 + y_35 + y_50 + y_56 + y_66 + y_77 + y_87 - z_5773 >= 0
 c5775: y_17 + y_53 + y_58 + y_91 - z_5774 >= 0
 c5776: y_9 + y_71 - z_5775 >= 0
 c5777: y_2 + y_42 + y_55 + y_83 + y_85 - z_5776 >= 0
 c5778: y_12 + y_22 + y_57 + y_65 + y_72 + y_78 + y_88 - z_5777 >= 0
 c5779: y_50 + y_56 + y_65 - z_5778 >= 0
 c5780: y_1 + y_73 + y_96 - z_5779 >= 0
 c5781: y_15 + y_18 + y_36 + y_41 + y_46 + y_47 + y_49 + y_74 + y_79 + y_95
        - z_5780 >= 0
 c5782: y_12 + y_71 + y_88 - z_5781 >= 0
 c5783: y_9 + y_11 + y_26 + y_67 + y_68 + y_69 + y_97 - z_5782 >= 0
 c5784: y_25 + y_35 + y_40 + y_77 + y_87 + y_92 - z_5783 >= 0
 c5785: y_9 + y_71 - z_5784 >= 0
 c5786: y_0 + y_16 + y_39 + y_42 + y_54 + y_55 + y_63 + y_64 - z_5785 >= 0
 c5787: y_37 + y_45 + y_73 + y_96 - z_5786 >= 0
 c5788: y_11 + y_24 + y_52 + y_59 + y_67 + y_68 + y_69 + y_70 + y_86 + y_97
        - z_5787 >= 0
 c5789: y_5 + y_17 + y_34 + y_91 - z_5788 >= 0
 c5790: y_2 + y_14 + y_82 + y_83 + y_84 + y_85 - z_5789 >= 0
 c5791: y_13 + y_28 + y_60 + y_76 - z_5790 >= 0
 c5792: y_46 + y_49 + y_74 + y_95 - z_5791 >= 0
 c5793: y_3 + y_11 + y_19 + y_30 + y_38 + y_43 + y_52 + y_59 + y_67 + y_68
        + y_69 - z_5792 >= 0
 c5794: y_4 + y_9 + y_26 + y_32 + y_38 + y_44 + y_67 + y_69 - z_5793 >= 0
 c5795: y_13 + y_28 + y_60 + y_76 - z_5794 >= 0
 c5796: y_3 + y_4 + y_19 + y_26 + y_32 + y_33 + y_38 + y_44 + y_90 - z_5795 >= 
        0
 c5797: y_0 + y_27 + y_42 - z_5796 >= 0
 c5798: y_13 + y_28 + y_60 + y_76 - z_5797 >= 0
 c5799: y_11 + y_52 + y_67 + y_68 + y_69 + y_97 - z_5798 >= 0
 c5800: y_13 + y_28 + y_60 + y_76 + y_78 + y_81 - z_5799 >= 0
 c5801: y_3 + y_19 + y_21 + y_33 + y_36 + y_38 + y_41 + y_43 + y_47 + y_48
        + y_79 - z_5800 >= 0
 c5802: y_29 + y_50 + y_56 + y_65 - z_5801 >= 0
 c5803: y_6 + y_58 + y_91 - z_5802 >= 0
 c5804: y_28 - z_5803 >= 0
 c5805: y_24 + y_70 + y_86 - z_5804 >= 0
 c5806: y_13 + y_57 + y_60 + y_72 + y_76 + y_78 + y_81 - z_5805 >= 0
 c5807: y_7 + y_31 + y_37 + y_51 + y_62 + y_89 + y_99 - z_5806 >= 0
 c5808: y_10 + y_13 + y_57 + y_60 + y_72 + y_76 + y_78 + y_81 - z_5807 >= 0
 c5809: y_16 + y_39 + y_53 + y_54 + y_58 + y_63 + y_64 + y_66 + y_91 - z_5808
         >= 0
 c5810: y_1 + y_31 + y_37 + y_73 + y_89 + y_99 - z_5809 >= 0
 c5811: y_56 + y_65 - z_5810 >= 0
 c5812: y_22 + y_50 + y_56 + y_65 - z_5811 >= 0
 c5813: y_5 + y_17 + y_53 + y_58 + y_91 - z_5812 >= 0
 c5814: y_4 + y_6 + y_32 + y_44 + y_90 - z_5813 >= 0
 c5815: y_4 + y_6 + y_22 + y_32 + y_88 - z_5814 >= 0
 c5816: y_8 + y_17 + y_75 + y_96 - z_5815 >= 0
 c5817: - z_5816 >= 0
 c5818: y_1 + y_37 + y_73 + y_89 + y_96 + y_99 - z_5817 >= 0
 c5819: y_15 + y_20 + y_21 + y_33 + y_36 + y_41 + y_47 + y_48 + y_61 + y_79
        + y_80 + y_93 + y_95 - z_5818 >= 0
 c5820: y_17 + y_53 + y_96 - z_5819 >= 0
 c5821: y_1 + y_23 + y_31 + y_49 + y_89 + y_98 + y_99 - z_5820 >= 0
 c5822: y_1 + y_8 + y_46 + y_49 + y_73 + y_75 + y_80 + y_95 - z_5821 >= 0
 c5823: y_1 + y_8 + y_46 + y_49 + y_73 + y_75 + y_80 - z_5822 >= 0
 c5824: y_10 + y_78 - z_5823 >= 0
 c5825: y_11 + y_24 + y_43 + y_52 + y_59 + y_67 + y_68 + y_69 + y_70 + y_86
        + y_97 - z_5824 >= 0
 c5826: y_12 + y_71 - z_5825 >= 0
 c5827: y_71 - z_5826 >= 0
 c5828: y_17 + y_96 - z_5827 >= 0
 c5829: y_2 + y_83 + y_84 + y_85 - z_5828 >= 0
 c5830: y_10 + y_13 + y_57 + y_60 + y_72 + y_76 + y_78 + y_81 - z_5829 >= 0
 c5831: y_15 + y_20 + y_21 + y_33 + y_34 + y_41 + y_47 + y_48 + y_61 + y_79
        + y_80 + y_93 + y_95 - z_5830 >= 0
 c5832: y_1 + y_31 + y_37 + y_73 + y_89 + y_99 - z_5831 >= 0
 c5833: y_1 + y_37 + y_73 + y_96 - z_5832 >= 0
 c5834: y_50 + y_56 + y_58 - z_5833 >= 0
 c5835: y_16 + y_25 + y_50 + y_54 + y_56 + y_66 + y_77 + y_87 - z_5834 >= 0
 c5836: y_0 + y_2 + y_27 + y_42 + y_55 + y_64 - z_5835 >= 0
 c5837: y_9 + y_71 - z_5836 >= 0
 c5838: y_11 + y_26 + y_52 + y_67 + y_68 + y_69 + y_97 - z_5837 >= 0
 c5839: y_65 - z_5838 >= 0
 c5840: y_12 + y_71 + y_88 - z_5839 >= 0
 c5841: y_2 + y_14 + y_82 + y_83 + y_84 + y_85 - z_5840 >= 0
 c5842: y_7 + y_23 + y_31 + y_51 + y_62 + y_98 - z_5841 >= 0
 c5843: y_5 + y_8 + y_34 + y_61 + y_80 + y_93 - z_5842 >= 0
 c5844: y_17 + y_53 + y_58 + y_91 - z_5843 >= 0
 c5845: y_8 + y_73 + y_75 + y_96 - z_5844 >= 0
 c5846: y_40 + y_87 + y_92 - z_5845 >= 0
 c5847: y_5 + y_6 + y_34 + y_44 + y_90 - z_5846 >= 0
 c5848: y_0 + y_2 + y_14 + y_27 + y_42 + y_55 + y_82 - z_5847 >= 0
 c5849: y_22 + y_88 - z_5848 >= 0
 c5850: y_8 + y_15 + y_20 + y_46 + y_49 + y_61 + y_75 + y_79 + y_80 + y_93
        + y_95 - z_5849 >= 0
 c5851: y_17 + y_39 + y_53 + y_58 + y_63 + y_91 - z_5850 >= 0
 c5852: y_9 + y_11 + y_26 + y_67 + y_68 + y_69 + y_97 - z_5851 >= 0
 c5853: y_2 + y_14 + y_82 - z_5852 >= 0
 c5854: y_50 + y_56 - z_5853 >= 0
 c5855: y_4 + y_6 + y_32 + y_90 - z_5854 >= 0
 c5856: y_0 + y_16 + y_39 + y_42 + y_54 + y_55 + y_63 + y_64 - z_5855 >= 0
 c5857: y_5 + y_8 + y_17 + y_34 + y_75 + y_96 - z_5856 >= 0
 c5858: y_65 - z_5857 >= 0
 c5859: y_3 + y_11 + y_19 + y_30 + y_38 + y_43 + y_52 + y_59 + y_67 + y_68
        + y_69 - z_5858 >= 0
 c5860: y_46 + y_49 + y_74 + y_95 - z_5859 >= 0
 c5861: y_16 + y_56 + y_58 + y_91 - z_5860 >= 0
 c5862: y_24 + y_30 + y_43 + y_52 + y_59 + y_70 + y_86 - z_5861 >= 0
 c5863: y_83 + y_84 + y_85 - z_5862 >= 0
 c5864: y_22 + y_57 + y_65 + y_72 - z_5863 >= 0
 c5865: y_3 + y_15 + y_19 + y_20 + y_21 + y_33 + y_36 + y_41 + y_47 + y_48
        + y_61 + y_79 - z_5864 >= 0
 c5866: y_24 + y_52 + y_59 + y_70 + y_86 - z_5865 >= 0
 c5867: y_57 + y_65 + y_72 - z_5866 >= 0
 c5868: y_16 + y_39 + y_40 + y_54 + y_55 + y_63 + y_64 + y_66 + y_87 - z_5867
         >= 0
 c5869: y_25 + y_29 + y_35 + y_50 + y_77 - z_5868 >= 0
 c5870: y_8 + y_15 + y_20 + y_46 + y_61 + y_75 + y_79 + y_80 + y_93 + y_95
        - z_5869 >= 0
 c5871: y_16 + y_39 + y_53 + y_54 + y_58 + y_63 + y_66 + y_87 + y_91 - z_5870
         >= 0
 c5872: y_10 + y_13 + y_57 + y_60 + y_72 + y_76 + y_78 + y_81 - z_5871 >= 0
 c5873: y_0 + y_27 + y_42 - z_5872 >= 0
 c5874: y_50 + y_56 + y_65 - z_5873 >= 0
 c5875: y_30 + y_43 + y_59 + y_94 - z_5874 >= 0
 c5876: y_11 + y_26 + y_52 + y_67 + y_68 + y_69 + y_97 - z_5875 >= 0
 c5877: y_22 + y_50 + y_56 + y_65 - z_5876 >= 0
 c5878: y_16 + y_39 + y_42 + y_53 + y_54 + y_55 + y_63 + y_64 + y_66 - z_5877
         >= 0
 c5879: y_21 + y_30 + y_43 + y_59 + y_94 - z_5878 >= 0
 c5880: y_5 + y_8 + y_20 + y_34 + y_61 + y_75 + y_80 + y_93 - z_5879 >= 0
 c5881: y_73 + y_96 - z_5880 >= 0
 c5882: y_40 + y_92 - z_5881 >= 0
 c5883: y_0 + y_27 + y_42 + y_55 + y_64 - z_5882 >= 0
 c5884: y_22 + y_56 + y_57 + y_65 - z_5883 >= 0
 c5885: y_15 + y_18 + y_21 + y_36 + y_41 + y_47 + y_48 + y_79 + y_94 - z_5884
         >= 0
 c5886: y_24 + y_52 + y_59 + y_70 + y_86 - z_5885 >= 0
 c5887: y_13 + y_57 + y_65 + y_72 - z_5886 >= 0
 c5888: y_13 + y_57 + y_60 + y_65 + y_72 + y_76 + y_78 - z_5887 >= 0
 c5889: y_17 + y_34 + y_53 + y_91 - z_5888 >= 0
 c5890: y_3 + y_19 + y_21 + y_33 + y_36 + y_41 + y_43 + y_47 + y_48 + y_79
        - z_5889 >= 0
 c5891: y_17 + y_53 + y_58 + y_91 - z_5890 >= 0
 c5892: y_15 + y_18 + y_46 + y_49 + y_74 + y_95 - z_5891 >= 0
 c5893: y_0 + y_16 + y_39 + y_42 + y_54 + y_55 + y_63 + y_64 - z_5892 >= 0
 c5894: y_13 - z_5893 >= 0
 c5895: y_3 + y_11 + y_19 + y_38 + y_43 + y_52 + y_59 + y_67 + y_68 + y_69
        - z_5894 >= 0
 c5896: y_23 + y_49 + y_74 + y_98 - z_5895 >= 0
 c5897: y_58 + y_91 - z_5896 >= 0
 c5898: y_10 + y_78 - z_5897 >= 0
 c5899: y_0 + y_16 + y_39 + y_42 + y_53 + y_54 + y_55 + y_63 + y_64 - z_5898
         >= 0
 c5900: y_25 + y_35 + y_40 + y_50 + y_66 + y_77 + y_87 + y_92 - z_5899 >= 0
 c5901: y_3 + y_4 + y_19 + y_26 + y_32 + y_33 + y_38 + y_44 + y_69 + y_90
        - z_5900 >= 0
 c5902: y_9 + y_12 + y_32 + y_71 + y_88 - z_5901 >= 0
 c5903: y_0 + y_27 + y_42 + y_55 + y_64 - z_5902 >= 0
 c5904: y_17 + y_39 + y_53 + y_58 + y_63 + y_64 + y_91 - z_5903 >= 0
 c5905: y_83 + y_84 + y_85 - z_5904 >= 0
 c5906: y_4 + y_6 + y_22 + y_32 + y_90 - z_5905 >= 0
 c5907: y_15 + y_18 + y_21 + y_36 + y_41 + y_47 + y_74 + y_79 + y_95 - z_5906
         >= 0
 c5908: y_22 + y_50 + y_56 + y_65 - z_5907 >= 0
 c5909: y_4 + y_9 + y_26 + y_32 + y_38 + y_44 + y_67 + y_69 - z_5908 >= 0
 c5910: y_4 + y_6 + y_22 + y_32 + y_90 - z_5909 >= 0
 c5911: y_25 + y_29 + y_35 + y_77 - z_5910 >= 0
 c5912: y_15 + y_18 + y_20 + y_21 + y_36 + y_41 + y_47 + y_48 + y_79 + y_95
        - z_5911 >= 0
 c5913: y_4 + y_5 + y_6 + y_32 + y_90 - z_5912 >= 0
 c5914: y_13 + y_60 + y_65 + y_72 + y_76 - z_5913 >= 0
 c5915: y_1 + y_7 + y_31 + y_37 + y_51 + y_73 + y_89 + y_98 + y_99 - z_5914 >= 
        0
 c5916: y_57 + y_65 + y_72 - z_5915 >= 0
 c5917: y_58 + y_91 - z_5916 >= 0
 c5918: y_16 + y_39 + y_42 + y_53 + y_54 + y_55 + y_63 + y_64 + y_66 - z_5917
         >= 0
 c5919: y_0 + y_16 + y_39 + y_42 + y_53 + y_55 + y_63 + y_64 - z_5918 >= 0
 c5920: y_73 + y_96 - z_5919 >= 0
 c5921: y_25 + y_29 + y_35 + y_50 + y_56 + y_77 - z_5920 >= 0
 c5922: y_24 + y_30 + y_43 + y_52 + y_59 + y_70 + y_86 - z_5921 >= 0
 c5923: y_9 + y_12 + y_71 - z_5922 >= 0
 c5924: y_12 + y_22 + y_57 + y_65 + y_72 + y_88 - z_5923 >= 0
 c5925: y_9 + y_12 + y_32 + y_71 + y_88 - z_5924 >= 0
 c5926: y_96 - z_5925 >= 0
 c5927: y_16 + y_39 + y_50 + y_54 + y_56 + y_66 + y_87 - z_5926 >= 0
 c5928: y_15 + y_18 + y_21 + y_36 + y_41 + y_47 + y_79 + y_95 - z_5927 >= 0
 c5929: y_1 + y_73 + y_96 - z_5928 >= 0
 c5930: y_9 + y_26 + y_67 + y_68 + y_69 + y_97 - z_5929 >= 0
 c5931: y_16 + y_50 + y_54 + y_56 + y_58 + y_66 - z_5930 >= 0
 c5932: y_7 + y_23 + y_31 + y_51 + y_62 + y_98 + y_99 - z_5931 >= 0
 c5933: y_17 + y_96 - z_5932 >= 0
 c5934: y_4 + y_6 + y_12 + y_22 + y_32 + y_88 - z_5933 >= 0
 c5935: y_2 + y_82 + y_83 + y_84 + y_85 - z_5934 >= 0
 c5936: y_10 + y_12 + y_88 - z_5935 >= 0
 c5937: y_13 + y_57 + y_60 + y_65 + y_72 + y_76 - z_5936 >= 0
 c5938: y_22 + y_56 + y_57 + y_65 - z_5937 >= 0
 c5939: y_17 + y_53 + y_91 + y_96 - z_5938 >= 0
 c5940: y_8 + y_15 + y_20 + y_34 + y_46 + y_61 + y_75 + y_79 + y_80 + y_93
        + y_95 - z_5939 >= 0
 c5941: y_10 + y_12 + y_57 + y_88 - z_5940 >= 0
 c5942: y_4 + y_5 + y_6 + y_32 + y_44 + y_90 - z_5941 >= 0
 c5943: y_8 + y_15 + y_20 + y_46 + y_49 + y_74 + y_75 + y_80 + y_93 + y_95
        - z_5942 >= 0
 c5944: y_16 + y_39 + y_53 + y_58 + y_91 - z_5943 >= 0
 c5945: y_5 + y_17 + y_34 - z_5944 >= 0
 c5946: y_13 + y_28 + y_60 + y_76 + y_81 - z_5945 >= 0
 c5947: y_7 + y_23 + y_31 + y_51 + y_62 + y_89 + y_98 + y_99 - z_5946 >= 0
 c5948: y_37 + y_45 - z_5947 >= 0
 c5949: y_16 + y_39 + y_50 + y_54 + y_56 + y_58 + y_66 + y_87 - z_5948 >= 0
 c5950: y_71 - z_5949 >= 0
 c5951: y_29 - z_5950 >= 0
 c5952: y_45 + y_96 - z_5951 >= 0
 c5953: y_13 + y_57 + y_60 + y_65 + y_72 + y_76 - z_5952 >= 0
 c5954: y_1 + y_7 + y_23 + y_31 + y_51 + y_62 + y_89 + y_98 + y_99 - z_5953 >= 
        0
 c5955: y_17 + y_39 + y_53 + y_63 + y_64 + y_91 - z_5954 >= 0
 c5956: y_1 + y_8 + y_46 + y_49 + y_73 + y_75 + y_80 - z_5955 >= 0
 c5957: y_83 + y_85 + y_92 - z_5956 >= 0
 c5958: y_6 + y_22 - z_5957 >= 0
 c5959: y_7 + y_23 + y_31 + y_51 + y_62 + y_89 + y_98 + y_99 - z_5958 >= 0
 c5960: y_0 + y_27 + y_42 + y_55 + y_63 + y_64 - z_5959 >= 0
 c5961: y_15 + y_18 + y_20 + y_21 + y_36 + y_41 + y_47 + y_61 + y_79 + y_93
        + y_95 - z_5960 >= 0
 c5962: y_58 + y_91 - z_5961 >= 0
 c5963: y_0 + y_27 - z_5962 >= 0
 c5964: y_10 + y_12 + y_88 - z_5963 >= 0
 c5965: y_40 + y_83 + y_85 + y_92 - z_5964 >= 0
 c5966: y_2 + y_83 + y_85 - z_5965 >= 0
 c5967: y_9 + y_11 + y_26 + y_67 + y_68 + y_69 + y_97 - z_5966 >= 0
 c5968: y_0 + y_16 + y_39 + y_42 + y_53 + y_54 + y_55 + y_63 + y_64 - z_5967
         >= 0
 c5969: y_45 + y_96 - z_5968 >= 0
 c5970: y_4 + y_6 + y_9 + y_32 + y_90 - z_5969 >= 0
 c5971: y_24 + y_52 + y_70 + y_86 - z_5970 >= 0
 c5972: y_3 + y_19 + y_21 + y_33 + y_38 + y_43 + y_44 + y_48 - z_5971 >= 0
 c5973: y_37 + y_45 - z_5972 >= 0
 c5974: y_11 + y_19 + y_30 + y_43 + y_52 + y_59 + y_68 + y_69 - z_5973 >= 0
 c5975: y_25 + y_29 + y_35 + y_77 + y_92 - z_5974 >= 0
 c5976: y_65 - z_5975 >= 0
 c5977: y_1 + y_7 + y_31 + y_37 + y_51 + y_73 + y_89 + y_99 - z_5976 >= 0
 c5978: y_8 + y_15 + y_20 + y_34 + y_61 + y_75 + y_79 + y_80 + y_93 + y_95
        - z_5977 >= 0
 c5979: y_4 + y_6 + y_9 + y_26 + y_32 + y_90 - z_5978 >= 0
 c5980: y_13 + y_28 + y_60 + y_76 - z_5979 >= 0
 c5981: y_18 + y_46 + y_49 + y_74 + y_95 - z_5980 >= 0
 c5982: y_11 + y_19 + y_26 + y_38 + y_52 + y_67 + y_68 + y_69 - z_5981 >= 0
 c5983: y_46 + y_49 + y_74 + y_95 - z_5982 >= 0
 c5984: y_9 + y_12 + y_71 + y_88 - z_5983 >= 0
 c5985: y_16 + y_39 + y_58 + y_91 - z_5984 >= 0
 c5986: y_45 - z_5985 >= 0
 c5987: y_22 + y_57 + y_65 + y_72 - z_5986 >= 0
 c5988: y_22 + y_56 + y_65 - z_5987 >= 0
 c5989: y_45 - z_5988 >= 0
 c5990: y_4 + y_9 + y_26 + y_32 + y_71 - z_5989 >= 0
 c5991: y_17 + y_39 + y_53 + y_58 + y_91 - z_5990 >= 0
 c5992: y_17 + y_39 + y_53 + y_58 + y_63 + y_64 + y_91 - z_5991 >= 0
 c5993: y_57 + y_65 + y_72 - z_5992 >= 0
 c5994: y_4 + y_6 + y_9 + y_26 + y_32 + y_90 - z_5993 >= 0
 c5995: y_0 + y_27 + y_39 + y_42 + y_53 + y_55 + y_63 + y_64 - z_5994 >= 0
 c5996: y_16 + y_39 + y_53 + y_54 + y_58 + y_63 + y_66 + y_91 - z_5995 >= 0
 c5997: y_3 + y_19 + y_33 + y_38 + y_44 + y_48 + y_61 + y_79 - z_5996 >= 0
 c5998: y_13 + y_28 + y_60 + y_76 - z_5997 >= 0
 c5999: y_16 + y_39 + y_40 + y_54 + y_55 + y_63 + y_64 + y_66 + y_87 - z_5998
         >= 0
 c6000: y_25 + y_29 + y_35 + y_50 + y_56 + y_66 + y_77 + y_87 - z_5999 >= 0
 c6001: y_17 + y_39 + y_53 + y_58 + y_63 + y_91 - z_6000 >= 0
 c6002: y_23 + y_46 + y_49 + y_74 + y_95 + y_98 - z_6001 >= 0
 c6003: y_85 + y_92 - z_6002 >= 0
 c6004: y_9 + y_11 + y_19 + y_26 + y_38 + y_67 + y_68 + y_69 - z_6003 >= 0
 c6005: y_16 + y_39 + y_50 + y_53 + y_54 + y_58 + y_63 + y_66 + y_91 - z_6004
         >= 0
 c6006: y_65 - z_6005 >= 0
 c6007: y_23 + y_49 + y_74 + y_98 - z_6006 >= 0
 c6008: y_25 + y_35 + y_77 + y_92 - z_6007 >= 0
 c6009: y_11 + y_24 + y_43 + y_52 + y_59 + y_67 + y_68 + y_69 + y_70 + y_97
        - z_6008 >= 0
 c6010: y_15 + y_18 + y_20 + y_36 + y_41 + y_46 + y_47 + y_49 + y_74 + y_79
        + y_80 + y_93 + y_95 - z_6009 >= 0
 c6011: y_13 + y_57 + y_60 + y_65 + y_72 + y_76 - z_6010 >= 0
 c6012: y_4 + y_6 + y_9 + y_26 + y_32 + y_44 + y_90 - z_6011 >= 0
 c6013: y_0 + y_27 + y_42 - z_6012 >= 0
 c6014: y_5 + y_17 + y_34 + y_53 + y_91 - z_6013 >= 0
 c6015: y_25 + y_35 + y_40 + y_87 + y_92 - z_6014 >= 0
 c6016: y_16 + y_39 + y_40 + y_42 + y_54 + y_55 + y_63 + y_64 - z_6015 >= 0
 c6017: y_16 + y_17 + y_39 + y_53 + y_58 + y_63 + y_91 - z_6016 >= 0
 c6018: y_12 + y_22 + y_57 + y_72 + y_88 - z_6017 >= 0
 c6019: y_58 + y_91 - z_6018 >= 0
 c6020: y_13 + y_28 + y_60 + y_76 - z_6019 >= 0
 c6021: y_0 + y_16 + y_39 + y_42 + y_53 + y_54 + y_55 + y_63 + y_64 - z_6020
         >= 0
 c6022: y_4 + y_9 + y_12 + y_32 + y_71 + y_88 - z_6021 >= 0
 c6023: y_3 + y_19 + y_33 + y_38 + y_44 + y_48 - z_6022 >= 0
 c6024: y_17 + y_39 + y_53 + y_58 + y_91 - z_6023 >= 0
 c6025: y_25 + y_35 + y_40 + y_66 + y_77 + y_87 + y_92 - z_6024 >= 0
 c6026: y_3 + y_19 + y_21 + y_33 + y_38 + y_41 + y_43 + y_44 + y_48 + y_79
        - z_6025 >= 0
 c6027: y_4 + y_9 + y_26 + y_32 + y_38 + y_44 + y_90 - z_6026 >= 0
 c6028: y_29 + y_50 + y_56 + y_65 - z_6027 >= 0
 c6029: y_24 + y_70 + y_86 - z_6028 >= 0
 c6030: y_1 + y_8 + y_73 + y_75 + y_96 - z_6029 >= 0
 c6031: y_12 + y_71 + y_88 - z_6030 >= 0
 c6032: y_37 + y_45 - z_6031 >= 0
 c6033: y_2 + y_14 + y_82 + y_83 + y_85 - z_6032 >= 0
 c6034: y_14 + y_27 + y_82 - z_6033 >= 0
 c6035: y_25 + y_29 + y_35 + y_40 + y_77 + y_87 + y_92 - z_6034 >= 0
 c6036: y_22 + y_56 + y_65 - z_6035 >= 0
 c6037: y_5 + y_6 + y_58 + y_90 + y_91 - z_6036 >= 0
 c6038: y_1 + y_31 + y_37 + y_73 + y_89 + y_99 - z_6037 >= 0
 c6039: y_12 + y_22 + y_57 + y_65 + y_88 - z_6038 >= 0
 c6040: y_3 + y_11 + y_19 + y_30 + y_38 + y_43 + y_52 + y_59 + y_67 + y_68
        + y_69 - z_6039 >= 0
 c6041: y_5 + y_6 + y_34 + y_90 - z_6040 >= 0
 c6042: y_1 + y_8 + y_20 + y_46 + y_73 + y_75 + y_80 + y_93 + y_96 - z_6041 >= 
        0
 c6043: y_13 + y_28 + y_60 + y_76 - z_6042 >= 0
 c6044: y_2 + y_14 + y_42 + y_82 + y_83 + y_85 - z_6043 >= 0
 c6045: y_9 + y_71 - z_6044 >= 0
 c6046: y_2 + y_82 + y_83 + y_84 + y_85 - z_6045 >= 0
 c6047: y_11 + y_24 + y_52 + y_59 + y_68 + y_70 + y_86 + y_97 - z_6046 >= 0
 c6048: y_1 + y_23 + y_46 + y_49 + y_74 + y_98 - z_6047 >= 0
 c6049: y_11 + y_67 + y_68 + y_69 + y_97 - z_6048 >= 0
 c6050: y_4 + y_9 + y_19 + y_26 + y_32 + y_38 + y_44 + y_67 + y_69 + y_90
        - z_6049 >= 0
 c6051: y_45 + y_73 + y_96 - z_6050 >= 0
 c6052: y_2 + y_14 + y_27 + y_42 + y_82 - z_6051 >= 0
 c6053: y_11 + y_26 + y_52 + y_67 + y_68 + y_69 + y_97 - z_6052 >= 0
 c6054: y_10 + y_12 + y_88 - z_6053 >= 0
 c6055: y_10 + y_12 + y_57 + y_72 + y_78 + y_88 - z_6054 >= 0
 c6056: y_4 + y_9 + y_26 + y_32 + y_67 - z_6055 >= 0
 c6057: y_1 + y_7 + y_23 + y_31 + y_51 + y_73 + y_89 + y_98 + y_99 - z_6056 >= 
        0
 c6058: y_29 - z_6057 >= 0
 c6059: y_2 + y_14 + y_27 + y_42 + y_82 + y_83 - z_6058 >= 0
 c6060: y_30 + y_43 + y_52 + y_59 + y_94 - z_6059 >= 0
 c6061: y_2 + y_40 + y_83 + y_85 + y_92 - z_6060 >= 0
 c6062: y_11 + y_24 + y_52 + y_59 + y_68 + y_70 + y_86 + y_97 - z_6061 >= 0
 c6063: y_7 + y_31 + y_37 + y_51 + y_62 + y_89 + y_99 - z_6062 >= 0
 c6064: y_83 + y_85 + y_92 - z_6063 >= 0
 c6065: y_25 + y_29 + y_35 + y_77 + y_87 + y_92 - z_6064 >= 0
 c6066: y_17 + y_39 + y_53 + y_58 + y_63 + y_64 + y_91 - z_6065 >= 0
 c6067: y_8 + y_17 + y_34 + y_75 + y_80 + y_96 - z_6066 >= 0
 c6068: y_1 + y_8 + y_46 + y_73 + y_75 + y_96 - z_6067 >= 0
 c6069: y_3 + y_15 + y_19 + y_20 + y_21 + y_33 + y_38 + y_41 + y_44 + y_48
        + y_61 + y_79 + y_93 - z_6068 >= 0
 c6070: y_9 + y_12 + y_71 - z_6069 >= 0
 c6071: y_10 + y_12 + y_57 + y_72 + y_78 + y_88 - z_6070 >= 0
 c6072: y_11 + y_24 + y_30 + y_43 + y_52 + y_59 + y_68 + y_70 + y_86 - z_6071
         >= 0
 c6073: y_12 + y_32 + y_71 + y_88 - z_6072 >= 0
 c6074: y_2 + y_82 + y_83 + y_84 + y_85 - z_6073 >= 0
 c6075: y_16 + y_40 + y_54 + y_66 + y_87 + y_92 - z_6074 >= 0
 c6076: y_71 - z_6075 >= 0
 c6077: y_65 - z_6076 >= 0
 c6078: y_22 + y_56 + y_65 - z_6077 >= 0
 c6079: y_2 + y_14 + y_82 + y_83 + y_84 + y_85 - z_6078 >= 0
 c6080: y_4 + y_6 + y_32 + y_90 - z_6079 >= 0
 c6081: y_13 + y_28 + y_60 + y_76 - z_6080 >= 0
 c6082: y_7 + y_31 + y_37 + y_51 + y_62 + y_89 + y_99 - z_6081 >= 0
 c6083: y_8 + y_73 + y_75 + y_80 + y_96 - z_6082 >= 0
 c6084: y_25 + y_29 + y_35 + y_40 + y_77 + y_87 + y_92 - z_6083 >= 0
 c6085: y_3 + y_5 + y_20 + y_33 + y_34 + y_44 + y_48 + y_61 + y_79 + y_93
        - z_6084 >= 0
 c6086: y_17 + y_53 + y_58 + y_63 + y_91 - z_6085 >= 0
 c6087: y_68 + y_97 - z_6086 >= 0
 c6088: y_25 + y_29 + y_50 + y_56 + y_65 + y_77 - z_6087 >= 0
 c6089: y_12 + y_22 + y_57 + y_72 + y_88 - z_6088 >= 0
 c6090: y_11 + y_19 + y_30 + y_43 + y_52 + y_59 + y_94 - z_6089 >= 0
 c6091: y_16 + y_39 + y_50 + y_54 + y_56 + y_58 + y_66 + y_87 - z_6090 >= 0
 c6092: y_3 + y_19 + y_21 + y_33 + y_36 + y_38 + y_41 + y_47 + y_48 + y_79
        - z_6091 >= 0
 c6093: y_3 + y_5 + y_19 + y_33 + y_38 + y_44 + y_48 + y_61 + y_79 - z_6092 >= 
        0
 c6094: y_10 + y_12 + y_57 + y_72 + y_78 + y_88 - z_6093 >= 0
 c6095: y_0 + y_27 - z_6094 >= 0
 c6096: y_83 + y_85 - z_6095 >= 0
 c6097: y_8 + y_15 + y_20 + y_34 + y_41 + y_48 + y_61 + y_75 + y_79 + y_80
        + y_93 + y_95 - z_6096 >= 0
 c6098: y_2 + y_14 + y_82 + y_83 + y_85 - z_6097 >= 0
 c6099: y_6 + y_58 + y_90 + y_91 - z_6098 >= 0
 c6100: y_3 + y_19 + y_21 + y_30 + y_38 + y_43 + y_48 + y_52 + y_59 + y_94
        - z_6099 >= 0
 c6101: y_11 + y_24 + y_30 + y_43 + y_52 + y_59 + y_68 + y_70 - z_6100 >= 0
 c6102: y_29 + y_50 + y_56 + y_65 - z_6101 >= 0
 c6103: y_8 + y_15 + y_20 + y_46 + y_49 + y_61 + y_75 + y_80 + y_93 + y_95
        - z_6102 >= 0
 c6104: y_3 + y_19 + y_21 + y_33 + y_38 + y_41 + y_43 + y_48 + y_79 - z_6103
         >= 0
 c6105: y_4 + y_9 + y_26 + y_32 + y_71 - z_6104 >= 0
 c6106: y_1 + y_8 + y_73 + y_75 + y_96 - z_6105 >= 0
 c6107: y_2 + y_83 + y_85 - z_6106 >= 0
 c6108: y_16 + y_50 + y_54 + y_56 + y_66 + y_87 - z_6107 >= 0
 c6109: y_73 + y_96 - z_6108 >= 0
 c6110: y_5 + y_8 + y_20 + y_34 + y_61 + y_75 + y_80 + y_93 - z_6109 >= 0
 c6111: y_12 + y_57 + y_88 - z_6110 >= 0
 c6112: y_8 + y_73 + y_75 + y_96 - z_6111 >= 0
 c6113: y_4 + y_9 + y_26 + y_32 + y_67 + y_71 - z_6112 >= 0
 c6114: y_45 + y_96 - z_6113 >= 0
 c6115: y_10 + y_13 + y_28 + y_60 + y_76 + y_78 + y_81 - z_6114 >= 0
 c6116: y_50 + y_56 + y_66 + y_87 - z_6115 >= 0
 c6117: y_11 + y_24 + y_52 + y_68 + y_70 + y_86 + y_97 - z_6116 >= 0
 c6118: y_5 + y_6 + y_33 + y_34 + y_44 + y_90 - z_6117 >= 0
 c6119: y_8 + y_20 + y_46 + y_75 + y_80 + y_93 + y_96 - z_6118 >= 0
 c6120: y_3 + y_15 + y_20 + y_21 + y_33 + y_34 + y_36 + y_41 + y_47 + y_48
        + y_61 + y_79 + y_80 + y_93 + y_95 - z_6119 >= 0
 c6121: y_65 + y_72 - z_6120 >= 0
 c6122: y_25 + y_29 + y_35 + y_50 + y_56 + y_66 + y_77 + y_87 - z_6121 >= 0
 c6123: y_30 + y_43 + y_59 + y_94 - z_6122 >= 0
 c6124: y_29 + y_77 - z_6123 >= 0
 c6125: y_46 + y_49 + y_74 + y_95 - z_6124 >= 0
 c6126: y_1 + y_8 + y_46 + y_49 + y_73 + y_75 - z_6125 >= 0
 c6127: y_4 + y_6 + y_22 + y_32 + y_90 - z_6126 >= 0
 c6128: y_6 + y_58 + y_90 - z_6127 >= 0
 c6129: y_10 + y_78 + y_81 - z_6128 >= 0
 c6130: y_13 + y_28 + y_60 + y_76 + y_78 + y_81 - z_6129 >= 0
 c6131: y_4 + y_5 + y_6 + y_32 + y_90 - z_6130 >= 0
 c6132: y_6 + y_22 - z_6131 >= 0
 c6133: y_3 + y_5 + y_19 + y_33 + y_38 + y_44 + y_48 + y_61 + y_79 - z_6132 >= 
        0
 c6134: y_13 + y_28 + y_60 + y_76 + y_81 - z_6133 >= 0
 c6135: y_5 + y_6 + y_90 - z_6134 >= 0
 c6136: y_1 + y_31 + y_37 + y_73 + y_89 + y_99 - z_6135 >= 0
 c6137: y_16 + y_39 + y_40 + y_53 + y_54 + y_55 + y_63 + y_64 + y_66 - z_6136
         >= 0
 c6138: y_7 + y_23 + y_31 + y_51 + y_62 + y_89 + y_98 + y_99 - z_6137 >= 0
 c6139: y_22 + y_57 + y_65 + y_72 - z_6138 >= 0
 c6140: y_7 + y_31 + y_51 + y_62 - z_6139 >= 0
 c6141: y_3 + y_9 + y_11 + y_19 + y_26 + y_38 + y_44 + y_67 + y_68 + y_69
        - z_6140 >= 0
 c6142: y_17 + y_53 + y_96 - z_6141 >= 0
 c6143: y_13 + y_57 + y_60 + y_72 + y_76 + y_78 + y_81 - z_6142 >= 0
 c6144: y_2 + y_14 + y_82 + y_83 + y_84 - z_6143 >= 0
 c6145: y_25 + y_29 + y_35 + y_77 - z_6144 >= 0
 c6146: y_3 + y_11 + y_19 + y_33 + y_38 + y_43 + y_48 + y_59 + y_69 - z_6145
         >= 0
 c6147: y_5 + y_8 + y_17 + y_34 - z_6146 >= 0
 c6148: y_30 + y_43 + y_52 + y_59 + y_94 - z_6147 >= 0
 c6149: y_22 + y_56 + y_57 + y_65 - z_6148 >= 0
 c6150: y_31 + y_37 + y_89 + y_99 - z_6149 >= 0
 c6151: y_1 + y_23 + y_31 + y_46 + y_49 + y_73 + y_89 + y_98 + y_99 - z_6150
         >= 0
 c6152: y_17 + y_53 + y_58 + y_91 - z_6151 >= 0
 c6153: y_12 + y_71 + y_88 - z_6152 >= 0
 c6154: y_6 + y_22 - z_6153 >= 0
 c6155: y_0 + y_39 + y_42 + y_53 + y_55 + y_63 + y_64 - z_6154 >= 0
 c6156: y_18 + y_21 + y_30 + y_36 + y_41 + y_47 + y_48 + y_94 - z_6155 >= 0
 c6157: y_13 + y_28 + y_60 + y_76 + y_78 + y_81 - z_6156 >= 0
 c6158: y_50 + y_56 + y_66 - z_6157 >= 0
 c6159: y_4 + y_6 + y_12 + y_22 + y_32 + y_88 + y_90 - z_6158 >= 0
 c6160: y_3 + y_5 + y_20 + y_33 + y_34 + y_44 + y_61 + y_90 + y_93 - z_6159 >= 
        0
 c6161: y_5 + y_8 + y_15 + y_20 + y_34 + y_61 + y_75 + y_79 + y_80 + y_93
        - z_6160 >= 0
 c6162: y_25 + y_29 + y_35 + y_50 + y_56 + y_77 + y_87 - z_6161 >= 0
 c6163: y_3 + y_19 + y_26 + y_33 + y_38 + y_44 + y_48 - z_6162 >= 0
 c6164: y_9 + y_26 + y_67 + y_71 + y_97 - z_6163 >= 0
 c6165: y_83 + y_84 + y_85 - z_6164 >= 0
 c6166: y_3 + y_5 + y_19 + y_20 + y_33 + y_34 + y_38 + y_41 + y_44 + y_48 + y_61
        + y_79 + y_93 - z_6165 >= 0
 c6167: y_7 + y_23 + y_31 + y_51 + y_62 + y_89 + y_98 + y_99 - z_6166 >= 0
 c6168: y_24 + y_30 + y_43 + y_52 + y_59 + y_70 + y_94 - z_6167 >= 0
 c6169: y_4 + y_5 + y_6 + y_32 + y_44 + y_90 - z_6168 >= 0
 c6170: y_29 + y_77 - z_6169 >= 0
 c6171: y_68 + y_97 - z_6170 >= 0
 c6172: y_10 + y_13 + y_28 + y_60 + y_76 + y_78 + y_81 - z_6171 >= 0
 c6173: y_0 - z_6172 >= 0
 c6174: y_29 - z_6173 >= 0
 c6175: y_7 + y_31 + y_37 + y_51 + y_62 + y_89 + y_99 - z_6174 >= 0
 c6176: y_0 + y_17 + y_53 + y_63 + y_64 - z_6175 >= 0
 c6177: y_16 + y_50 + y_54 + y_56 + y_66 + y_87 - z_6176 >= 0
 c6178: y_8 + y_15 + y_20 + y_41 + y_46 + y_61 + y_75 + y_79 + y_80 + y_93
        + y_95 - z_6177 >= 0
 c6179: y_37 + y_45 - z_6178 >= 0
 c6180: y_15 + y_18 + y_21 + y_36 + y_41 + y_47 + y_48 + y_79 + y_95 - z_6179
         >= 0
 c6181: y_1 + y_8 + y_46 + y_49 + y_74 + y_75 + y_80 + y_95 - z_6180 >= 0
 c6182: y_17 + y_53 + y_63 + y_91 + y_96 - z_6181 >= 0
 c6183: y_1 + y_23 + y_31 + y_46 + y_49 + y_98 + y_99 - z_6182 >= 0
 c6184: y_25 + y_29 + y_35 + y_50 + y_56 + y_77 + y_87 - z_6183 >= 0
 c6185: y_15 + y_18 + y_20 + y_21 + y_36 + y_41 + y_47 + y_48 + y_61 + y_79
        + y_80 + y_93 + y_95 - z_6184 >= 0
 c6186: y_4 + y_9 + y_12 + y_32 + y_88 - z_6185 >= 0
 c6187: y_16 + y_39 + y_40 + y_50 + y_54 + y_66 + y_87 - z_6186 >= 0
 c6188: y_17 + y_39 + y_53 + y_58 + y_63 + y_91 - z_6187 >= 0
 c6189: y_23 + y_46 + y_49 + y_74 + y_98 - z_6188 >= 0
 c6190: y_5 + y_8 + y_20 + y_34 + y_61 + y_75 + y_80 + y_93 - z_6189 >= 0
 c6191: y_0 + y_27 + y_39 + y_42 + y_55 + y_63 + y_64 - z_6190 >= 0
 c6192: y_10 + y_12 + y_57 + y_72 + y_78 + y_88 - z_6191 >= 0
 c6193: y_5 + y_8 + y_20 + y_34 + y_61 + y_75 + y_80 + y_93 - z_6192 >= 0
 c6194: y_9 + y_71 - z_6193 >= 0
 c6195: y_4 + y_6 + y_32 + y_90 - z_6194 >= 0
 c6196: y_15 + y_18 + y_21 + y_36 + y_41 + y_47 - z_6195 >= 0
 c6197: y_25 + y_29 + y_50 + y_56 + y_65 + y_77 - z_6196 >= 0
 c6198: y_25 + y_29 + y_50 + y_56 + y_66 + y_77 + y_87 - z_6197 >= 0
 c6199: y_24 + y_70 + y_86 - z_6198 >= 0
 c6200: y_4 + y_6 + y_32 + y_90 - z_6199 >= 0
 c6201: y_0 + y_96 - z_6200 >= 0
 c6202: y_27 - z_6201 >= 0
 c6203: y_17 + y_96 - z_6202 >= 0
 c6204: y_0 + y_27 + y_42 - z_6203 >= 0
 c6205: y_17 + y_39 + y_53 + y_58 + y_63 + y_91 - z_6204 >= 0
 c6206: y_10 + y_12 + y_57 + y_72 + y_88 - z_6205 >= 0
 c6207: y_40 + y_42 + y_55 + y_64 - z_6206 >= 0
 c6208: y_16 + y_39 + y_53 + y_54 + y_58 + y_63 + y_64 + y_66 + y_91 - z_6207
         >= 0
 c6209: y_31 + y_37 + y_45 + y_73 + y_89 + y_99 - z_6208 >= 0
 c6210: y_2 + y_14 + y_27 + y_42 + y_55 + y_82 + y_83 - z_6209 >= 0
 c6211: y_12 + y_22 + y_57 + y_65 + y_72 + y_88 - z_6210 >= 0
 c6212: y_4 + y_9 + y_19 + y_26 + y_32 + y_38 + y_67 + y_69 - z_6211 >= 0
 c6213: y_5 + y_20 + y_33 + y_34 + y_44 + y_61 + y_79 + y_80 + y_93 - z_6212
         >= 0
 c6214: y_0 - z_6213 >= 0
 c6215: y_25 + y_40 + y_54 + y_66 + y_77 + y_87 + y_92 - z_6214 >= 0
 c6216: y_45 - z_6215 >= 0
 c6217: y_46 + y_49 + y_74 - z_6216 >= 0
 c6218: y_0 + y_27 + y_42 - z_6217 >= 0
 c6219: y_8 + y_15 + y_20 + y_34 + y_46 + y_61 + y_75 + y_79 + y_80 + y_93
        + y_95 - z_6218 >= 0
 c6220: y_2 + y_82 + y_83 + y_85 - z_6219 >= 0
 c6221: y_30 + y_43 + y_52 + y_59 + y_94 - z_6220 >= 0
 c6222: y_25 + y_29 + y_35 + y_77 - z_6221 >= 0
 c6223: y_13 + y_60 + y_65 + y_72 + y_76 - z_6222 >= 0
 c6224: y_29 + y_56 + y_65 - z_6223 >= 0
 c6225: y_2 + y_27 + y_42 + y_55 + y_83 - z_6224 >= 0
 c6226: y_29 + y_50 + y_56 + y_77 - z_6225 >= 0
 c6227: y_5 + y_17 + y_34 + y_91 - z_6226 >= 0
 c6228: y_83 + y_85 + y_92 - z_6227 >= 0
 c6229: y_4 + y_9 + y_26 + y_32 + y_38 + y_44 + y_90 - z_6228 >= 0
 c6230: y_15 + y_18 + y_20 + y_36 + y_41 + y_46 + y_47 + y_49 + y_74 + y_79
        + y_95 - z_6229 >= 0
 c6231: y_96 - z_6230 >= 0
 c6232: y_4 + y_6 + y_22 + y_32 + y_90 - z_6231 >= 0
 c6233: y_16 + y_50 + y_54 + y_56 + y_66 + y_87 - z_6232 >= 0
 c6234: y_2 + y_83 + y_84 + y_85 - z_6233 >= 0
 c6235: y_11 + y_67 + y_68 + y_69 + y_97 - z_6234 >= 0
 c6236: y_22 + y_57 + y_65 + y_72 - z_6235 >= 0
 c6237: y_1 + y_8 + y_46 + y_73 + y_75 + y_96 - z_6236 >= 0
 c6238: y_21 + y_30 + y_43 + y_59 + y_94 - z_6237 >= 0
 c6239: y_37 + y_45 + y_73 + y_96 - z_6238 >= 0
 c6240: y_9 + y_11 + y_26 + y_67 + y_68 + y_69 + y_97 - z_6239 >= 0
 c6241: y_0 + y_45 - z_6240 >= 0
 c6242: y_0 + y_27 + y_42 + y_64 - z_6241 >= 0
 c6243: y_9 + y_26 + y_67 + y_69 + y_71 + y_97 - z_6242 >= 0
 c6244: y_16 + y_50 + y_56 + y_58 + y_66 + y_91 - z_6243 >= 0
 c6245: - z_6244 >= 0
 c6246: y_13 - z_6245 >= 0
 c6247: y_5 + y_8 + y_17 + y_34 + y_80 - z_6246 >= 0
 c6248: y_25 + y_29 + y_35 + y_50 + y_56 + y_66 + y_77 + y_87 - z_6247 >= 0
 c6249: y_0 + y_27 + y_42 + y_55 + y_64 - z_6248 >= 0
 c6250: y_30 + y_43 + y_52 + y_59 + y_94 - z_6249 >= 0
 c6251: y_9 + y_12 + y_32 + y_71 + y_88 - z_6250 >= 0
 c6252: y_11 + y_19 + y_30 + y_43 + y_52 + y_59 + y_68 + y_69 - z_6251 >= 0
 c6253: y_4 + y_6 + y_12 + y_32 + y_88 + y_90 - z_6252 >= 0
 c6254: y_2 + y_40 + y_83 + y_85 + y_92 - z_6253 >= 0
 c6255: y_11 + y_24 + y_30 + y_43 + y_52 + y_59 + y_68 + y_70 + y_86 - z_6254
         >= 0
 c6256: y_7 + y_23 + y_51 + y_62 + y_98 - z_6255 >= 0
 c6257: y_3 + y_5 + y_19 + y_20 + y_33 + y_34 + y_38 + y_44 + y_48 + y_61 + y_79
        + y_93 - z_6256 >= 0
 c6258: y_6 + y_90 - z_6257 >= 0
 c6259: y_18 + y_21 + y_30 + y_36 + y_41 + y_43 + y_47 + y_48 + y_94 - z_6258
         >= 0
 c6260: y_37 + y_45 + y_73 + y_96 - z_6259 >= 0
 c6261: y_2 + y_14 + y_82 + y_83 + y_84 + y_85 - z_6260 >= 0
 c6262: y_17 + y_53 + y_96 - z_6261 >= 0
 c6263: y_16 + y_40 + y_54 + y_55 + y_66 + y_87 + y_92 - z_6262 >= 0
 c6264: y_8 + y_17 + y_96 - z_6263 >= 0
 c6265: y_15 + y_18 + y_46 + y_49 + y_74 + y_95 - z_6264 >= 0
 c6266: y_5 + y_8 + y_15 + y_20 + y_34 + y_61 + y_75 + y_79 + y_80 + y_93
        - z_6265 >= 0
 c6267: y_3 + y_5 + y_15 + y_19 + y_20 + y_33 + y_34 + y_38 + y_44 + y_48 + y_61
        + y_79 + y_93 - z_6266 >= 0
 c6268: y_5 + y_8 + y_20 + y_34 + y_61 + y_75 + y_80 + y_93 - z_6267 >= 0
 c6269: y_12 + y_22 + y_32 + y_88 - z_6268 >= 0
 c6270: y_0 + y_27 + y_42 + y_55 + y_63 + y_64 - z_6269 >= 0
 c6271: y_3 + y_4 + y_19 + y_33 + y_38 + y_44 + y_90 - z_6270 >= 0
 c6272: y_3 + y_19 + y_33 + y_38 + y_44 + y_48 + y_79 - z_6271 >= 0
 c6273: y_3 + y_15 + y_19 + y_20 + y_21 + y_33 + y_38 + y_41 + y_44 + y_48
        + y_61 + y_79 + y_93 - z_6272 >= 0
 c6274: y_3 + y_11 + y_19 + y_26 + y_33 + y_38 + y_43 + y_44 + y_67 + y_68
        + y_69 - z_6273 >= 0
 c6275: y_40 + y_92 - z_6274 >= 0
 c6276: y_3 + y_5 + y_19 + y_33 + y_34 + y_38 + y_44 + y_61 + y_90 - z_6275 >= 
        0
 c6277: y_13 + y_28 + y_60 + y_76 + y_81 - z_6276 >= 0
 c6278: y_11 + y_19 + y_30 + y_43 + y_52 + y_59 + y_68 + y_94 - z_6277 >= 0
 c6279: y_21 + y_30 + y_43 + y_59 + y_94 - z_6278 >= 0
 c6280: y_15 + y_18 + y_20 + y_21 + y_36 + y_41 + y_47 + y_48 + y_61 + y_79
        + y_95 - z_6279 >= 0
 c6281: y_7 + y_23 + y_51 + y_98 - z_6280 >= 0
 c6282: y_16 + y_39 + y_40 + y_54 + y_63 + y_66 + y_87 - z_6281 >= 0
 c6283: y_16 + y_40 + y_54 + y_55 + y_66 + y_87 + y_92 - z_6282 >= 0
 c6284: y_7 + y_31 + y_51 + y_62 + y_89 + y_98 + y_99 - z_6283 >= 0
 c6285: y_1 + y_8 + y_20 + y_46 + y_75 + y_80 + y_93 + y_95 - z_6284 >= 0
 c6286: y_30 + y_43 + y_94 - z_6285 >= 0
 c6287: y_5 + y_33 + y_34 + y_44 + y_61 + y_90 - z_6286 >= 0
 c6288: y_1 + y_23 + y_46 + y_49 + y_73 + y_75 + y_98 + y_99 - z_6287 >= 0
 c6289: y_18 + y_21 + y_36 + y_41 + y_47 + y_94 - z_6288 >= 0
 c6290: y_25 + y_35 + y_40 + y_50 + y_66 + y_77 + y_87 + y_92 - z_6289 >= 0
 c6291: y_24 + y_52 + y_59 + y_70 + y_86 - z_6290 >= 0
 c6292: y_2 + y_40 + y_42 + y_55 + y_83 - z_6291 >= 0
 c6293: y_13 + y_28 + y_60 + y_76 + y_81 - z_6292 >= 0
 c6294: y_12 + y_57 + y_88 - z_6293 >= 0
 c6295: y_45 - z_6294 >= 0
 c6296: y_3 + y_11 + y_19 + y_33 + y_38 + y_43 + y_52 + y_59 + y_67 + y_68
        + y_69 - z_6295 >= 0
 c6297: y_15 + y_18 + y_20 + y_36 + y_41 + y_46 + y_47 + y_49 + y_61 + y_74
        + y_75 + y_79 + y_80 + y_93 + y_95 - z_6296 >= 0
 c6298: y_10 + y_12 + y_57 + y_72 + y_78 + y_81 + y_88 - z_6297 >= 0
 c6299: y_13 + y_28 + y_60 + y_76 + y_81 - z_6298 >= 0
 c6300: y_3 + y_11 + y_19 + y_26 + y_38 + y_44 + y_67 + y_68 + y_69 - z_6299
         >= 0
 c6301: y_96 - z_6300 >= 0
 c6302: y_40 + y_42 + y_54 + y_55 + y_64 + y_92 - z_6301 >= 0
 c6303: y_4 + y_9 + y_12 + y_32 + y_71 + y_88 - z_6302 >= 0
 c6304: y_9 + y_26 + y_71 - z_6303 >= 0
 c6305: y_5 + y_20 + y_33 + y_34 + y_44 + y_61 + y_80 + y_93 - z_6304 >= 0
 c6306: y_17 + y_53 + y_96 - z_6305 >= 0
 c6307: y_17 + y_53 + y_91 + y_96 - z_6306 >= 0
 c6308: y_1 + y_8 + y_73 + y_75 + y_96 - z_6307 >= 0
 c6309: y_15 + y_20 + y_46 + y_49 + y_61 + y_74 + y_75 + y_79 + y_80 + y_93
        + y_95 - z_6308 >= 0
 c6310: y_9 + y_71 - z_6309 >= 0
 c6311: y_50 + y_56 + y_58 - z_6310 >= 0
 c6312: y_29 - z_6311 >= 0
 c6313: y_4 + y_12 + y_22 + y_32 + y_88 - z_6312 >= 0
 c6314: y_22 + y_57 + y_65 + y_72 - z_6313 >= 0
 c6315: y_5 + y_6 + y_58 + y_90 + y_91 - z_6314 >= 0
 c6316: y_10 + y_57 + y_60 + y_72 + y_76 + y_78 + y_81 - z_6315 >= 0
 c6317: y_11 + y_52 + y_67 + y_68 + y_69 + y_86 + y_97 - z_6316 >= 0
 c6318: y_50 + y_56 + y_66 + y_87 - z_6317 >= 0
 c6319: y_4 + y_6 + y_32 + y_90 - z_6318 >= 0
 c6320: y_1 + y_31 + y_37 + y_73 + y_89 + y_99 - z_6319 >= 0
 c6321: y_4 + y_9 + y_26 + y_32 - z_6320 >= 0
 c6322: y_3 + y_19 + y_21 + y_30 + y_33 + y_38 + y_43 + y_48 + y_59 + y_94
        - z_6321 >= 0
 c6323: y_13 + y_28 + y_60 + y_76 + y_81 - z_6322 >= 0
 c6324: y_5 + y_8 + y_20 + y_34 + y_61 + y_75 + y_80 + y_93 - z_6323 >= 0
 c6325: y_37 + y_45 + y_73 + y_89 - z_6324 >= 0
 c6326: y_12 + y_22 + y_57 + y_65 + y_72 + y_88 - z_6325 >= 0
 c6327: y_9 + y_71 - z_6326 >= 0
 c6328: y_22 + y_50 + y_56 + y_65 - z_6327 >= 0
 c6329: y_9 + y_71 + y_97 - z_6328 >= 0
 c6330: y_17 + y_53 + y_58 + y_91 - z_6329 >= 0
 c6331: y_9 + y_26 + y_67 + y_69 - z_6330 >= 0
 c6332: y_40 + y_55 + y_92 - z_6331 >= 0
 c6333: y_50 + y_56 + y_66 + y_87 - z_6332 >= 0
 c6334: y_3 + y_5 + y_15 + y_19 + y_20 + y_21 + y_33 + y_34 + y_38 + y_41 + y_44
        + y_48 + y_61 + y_79 + y_93 - z_6333 >= 0
 c6335: y_40 + y_42 + y_55 + y_64 - z_6334 >= 0
 c6336: y_15 + y_18 + y_36 + y_41 + y_47 + y_74 + y_95 - z_6335 >= 0
 c6337: y_1 + y_23 + y_31 + y_73 + y_89 + y_98 + y_99 - z_6336 >= 0
 c6338: y_7 + y_23 + y_31 + y_51 + y_89 + y_98 + y_99 - z_6337 >= 0
 c6339: y_0 + y_27 + y_42 + y_64 - z_6338 >= 0
 c6340: y_8 + y_15 + y_20 + y_46 + y_61 + y_75 + y_80 + y_93 + y_95 - z_6339
         >= 0
 c6341: y_11 + y_24 + y_43 + y_52 + y_59 + y_67 + y_68 + y_69 + y_70 + y_86
        - z_6340 >= 0
 c6342: y_10 + y_13 + y_57 + y_60 + y_72 + y_76 + y_78 + y_81 - z_6341 >= 0
 c6343: y_6 + y_58 + y_90 + y_91 - z_6342 >= 0
 c6344: y_6 + y_90 - z_6343 >= 0
 c6345: y_13 + y_28 + y_60 + y_76 - z_6344 >= 0
 c6346: y_2 + y_14 + y_27 + y_82 - z_6345 >= 0
 c6347: y_8 + y_20 + y_46 + y_73 + y_75 + y_80 + y_93 + y_96 - z_6346 >= 0
 c6348: y_25 + y_29 + y_35 + y_50 + y_56 + y_77 + y_87 - z_6347 >= 0
 c6349: y_7 + y_23 + y_31 + y_51 + y_62 + y_89 + y_98 + y_99 - z_6348 >= 0
 c6350: y_1 + y_37 + y_73 + y_89 + y_99 - z_6349 >= 0
 c6351: y_12 + y_22 + y_57 + y_88 - z_6350 >= 0
 c6352: y_23 + y_46 + y_49 + y_74 - z_6351 >= 0
 c6353: y_4 + y_9 + y_12 + y_26 + y_32 - z_6352 >= 0
 c6354: y_2 + y_83 + y_84 + y_85 - z_6353 >= 0
 c6355: y_45 - z_6354 >= 0
 c6356: y_2 + y_83 + y_85 - z_6355 >= 0
 c6357: y_18 + y_21 + y_36 + y_41 + y_47 + y_94 - z_6356 >= 0
 c6358: y_3 + y_11 + y_19 + y_30 + y_38 + y_43 + y_52 + y_59 + y_94 - z_6357
         >= 0
 c6359: y_5 + y_20 + y_33 + y_34 + y_44 + y_61 + y_79 + y_80 + y_93 - z_6358
         >= 0
 c6360: y_4 + y_5 + y_6 + y_32 + y_44 + y_90 - z_6359 >= 0
 c6361: y_16 + y_39 + y_42 + y_53 + y_54 + y_55 + y_63 + y_64 - z_6360 >= 0
 c6362: y_0 + y_27 + y_42 + y_55 + y_64 - z_6361 >= 0
 c6363: y_10 + y_12 + y_57 + y_72 + y_78 + y_88 - z_6362 >= 0
 c6364: y_25 + y_29 + y_35 + y_77 - z_6363 >= 0
 c6365: y_12 + y_22 + y_57 + y_65 + y_72 + y_88 - z_6364 >= 0
 c6366: y_0 + y_39 + y_42 + y_53 + y_55 + y_63 + y_64 - z_6365 >= 0
 c6367: y_0 + y_39 + y_42 + y_53 + y_55 + y_63 + y_64 - z_6366 >= 0
 c6368: y_18 + y_21 + y_30 + y_36 + y_41 + y_43 + y_47 + y_94 - z_6367 >= 0
 c6369: y_2 + y_14 + y_27 + y_42 + y_82 + y_83 - z_6368 >= 0
 c6370: y_24 + y_52 + y_70 + y_86 - z_6369 >= 0
 c6371: y_1 + y_23 + y_31 + y_46 + y_49 + y_98 + y_99 - z_6370 >= 0
 c6372: y_2 + y_14 + y_82 + y_83 + y_84 - z_6371 >= 0
 c6373: y_2 + y_27 + y_42 + y_55 + y_83 - z_6372 >= 0
 c6374: y_10 + y_78 - z_6373 >= 0
 c6375: y_0 + y_27 + y_42 - z_6374 >= 0
 c6376: y_37 + y_45 + y_73 + y_96 - z_6375 >= 0
 c6377: y_1 + y_8 + y_73 + y_75 + y_96 - z_6376 >= 0
 c6378: y_7 + y_31 + y_37 + y_51 + y_62 + y_89 + y_99 - z_6377 >= 0
 c6379: y_12 + y_71 + y_88 - z_6378 >= 0
 c6380: y_0 + y_2 + y_27 + y_42 + y_55 + y_64 - z_6379 >= 0
 c6381: y_96 - z_6380 >= 0
 c6382: y_17 + y_53 + y_91 + y_96 - z_6381 >= 0
 c6383: y_83 + y_84 + y_85 - z_6382 >= 0
 c6384: y_15 + y_18 + y_21 + y_36 + y_41 + y_47 + y_48 + y_79 + y_95 - z_6383
         >= 0
 c6385: y_4 + y_6 + y_32 + y_90 - z_6384 >= 0
 c6386: y_83 + y_85 + y_92 - z_6385 >= 0
 c6387: y_3 + y_15 + y_19 + y_21 + y_33 + y_36 + y_38 + y_41 + y_44 + y_47
        + y_48 + y_61 + y_79 - z_6386 >= 0
 c6388: y_22 + y_57 + y_65 + y_72 - z_6387 >= 0
 c6389: y_10 + y_12 + y_57 + y_72 + y_78 + y_81 + y_88 - z_6388 >= 0
 c6390: y_25 + y_29 + y_35 + y_77 - z_6389 >= 0
 c6391: y_17 + y_39 + y_53 + y_63 + y_64 + y_91 - z_6390 >= 0
 c6392: y_17 + y_39 + y_53 + y_58 + y_63 + y_91 - z_6391 >= 0
 c6393: y_4 + y_9 + y_26 + y_32 + y_67 + y_71 - z_6392 >= 0
 c6394: y_22 + y_57 + y_65 + y_72 - z_6393 >= 0
 c6395: y_10 + y_13 + y_28 + y_60 + y_76 + y_78 + y_81 - z_6394 >= 0
 c6396: y_15 + y_20 + y_21 + y_33 + y_36 + y_41 + y_47 + y_48 + y_61 + y_79
        + y_80 + y_93 + y_95 - z_6395 >= 0
 c6397: y_40 + y_54 + y_66 + y_87 + y_92 - z_6396 >= 0
 c6398: y_3 + y_5 + y_19 + y_33 + y_38 + y_44 + y_90 - z_6397 >= 0
 c6399: y_11 + y_19 + y_38 + y_43 + y_52 + y_59 + y_67 + y_68 + y_69 - z_6398
         >= 0
 c6400: y_17 + y_39 + y_53 + y_58 + y_63 + y_91 - z_6399 >= 0
 c6401: y_6 + y_22 + y_90 - z_6400 >= 0
 c6402: y_5 + y_8 + y_15 + y_20 + y_34 + y_61 + y_75 + y_79 + y_80 + y_93
        - z_6401 >= 0
 c6403: y_3 + y_11 + y_19 + y_26 + y_38 + y_43 + y_52 + y_59 + y_67 + y_68
        + y_69 - z_6402 >= 0
 c6404: y_2 + y_14 + y_27 + y_42 + y_82 - z_6403 >= 0
 c6405: y_9 + y_12 + y_71 + y_88 - z_6404 >= 0
 c6406: y_3 + y_19 + y_33 + y_38 + y_43 + y_44 + y_48 + y_69 - z_6405 >= 0
 c6407: y_7 + y_23 + y_31 + y_51 + y_62 + y_89 + y_98 + y_99 - z_6406 >= 0
 c6408: y_13 - z_6407 >= 0
 c6409: y_5 + y_17 + y_58 + y_91 - z_6408 >= 0
 c6410: y_4 + y_6 + y_26 + y_32 + y_44 + y_90 - z_6409 >= 0
 c6411: y_1 + y_8 + y_20 + y_46 + y_49 + y_75 + y_80 + y_93 + y_95 - z_6410 >= 
        0
 c6412: y_22 - z_6411 >= 0
 c6413: y_31 + y_37 + y_89 + y_99 - z_6412 >= 0
 c6414: y_10 + y_13 + y_28 + y_60 + y_76 + y_78 + y_81 - z_6413 >= 0
 c6415: y_5 + y_8 + y_17 + y_34 + y_75 + y_80 + y_93 - z_6414 >= 0
 c6416: y_15 + y_46 + y_49 + y_74 + y_95 - z_6415 >= 0
 c6417: y_10 + y_13 + y_60 + y_72 + y_76 + y_78 + y_81 - z_6416 >= 0
 c6418: y_16 + y_39 + y_40 + y_54 + y_63 + y_66 + y_87 - z_6417 >= 0
 c6419: y_37 + y_45 - z_6418 >= 0
 c6420: y_25 + y_29 + y_35 + y_77 + y_87 + y_92 - z_6419 >= 0
 c6421: y_11 + y_24 + y_52 + y_59 + y_68 + y_70 + y_86 + y_97 - z_6420 >= 0
 c6422: y_23 + y_98 - z_6421 >= 0
 c6423: y_83 + y_85 + y_92 - z_6422 >= 0
 c6424: y_10 + y_12 + y_57 + y_78 + y_88 - z_6423 >= 0
 c6425: y_16 + y_39 + y_53 + y_54 + y_58 + y_63 + y_66 + y_91 - z_6424 >= 0
 c6426: y_2 + y_14 + y_27 + y_42 + y_55 + y_82 + y_83 - z_6425 >= 0
 c6427: y_10 + y_12 + y_57 + y_72 + y_78 + y_88 - z_6426 >= 0
 c6428: y_25 + y_35 + y_40 + y_77 + y_87 + y_92 - z_6427 >= 0
 c6429: y_9 + y_71 + y_97 - z_6428 >= 0
 c6430: y_4 + y_9 + y_26 + y_32 + y_38 + y_44 + y_90 - z_6429 >= 0
 c6431: y_3 + y_19 + y_21 + y_30 + y_38 + y_43 + y_52 + y_59 + y_94 - z_6430
         >= 0
 c6432: y_16 + y_39 + y_50 + y_54 + y_56 + y_58 + y_66 - z_6431 >= 0
 c6433: y_10 + y_13 + y_28 + y_60 + y_76 + y_78 + y_81 - z_6432 >= 0
 c6434: y_25 + y_35 + y_77 + y_92 - z_6433 >= 0
 c6435: y_40 + y_55 + y_92 - z_6434 >= 0
 c6436: y_11 + y_24 + y_52 + y_67 + y_68 + y_69 + y_70 + y_86 + y_97 - z_6435
         >= 0
 c6437: y_11 + y_24 + y_52 + y_59 + y_68 + y_70 + y_86 + y_97 - z_6436 >= 0
 c6438: y_1 + y_23 + y_31 + y_49 + y_89 + y_98 + y_99 - z_6437 >= 0
 c6439: y_7 + y_23 + y_31 + y_51 + y_62 + y_89 + y_98 + y_99 - z_6438 >= 0
 c6440: y_4 + y_9 + y_12 + y_26 + y_32 + y_88 - z_6439 >= 0
 c6441: y_13 + y_60 + y_65 - z_6440 >= 0
 c6442: y_0 + y_27 + y_39 + y_42 + y_53 + y_55 + y_63 + y_64 - z_6441 >= 0
 c6443: y_22 - z_6442 >= 0
 c6444: y_6 + y_58 + y_91 - z_6443 >= 0
 c6445: y_37 + y_45 + y_89 - z_6444 >= 0
 c6446: y_10 + y_72 + y_78 + y_81 - z_6445 >= 0
 c6447: y_5 + y_17 + y_34 + y_53 + y_91 - z_6446 >= 0
 c6448: y_5 + y_8 + y_17 + y_34 + y_75 + y_80 + y_93 - z_6447 >= 0
 c6449: y_40 + y_54 + y_55 + y_66 + y_87 + y_92 - z_6448 >= 0
 c6450: y_17 + y_39 + y_53 + y_58 + y_63 + y_64 + y_91 - z_6449 >= 0
 c6451: y_3 + y_5 + y_19 + y_33 + y_38 + y_44 + y_48 + y_61 + y_79 - z_6450 >= 
        0
 c6452: y_4 + y_6 + y_12 + y_22 + y_32 + y_88 + y_90 - z_6451 >= 0
 c6453: y_25 + y_29 + y_35 + y_40 + y_77 + y_87 + y_92 - z_6452 >= 0
 c6454: y_4 + y_6 + y_32 + y_90 - z_6453 >= 0
 c6455: y_45 - z_6454 >= 0
 c6456: y_10 + y_13 + y_60 + y_72 + y_76 + y_78 + y_81 - z_6455 >= 0
 c6457: y_8 + y_15 + y_20 + y_46 + y_49 + y_75 + y_80 + y_93 + y_95 - z_6456
         >= 0
 c6458: y_25 + y_29 + y_35 + y_77 + y_92 - z_6457 >= 0
 c6459: y_13 + y_28 + y_60 + y_76 - z_6458 >= 0
 c6460: y_25 + y_29 + y_50 + y_56 + y_66 + y_77 + y_87 - z_6459 >= 0
 c6461: y_0 + y_17 + y_53 + y_64 + y_96 - z_6460 >= 0
 c6462: y_50 + y_56 + y_58 - z_6461 >= 0
 c6463: y_13 + y_28 + y_60 + y_76 + y_81 - z_6462 >= 0
 c6464: y_7 + y_31 + y_37 + y_89 + y_99 - z_6463 >= 0
 c6465: y_4 + y_9 + y_26 + y_32 + y_38 + y_44 + y_67 + y_69 - z_6464 >= 0
 c6466: y_4 + y_9 + y_26 + y_32 + y_38 + y_44 + y_90 - z_6465 >= 0
 c6467: y_4 + y_6 + y_32 + y_90 - z_6466 >= 0
 c6468: y_24 + y_52 + y_59 + y_70 + y_86 - z_6467 >= 0
 c6469: y_16 + y_39 + y_53 + y_54 + y_58 + y_63 + y_66 + y_91 - z_6468 >= 0
 c6470: y_5 + y_6 + y_34 + y_90 - z_6469 >= 0
 c6471: y_45 - z_6470 >= 0
 c6472: y_17 + y_96 - z_6471 >= 0
 c6473: y_22 - z_6472 >= 0
 c6474: y_5 + y_17 + y_34 + y_53 + y_58 + y_91 - z_6473 >= 0
 c6475: y_25 + y_29 + y_35 + y_77 - z_6474 >= 0
 c6476: y_40 + y_87 + y_92 - z_6475 >= 0
 c6477: y_25 + y_29 + y_35 + y_50 + y_54 + y_56 + y_66 + y_77 + y_87 - z_6476
         >= 0
 c6478: y_5 + y_17 + y_34 - z_6477 >= 0
 c6479: y_4 + y_9 + y_12 + y_32 + y_88 - z_6478 >= 0
 c6480: y_6 + y_22 + y_90 - z_6479 >= 0
 c6481: y_9 + y_26 + y_67 + y_69 + y_71 - z_6480 >= 0
 c6482: y_71 - z_6481 >= 0
 c6483: y_13 + y_28 + y_60 + y_76 + y_78 + y_81 - z_6482 >= 0
 c6484: y_3 + y_5 + y_15 + y_20 + y_33 + y_34 + y_44 + y_48 + y_61 + y_79 + y_80
        + y_93 - z_6483 >= 0
 c6485: y_15 + y_18 + y_21 + y_36 + y_41 + y_47 + y_48 + y_79 + y_95 - z_6484
         >= 0
 c6486: y_22 + y_57 + y_65 + y_88 - z_6485 >= 0
 c6487: y_25 + y_29 + y_35 + y_77 - z_6486 >= 0
 c6488: y_1 + y_7 + y_23 + y_31 + y_37 + y_51 + y_73 + y_89 + y_98 + y_99
        - z_6487 >= 0
 c6489: y_6 + y_58 + y_90 - z_6488 >= 0
 c6490: y_3 + y_19 + y_21 + y_33 + y_36 + y_38 + y_41 + y_43 + y_47 + y_48
        + y_79 - z_6489 >= 0
 c6491: y_25 + y_29 + y_35 + y_77 - z_6490 >= 0
 c6492: y_13 + y_28 + y_60 + y_76 + y_81 - z_6491 >= 0
 c6493: y_4 + y_6 + y_9 + y_26 + y_32 + y_90 - z_6492 >= 0
 c6494: y_17 + y_39 + y_53 + y_58 + y_63 + y_64 + y_91 - z_6493 >= 0
 c6495: y_13 + y_28 + y_60 + y_76 + y_81 - z_6494 >= 0
 c6496: y_2 + y_14 + y_82 + y_83 + y_85 - z_6495 >= 0
 c6497: y_46 + y_49 + y_74 + y_95 - z_6496 >= 0
 c6498: y_1 + y_8 + y_46 + y_49 + y_73 + y_75 + y_80 - z_6497 >= 0
 c6499: y_10 + y_13 + y_28 + y_60 + y_76 + y_78 + y_81 - z_6498 >= 0
 c6500: y_5 + y_17 + y_58 + y_91 - z_6499 >= 0
 c6501: y_11 + y_52 + y_67 + y_68 + y_69 + y_86 + y_97 - z_6500 >= 0
 c6502: y_0 - z_6501 >= 0
 c6503: y_1 + y_31 + y_37 + y_73 + y_89 + y_99 - z_6502 >= 0
 c6504: y_22 + y_57 + y_65 + y_72 - z_6503 >= 0
 c6505: y_4 + y_9 + y_26 + y_32 + y_38 + y_67 + y_69 - z_6504 >= 0
 c6506: y_9 + y_11 + y_26 + y_38 + y_67 + y_68 + y_69 + y_97 - z_6505 >= 0
 c6507: y_40 + y_54 + y_66 + y_87 + y_92 - z_6506 >= 0
 c6508: y_23 + y_46 + y_49 + y_74 + y_98 - z_6507 >= 0
 c6509: y_0 + y_16 + y_39 + y_42 + y_53 + y_54 + y_55 + y_63 + y_64 - z_6508
         >= 0
 c6510: y_3 + y_15 + y_19 + y_20 + y_21 + y_33 + y_38 + y_41 + y_44 + y_48
        + y_61 + y_79 + y_93 - z_6509 >= 0
 c6511: y_22 + y_50 + y_56 + y_65 - z_6510 >= 0
 c6512: y_83 + y_84 + y_85 - z_6511 >= 0
 c6513: y_4 + y_9 + y_19 + y_26 + y_32 + y_38 + y_44 + y_67 + y_69 - z_6512 >= 
        0
 c6514: y_0 + y_2 + y_27 + y_42 + y_55 + y_64 - z_6513 >= 0
 c6515: y_0 + y_27 + y_42 + y_55 + y_63 + y_64 - z_6514 >= 0
 c6516: y_1 + y_23 + y_46 + y_49 + y_73 + y_75 + y_98 + y_99 - z_6515 >= 0
 c6517: y_9 + y_26 + y_67 + y_71 - z_6516 >= 0
 c6518: y_29 - z_6517 >= 0
 c6519: y_3 + y_4 + y_5 + y_6 + y_32 + y_33 + y_38 + y_44 + y_90 - z_6518 >= 0
 c6520: y_4 + y_6 + y_32 + y_90 - z_6519 >= 0
 c6521: y_4 + y_6 + y_22 + y_32 + y_88 + y_90 - z_6520 >= 0
 c6522: y_30 + y_43 + y_52 + y_59 + y_94 - z_6521 >= 0
 c6523: y_46 + y_49 + y_74 + y_95 - z_6522 >= 0
 c6524: y_0 + y_27 + y_42 - z_6523 >= 0
 c6525: y_22 + y_65 - z_6524 >= 0
 c6526: y_9 + y_11 + y_26 + y_38 + y_67 + y_68 + y_69 + y_97 - z_6525 >= 0
 c6527: y_25 + y_35 + y_40 + y_66 + y_77 + y_87 + y_92 - z_6526 >= 0
 c6528: y_1 + y_23 + y_46 + y_49 + y_73 + y_98 + y_99 - z_6527 >= 0
 c6529: y_96 - z_6528 >= 0
 c6530: y_9 + y_26 + y_71 - z_6529 >= 0
 c6531: y_7 + y_23 + y_31 + y_51 + y_62 + y_89 + y_98 + y_99 - z_6530 >= 0
 c6532: y_25 + y_29 + y_35 + y_77 - z_6531 >= 0
 c6533: y_3 + y_15 + y_20 + y_21 + y_33 + y_34 + y_41 + y_48 + y_61 + y_79
        + y_80 + y_93 - z_6532 >= 0
 c6534: y_11 + y_24 + y_52 + y_67 + y_68 + y_86 + y_97 - z_6533 >= 0
 c6535: y_22 + y_56 - z_6534 >= 0
 c6536: y_3 + y_19 + y_33 + y_38 + y_44 + y_48 + y_90 - z_6535 >= 0
 c6537: y_45 + y_96 - z_6536 >= 0
 c6538: y_17 + y_39 + y_53 + y_58 + y_63 + y_64 + y_91 - z_6537 >= 0
 c6539: y_5 + y_34 + y_93 - z_6538 >= 0
 c6540: y_1 + y_7 + y_23 + y_31 + y_51 + y_73 + y_89 + y_98 + y_99 - z_6539 >= 
        0
 c6541: y_83 + y_84 + y_85 - z_6540 >= 0
 c6542: y_5 + y_8 + y_17 + y_34 + y_91 - z_6541 >= 0
 c6543: y_12 + y_22 + y_57 + y_72 + y_88 - z_6542 >= 0
 c6544: y_15 + y_18 + y_21 + y_36 + y_41 + y_47 + y_48 + y_79 + y_95 - z_6543
         >= 0
 c6545: y_45 - z_6544 >= 0
 c6546: y_15 + y_20 + y_41 + y_46 + y_47 + y_48 + y_61 + y_75 + y_79 + y_80
        + y_93 + y_95 - z_6545 >= 0
 c6547: y_18 + y_21 + y_36 + y_41 + y_47 - z_6546 >= 0
 c6548: y_7 + y_23 + y_31 + y_51 + y_62 + y_89 + y_98 + y_99 - z_6547 >= 0
 c6549: y_1 + y_23 + y_46 + y_49 + y_74 + y_98 - z_6548 >= 0
 c6550: y_40 + y_92 - z_6549 >= 0
 c6551: y_13 - z_6550 >= 0
 c6552: y_2 + y_83 + y_85 - z_6551 >= 0
 c6553: y_17 + y_53 + y_91 + y_96 - z_6552 >= 0
 c6554: y_16 + y_25 + y_50 + y_54 + y_56 + y_66 + y_77 + y_87 - z_6553 >= 0
 c6555: y_12 + y_57 + y_88 - z_6554 >= 0
 c6556: y_10 + y_13 + y_28 + y_60 + y_76 + y_78 + y_81 - z_6555 >= 0
 c6557: y_5 + y_6 + y_34 + y_44 + y_90 - z_6556 >= 0
 c6558: y_17 + y_96 - z_6557 >= 0
 c6559: y_2 + y_14 + y_82 + y_83 + y_84 + y_85 - z_6558 >= 0
 c6560: y_15 + y_18 + y_20 + y_21 + y_36 + y_41 + y_47 + y_48 + y_61 + y_79
        + y_80 + y_93 + y_95 - z_6559 >= 0
 c6561: y_40 + y_85 + y_92 - z_6560 >= 0
 c6562: y_16 + y_40 + y_54 + y_66 + y_87 + y_92 - z_6561 >= 0
 c6563: y_9 + y_71 - z_6562 >= 0
 c6564: y_11 + y_26 + y_52 + y_67 + y_68 + y_69 + y_97 - z_6563 >= 0
 c6565: y_15 + y_18 + y_20 + y_21 + y_33 + y_36 + y_41 + y_47 + y_48 + y_61
        + y_79 + y_93 + y_95 - z_6564 >= 0
 c6566: y_37 + y_45 + y_73 + y_89 + y_99 - z_6565 >= 0
 c6567: y_31 + y_37 + y_89 + y_99 - z_6566 >= 0
 c6568: y_73 + y_96 - z_6567 >= 0
 c6569: y_22 + y_57 + y_65 - z_6568 >= 0
 c6570: y_0 + y_27 + y_42 + y_64 - z_6569 >= 0
 c6571: y_1 + y_23 + y_46 + y_49 + y_74 + y_75 + y_98 - z_6570 >= 0
 c6572: y_25 + y_29 + y_35 + y_40 + y_50 + y_56 + y_66 + y_77 + y_87 + y_92
        - z_6571 >= 0
 c6573: y_16 + y_50 + y_54 + y_56 + y_66 + y_87 - z_6572 >= 0
 c6574: y_0 + y_17 + y_39 + y_53 + y_63 + y_64 + y_91 - z_6573 >= 0
 c6575: y_50 + y_56 + y_65 - z_6574 >= 0
 c6576: y_56 + y_65 - z_6575 >= 0
 c6577: - z_6576 >= 0
 c6578: y_22 + y_50 + y_56 + y_65 - z_6577 >= 0
 c6579: y_17 + y_53 + y_58 + y_91 - z_6578 >= 0
 c6580: y_13 + y_28 + y_60 + y_76 + y_81 - z_6579 >= 0
 c6581: y_21 + y_30 + y_36 + y_41 + y_43 + y_47 + y_48 + y_94 - z_6580 >= 0
 c6582: y_0 + y_16 + y_39 + y_42 + y_54 + y_55 + y_63 + y_64 - z_6581 >= 0
 c6583: y_17 + y_53 + y_63 + y_64 + y_96 - z_6582 >= 0
 c6584: y_83 + y_84 + y_85 - z_6583 >= 0
 c6585: y_1 + y_31 + y_37 + y_73 + y_89 + y_96 + y_99 - z_6584 >= 0
 c6586: y_5 + y_6 + y_34 + y_90 - z_6585 >= 0
 c6587: y_25 + y_35 + y_77 + y_92 - z_6586 >= 0
 c6588: y_40 + y_87 + y_92 - z_6587 >= 0
 c6589: y_6 + y_22 + y_32 - z_6588 >= 0
 c6590: y_5 + y_8 + y_15 + y_20 + y_34 + y_61 + y_75 + y_79 + y_80 + y_93
        - z_6589 >= 0
 c6591: y_15 + y_46 + y_49 + y_74 + y_75 + y_80 + y_95 - z_6590 >= 0
 c6592: y_7 + y_23 + y_31 + y_51 + y_62 + y_89 + y_98 + y_99 - z_6591 >= 0
 c6593: y_0 + y_2 + y_14 + y_27 + y_42 + y_55 + y_82 - z_6592 >= 0
 c6594: y_4 + y_9 + y_12 + y_32 + y_71 + y_88 - z_6593 >= 0
 c6595: y_40 + y_55 + y_92 - z_6594 >= 0
 c6596: y_25 + y_29 + y_35 + y_50 + y_56 + y_77 + y_87 - z_6595 >= 0
 c6597: y_10 + y_57 + y_60 + y_72 + y_76 + y_78 + y_81 - z_6596 >= 0
 c6598: y_3 + y_15 + y_18 + y_21 + y_33 + y_36 + y_41 + y_47 + y_48 + y_61
        + y_79 - z_6597 >= 0
 c6599: y_0 + y_27 + y_39 + y_42 + y_55 + y_63 + y_64 - z_6598 >= 0
 c6600: y_45 + y_96 - z_6599 >= 0
 c6601: y_10 + y_12 + y_57 + y_72 + y_78 + y_88 - z_6600 >= 0
 c6602: y_9 + y_11 + y_26 + y_67 + y_68 + y_69 + y_97 - z_6601 >= 0
 c6603: y_3 + y_19 + y_21 + y_33 + y_36 + y_38 + y_41 + y_44 + y_47 + y_48
        + y_79 - z_6602 >= 0
 c6604: y_1 + y_73 + y_96 - z_6603 >= 0
 c6605: y_12 + y_22 + y_57 + y_65 + y_72 + y_88 - z_6604 >= 0
 c6606: y_3 + y_15 + y_18 + y_21 + y_33 + y_36 + y_41 + y_47 + y_48 + y_79
        - z_6605 >= 0
 c6607: y_12 + y_22 + y_57 + y_65 + y_72 + y_88 - z_6606 >= 0
 c6608: y_40 + y_83 + y_85 + y_92 - z_6607 >= 0
 c6609: y_15 + y_18 + y_46 + y_49 + y_74 + y_95 - z_6608 >= 0
 c6610: y_16 + y_39 + y_53 + y_54 + y_58 + y_63 + y_66 + y_91 - z_6609 >= 0
 c6611: y_13 + y_28 + y_60 + y_72 + y_76 + y_78 + y_81 - z_6610 >= 0
 c6612: y_50 + y_56 + y_66 - z_6611 >= 0
 c6613: y_3 + y_19 + y_21 + y_33 + y_36 + y_41 + y_43 + y_47 + y_48 + y_79
        + y_94 - z_6612 >= 0
 c6614: y_13 + y_28 + y_60 + y_72 + y_76 + y_78 + y_81 - z_6613 >= 0
 c6615: y_13 - z_6614 >= 0
 c6616: y_16 + y_39 + y_40 + y_54 + y_55 + y_63 + y_64 + y_66 - z_6615 >= 0
 c6617: y_3 + y_19 + y_21 + y_33 + y_38 + y_41 + y_44 + y_47 + y_48 + y_79
        - z_6616 >= 0
 c6618: y_37 + y_45 + y_89 - z_6617 >= 0
 c6619: y_8 + y_20 + y_46 + y_75 + y_80 + y_93 + y_95 - z_6618 >= 0
 c6620: y_3 + y_15 + y_18 + y_21 + y_33 + y_36 + y_41 + y_47 + y_48 + y_79
        + y_94 - z_6619 >= 0
 c6621: y_11 + y_52 + y_59 + y_67 + y_68 + y_69 + y_97 - z_6620 >= 0
 c6622: y_0 + y_39 + y_42 + y_54 + y_55 + y_63 + y_64 - z_6621 >= 0
 c6623: y_9 + y_12 + y_71 - z_6622 >= 0
 c6624: y_3 + y_5 + y_19 + y_20 + y_33 + y_34 + y_38 + y_44 + y_48 + y_61 + y_79
        + y_93 - z_6623 >= 0
 c6625: y_25 + y_29 + y_35 + y_77 - z_6624 >= 0
 c6626: y_9 + y_71 + y_97 - z_6625 >= 0
 c6627: y_9 + y_12 + y_71 + y_88 - z_6626 >= 0
 c6628: y_0 + y_27 + y_45 - z_6627 >= 0
 c6629: y_25 + y_29 + y_35 + y_77 - z_6628 >= 0
 c6630: y_5 + y_8 + y_17 + y_34 + y_80 - z_6629 >= 0
 c6631: y_10 + y_57 + y_72 + y_78 + y_81 - z_6630 >= 0
 c6632: y_0 + y_27 + y_42 - z_6631 >= 0
 c6633: y_11 + y_24 + y_43 + y_52 + y_59 + y_68 + y_70 + y_86 - z_6632 >= 0
 c6634: y_9 + y_11 + y_26 + y_52 + y_67 + y_68 + y_69 + y_97 - z_6633 >= 0
 c6635: y_17 + y_53 + y_58 + y_63 + y_91 - z_6634 >= 0
 c6636: y_8 + y_20 + y_34 + y_46 + y_61 + y_75 + y_80 + y_93 - z_6635 >= 0
 c6637: y_22 - z_6636 >= 0
 c6638: y_12 + y_71 + y_88 - z_6637 >= 0
 c6639: y_0 + y_27 + y_42 - z_6638 >= 0
 c6640: y_12 + y_57 + y_88 - z_6639 >= 0
 c6641: y_25 + y_29 + y_50 + y_56 + y_77 + y_87 - z_6640 >= 0
 c6642: y_45 - z_6641 >= 0
 c6643: y_1 + y_23 + y_46 + y_49 + y_74 + y_95 + y_98 - z_6642 >= 0
 c6644: y_10 + y_13 + y_28 + y_60 + y_76 + y_78 + y_81 - z_6643 >= 0
 c6645: y_37 + y_45 - z_6644 >= 0
 c6646: y_23 + y_49 + y_74 + y_98 - z_6645 >= 0
 c6647: y_37 + y_45 - z_6646 >= 0
 c6648: y_25 + y_29 + y_35 + y_77 - z_6647 >= 0
 c6649: y_5 + y_17 + y_58 + y_91 - z_6648 >= 0
 c6650: y_2 + y_40 + y_83 + y_85 + y_92 - z_6649 >= 0
 c6651: y_12 + y_71 + y_88 - z_6650 >= 0
 c6652: y_0 + y_27 + y_42 + y_55 - z_6651 >= 0
 c6653: y_1 + y_23 + y_31 + y_46 + y_49 + y_74 + y_98 + y_99 - z_6652 >= 0
 c6654: y_1 + y_8 + y_73 + y_75 + y_96 - z_6653 >= 0
 c6655: y_3 + y_19 + y_21 + y_33 + y_36 + y_41 + y_43 + y_47 + y_48 + y_79
        + y_94 - z_6654 >= 0
 c6656: y_11 + y_24 + y_52 + y_59 + y_67 + y_68 + y_69 + y_70 + y_86 + y_97
        - z_6655 >= 0
 c6657: y_13 + y_28 + y_60 + y_76 + y_78 + y_81 - z_6656 >= 0
 c6658: y_3 + y_15 + y_19 + y_20 + y_21 + y_33 + y_38 + y_41 + y_44 + y_48
        + y_61 + y_79 + y_93 - z_6657 >= 0
 c6659: y_0 + y_27 + y_45 - z_6658 >= 0
 c6660: y_7 + y_23 + y_31 + y_51 + y_62 + y_89 + y_98 + y_99 - z_6659 >= 0
 c6661: y_9 + y_26 + y_67 + y_71 - z_6660 >= 0
 c6662: y_83 + y_84 + y_85 - z_6661 >= 0
 c6663: y_12 + y_22 + y_57 + y_65 + y_72 + y_88 - z_6662 >= 0
 c6664: y_11 + y_52 + y_67 + y_68 + y_69 + y_97 - z_6663 >= 0
 c6665: y_1 + y_23 + y_31 + y_73 + y_89 + y_98 + y_99 - z_6664 >= 0
 c6666: y_7 + y_23 + y_31 + y_37 + y_51 + y_62 + y_89 + y_98 + y_99 - z_6665
         >= 0
 c6667: y_3 + y_11 + y_19 + y_33 + y_38 + y_43 + y_52 + y_59 + y_67 + y_68
        + y_69 - z_6666 >= 0
 c6668: y_13 + y_28 + y_60 + y_76 - z_6667 >= 0
 c6669: y_23 + y_46 + y_49 + y_74 + y_98 - z_6668 >= 0
 c6670: y_40 + y_92 - z_6669 >= 0
 c6671: y_1 + y_23 + y_31 + y_37 + y_73 + y_89 + y_98 + y_99 - z_6670 >= 0
 c6672: y_7 + y_23 + y_31 + y_51 + y_62 + y_89 + y_98 + y_99 - z_6671 >= 0
 c6673: y_0 + y_2 + y_27 + y_42 + y_55 + y_64 - z_6672 >= 0
 c6674: y_1 + y_8 + y_46 + y_49 + y_74 + y_75 + y_95 - z_6673 >= 0
 c6675: y_96 - z_6674 >= 0
 c6676: y_1 + y_23 + y_46 + y_49 + y_74 + y_98 - z_6675 >= 0
 c6677: y_4 + y_9 + y_26 + y_32 + y_38 + y_67 + y_69 - z_6676 >= 0
 c6678: y_0 + y_27 - z_6677 >= 0
 c6679: y_7 + y_23 + y_31 + y_51 + y_62 + y_98 - z_6678 >= 0
 c6680: y_3 + y_11 + y_19 + y_26 + y_38 + y_44 + y_67 + y_68 + y_69 - z_6679
         >= 0
 c6681: y_2 + y_83 + y_85 - z_6680 >= 0
 c6682: y_25 + y_29 + y_35 + y_40 + y_77 + y_87 + y_92 - z_6681 >= 0
 c6683: y_7 + y_31 + y_37 + y_51 + y_89 + y_99 - z_6682 >= 0
 c6684: y_9 + y_11 + y_26 + y_67 + y_68 + y_69 + y_97 - z_6683 >= 0
 c6685: y_1 + y_23 + y_46 + y_49 + y_74 + y_98 + y_99 - z_6684 >= 0
 c6686: y_45 + y_96 - z_6685 >= 0
 c6687: y_1 + y_8 + y_20 + y_46 + y_73 + y_75 + y_80 + y_93 - z_6686 >= 0
 c6688: y_5 + y_6 + y_34 + y_58 + y_90 + y_91 - z_6687 >= 0
 c6689: y_10 + y_13 + y_57 + y_60 + y_72 + y_76 + y_78 + y_81 - z_6688 >= 0
 c6690: y_3 + y_19 + y_21 + y_33 + y_36 + y_41 + y_43 + y_47 + y_48 + y_79
        + y_94 - z_6689 >= 0
 c6691: y_40 + y_83 + y_85 + y_92 - z_6690 >= 0
 c6692: y_23 + y_49 + y_74 + y_98 - z_6691 >= 0
 c6693: y_8 + y_73 + y_75 + y_96 - z_6692 >= 0
 c6694: y_5 + y_33 + y_34 + y_44 + y_61 + y_90 - z_6693 >= 0
 c6695: y_8 + y_17 + y_34 + y_75 + y_80 + y_96 - z_6694 >= 0
 c6696: y_4 + y_6 + y_90 - z_6695 >= 0
 c6697: y_23 + y_98 - z_6696 >= 0
 c6698: y_8 + y_15 + y_20 + y_34 + y_46 + y_61 + y_75 + y_79 + y_80 + y_93
        + y_95 - z_6697 >= 0
 c6699: y_1 + y_73 + y_96 - z_6698 >= 0
 c6700: y_5 + y_6 + y_58 + y_90 + y_91 - z_6699 >= 0
 c6701: y_16 + y_39 + y_50 + y_54 + y_58 + y_63 + y_66 + y_87 - z_6700 >= 0
 c6702: y_10 + y_13 + y_57 + y_60 + y_72 + y_76 + y_78 + y_81 - z_6701 >= 0
 c6703: y_9 + y_71 - z_6702 >= 0
 c6704: y_40 + y_83 + y_85 + y_92 - z_6703 >= 0
 c6705: y_40 + y_83 + y_85 + y_92 - z_6704 >= 0
 c6706: y_9 + y_71 - z_6705 >= 0
 c6707: y_3 + y_11 + y_19 + y_26 + y_38 + y_43 + y_52 + y_67 + y_68 + y_69
        - z_6706 >= 0
 c6708: y_15 + y_18 + y_21 + y_36 + y_41 + y_47 + y_74 + y_95 - z_6707 >= 0
 c6709: y_15 + y_18 + y_21 + y_36 + y_41 + y_47 + y_48 + y_79 + y_94 - z_6708
         >= 0
 c6710: y_25 + y_35 + y_40 + y_77 + y_87 + y_92 - z_6709 >= 0
 c6711: y_25 + y_35 + y_77 + y_92 - z_6710 >= 0
 c6712: y_16 + y_39 + y_53 + y_54 + y_58 + y_63 + y_91 - z_6711 >= 0
 c6713: y_10 + y_13 + y_28 + y_60 + y_76 + y_78 + y_81 - z_6712 >= 0
 c6714: y_11 + y_19 + y_26 + y_38 + y_43 + y_52 + y_59 + y_67 + y_68 + y_69
        + y_97 - z_6713 >= 0
 c6715: y_37 + y_45 + y_73 + y_96 - z_6714 >= 0
 c6716: y_4 + y_6 + y_22 + y_32 + y_90 - z_6715 >= 0
 c6717: y_0 + y_27 - z_6716 >= 0
 c6718: y_35 + y_92 - z_6717 >= 0
 c6719: y_27 - z_6718 >= 0
 c6720: y_11 + y_19 + y_26 + y_38 + y_43 + y_52 + y_59 + y_67 + y_68 + y_69
        + y_97 - z_6719 >= 0
 c6721: y_16 + y_25 + y_40 + y_50 + y_54 + y_56 + y_66 + y_77 + y_87 - z_6720
         >= 0
 c6722: y_3 + y_19 + y_21 + y_33 + y_38 + y_44 + y_48 + y_79 - z_6721 >= 0
 c6723: y_7 + y_31 + y_37 + y_51 + y_62 + y_89 + y_98 + y_99 - z_6722 >= 0
 c6724: y_0 + y_39 + y_42 + y_53 + y_55 + y_63 + y_64 - z_6723 >= 0
 c6725: y_0 + y_27 + y_42 + y_55 + y_63 + y_64 - z_6724 >= 0
 c6726: y_58 - z_6725 >= 0
 c6727: y_29 - z_6726 >= 0
 c6728: y_0 + y_27 + y_42 + y_55 + y_63 + y_64 - z_6727 >= 0
 c6729: y_11 + y_24 + y_30 + y_43 + y_52 + y_59 + y_70 + y_86 - z_6728 >= 0
 c6730: y_24 + y_30 + y_43 + y_52 + y_59 + y_70 - z_6729 >= 0
 c6731: y_17 + y_39 + y_53 + y_58 + y_63 + y_91 - z_6730 >= 0
 c6732: y_4 + y_5 + y_6 + y_90 - z_6731 >= 0
 c6733: y_2 + y_83 + y_84 + y_85 - z_6732 >= 0
 c6734: y_15 + y_18 + y_20 + y_41 + y_46 + y_49 + y_61 + y_74 + y_75 + y_79
        + y_80 + y_93 + y_95 - z_6733 >= 0
 c6735: y_5 + y_15 + y_20 + y_33 + y_34 + y_48 + y_61 + y_79 + y_80 + y_93
        - z_6734 >= 0
 c6736: y_25 + y_35 + y_40 + y_77 + y_87 + y_92 - z_6735 >= 0
 c6737: y_7 + y_23 + y_31 + y_51 + y_62 + y_98 - z_6736 >= 0
 c6738: y_1 + y_7 + y_23 + y_31 + y_51 + y_73 + y_89 + y_98 + y_99 - z_6737 >= 
        0
 c6739: y_96 - z_6738 >= 0
 c6740: y_4 + y_9 + y_26 + y_32 + y_38 + y_44 + y_90 - z_6739 >= 0
 c6741: y_37 + y_45 + y_73 + y_89 - z_6740 >= 0
 c6742: y_10 + y_78 + y_81 - z_6741 >= 0
 c6743: y_1 + y_8 + y_46 + y_49 + y_73 + y_75 + y_80 - z_6742 >= 0
 c6744: y_8 + y_15 + y_20 + y_46 + y_49 + y_61 + y_75 + y_80 + y_93 + y_95
        - z_6743 >= 0
 c6745: y_1 + y_8 + y_46 + y_73 + y_75 + y_96 - z_6744 >= 0
 c6746: y_0 + y_27 + y_42 + y_55 + y_64 - z_6745 >= 0
 c6747: y_22 + y_57 + y_65 + y_72 - z_6746 >= 0
 c6748: y_2 + y_83 + y_84 + y_85 - z_6747 >= 0
 c6749: y_4 + y_6 + y_22 + y_32 + y_90 - z_6748 >= 0
 c6750: y_7 + y_31 + y_37 + y_51 + y_89 + y_99 - z_6749 >= 0
 c6751: y_4 + y_9 + y_26 + y_32 + y_71 - z_6750 >= 0
 c6752: y_2 + y_83 + y_85 - z_6751 >= 0
 c6753: y_5 + y_8 + y_20 + y_34 + y_61 + y_80 + y_93 - z_6752 >= 0
 c6754: y_0 + y_14 + y_27 + y_42 - z_6753 >= 0
 c6755: y_13 + y_57 + y_65 + y_72 - z_6754 >= 0
 c6756: y_2 + y_14 + y_82 + y_83 + y_84 + y_85 - z_6755 >= 0
 c6757: y_7 + y_23 + y_31 + y_51 + y_62 + y_89 + y_98 + y_99 - z_6756 >= 0
 c6758: y_4 + y_5 + y_6 + y_32 + y_44 + y_90 - z_6757 >= 0
 c6759: y_23 + y_49 + y_74 + y_98 - z_6758 >= 0
 c6760: y_6 + y_90 - z_6759 >= 0
 c6761: y_40 + y_42 + y_55 + y_92 - z_6760 >= 0
 c6762: y_23 + y_49 + y_74 + y_98 - z_6761 >= 0
 c6763: y_5 + y_20 + y_33 + y_34 + y_44 + y_61 + y_93 - z_6762 >= 0
 c6764: y_11 + y_67 + y_68 + y_69 + y_97 - z_6763 >= 0
 c6765: y_24 + y_52 + y_59 + y_70 + y_86 - z_6764 >= 0
 c6766: y_16 + y_39 + y_50 + y_54 + y_56 + y_66 + y_87 - z_6765 >= 0
 c6767: y_16 + y_39 + y_53 + y_58 + y_91 - z_6766 >= 0
 c6768: y_29 - z_6767 >= 0
 c6769: y_10 + y_12 + y_57 + y_72 + y_78 + y_88 - z_6768 >= 0
 c6770: y_22 + y_50 + y_56 + y_65 - z_6769 >= 0
 c6771: y_16 + y_39 + y_54 + y_58 + y_66 + y_91 - z_6770 >= 0
 c6772: y_6 + y_58 - z_6771 >= 0
 c6773: y_3 + y_19 + y_21 + y_33 + y_38 + y_41 + y_43 + y_44 + y_48 - z_6772
         >= 0
 c6774: y_83 + y_84 + y_85 - z_6773 >= 0
 c6775: y_0 + y_27 + y_42 + y_55 + y_63 + y_64 - z_6774 >= 0
 c6776: y_5 + y_17 + y_34 + y_91 - z_6775 >= 0
 c6777: y_16 + y_39 + y_53 + y_54 + y_58 + y_63 + y_66 + y_87 - z_6776 >= 0
 c6778: y_25 + y_29 + y_35 + y_77 + y_87 - z_6777 >= 0
 c6779: y_45 - z_6778 >= 0
 c6780: y_83 + y_85 + y_92 - z_6779 >= 0
 c6781: y_16 + y_39 + y_53 + y_54 + y_58 + y_66 + y_91 - z_6780 >= 0
 c6782: y_29 - z_6781 >= 0
 c6783: y_1 + y_8 + y_73 + y_75 + y_96 - z_6782 >= 0
 c6784: y_11 + y_24 + y_43 + y_52 + y_59 + y_67 + y_68 + y_69 + y_70 + y_97
        - z_6783 >= 0
 c6785: y_71 - z_6784 >= 0
 c6786: y_9 + y_12 + y_71 - z_6785 >= 0
 c6787: y_45 - z_6786 >= 0
 c6788: y_2 + y_14 + y_82 + y_83 - z_6787 >= 0
 c6789: y_3 + y_21 + y_30 + y_36 + y_41 + y_43 + y_47 + y_48 + y_94 - z_6788
         >= 0
 c6790: y_57 + y_65 + y_72 - z_6789 >= 0
 c6791: y_3 + y_19 + y_33 + y_38 + y_43 + y_44 + y_48 + y_69 - z_6790 >= 0
 c6792: y_1 + y_23 + y_46 + y_49 + y_74 + y_98 - z_6791 >= 0
 c6793: y_10 + y_57 + y_60 + y_72 + y_76 + y_78 + y_81 - z_6792 >= 0
 c6794: y_2 + y_83 + y_84 + y_85 - z_6793 >= 0
 c6795: y_1 + y_31 + y_37 + y_73 + y_89 + y_99 - z_6794 >= 0
 c6796: y_12 + y_57 + y_72 + y_88 - z_6795 >= 0
 c6797: y_9 + y_12 + y_71 + y_88 - z_6796 >= 0
 c6798: y_15 + y_18 + y_21 + y_33 + y_36 + y_41 + y_47 + y_48 + y_61 + y_79
        - z_6797 >= 0
 c6799: y_4 + y_9 + y_26 + y_32 + y_71 - z_6798 >= 0
 c6800: y_40 + y_87 + y_92 - z_6799 >= 0
 c6801: y_11 + y_24 + y_52 + y_59 + y_67 + y_68 + y_69 + y_70 + y_86 + y_97
        - z_6800 >= 0
 c6802: y_23 + y_46 + y_49 + y_74 - z_6801 >= 0
 c6803: y_4 + y_5 + y_6 + y_32 + y_33 + y_38 + y_44 + y_90 - z_6802 >= 0
 c6804: y_9 + y_11 + y_19 + y_26 + y_38 + y_67 + y_68 + y_69 - z_6803 >= 0
 c6805: y_17 + y_53 + y_58 + y_91 - z_6804 >= 0
 c6806: y_1 + y_7 + y_23 + y_31 + y_37 + y_51 + y_73 + y_89 + y_98 + y_99
        - z_6805 >= 0
 c6807: y_4 + y_9 + y_26 + y_32 + y_90 - z_6806 >= 0
 c6808: y_16 + y_39 + y_42 + y_53 + y_54 + y_55 + y_63 + y_64 - z_6807 >= 0
 c6809: y_37 + y_45 + y_73 + y_96 - z_6808 >= 0
 c6810: y_3 + y_5 + y_33 + y_34 + y_38 + y_44 + y_48 + y_61 + y_90 + y_93
        - z_6809 >= 0
 c6811: y_4 + y_5 + y_6 + y_90 - z_6810 >= 0
 c6812: y_9 + y_71 - z_6811 >= 0
 c6813: y_71 - z_6812 >= 0
 c6814: y_25 + y_29 + y_50 + y_56 + y_77 - z_6813 >= 0
 c6815: y_10 + y_13 + y_28 + y_60 + y_76 + y_78 + y_81 - z_6814 >= 0
 c6816: y_65 - z_6815 >= 0
 c6817: y_83 + y_84 + y_85 - z_6816 >= 0
 c6818: y_10 + y_12 + y_57 + y_72 + y_78 + y_88 - z_6817 >= 0
 c6819: y_16 + y_39 + y_53 + y_54 + y_55 + y_63 + y_64 + y_66 + y_87 - z_6818
         >= 0
 c6820: y_10 + y_60 + y_76 + y_78 + y_81 - z_6819 >= 0
 c6821: y_1 + y_23 + y_46 + y_49 + y_73 + y_74 + y_98 + y_99 - z_6820 >= 0
 c6822: y_7 + y_51 + y_62 - z_6821 >= 0
 c6823: y_3 + y_5 + y_20 + y_33 + y_34 + y_44 + y_48 + y_61 + y_79 + y_80 + y_93
        - z_6822 >= 0
 c6824: y_22 + y_56 + y_65 - z_6823 >= 0
 c6825: y_3 + y_19 + y_33 + y_38 + y_44 + y_48 + y_61 + y_79 - z_6824 >= 0
 c6826: y_31 + y_37 + y_89 + y_99 - z_6825 >= 0
 c6827: - z_6826 >= 0
 c6828: y_22 + y_57 + y_65 - z_6827 >= 0
 c6829: y_5 + y_8 + y_15 + y_20 + y_34 + y_61 + y_75 + y_79 + y_80 + y_93 + y_95
        - z_6828 >= 0
 c6830: y_5 + y_6 + y_34 + y_90 - z_6829 >= 0
 c6831: y_1 + y_7 + y_23 + y_31 + y_37 + y_51 + y_73 + y_89 + y_98 + y_99
        - z_6830 >= 0
 c6832: y_1 + y_8 + y_46 + y_49 + y_73 + y_75 - z_6831 >= 0
 c6833: y_1 + y_23 + y_31 + y_73 + y_89 + y_98 + y_99 - z_6832 >= 0
 c6834: y_9 + y_12 + y_71 + y_88 - z_6833 >= 0
 c6835: y_13 + y_28 + y_60 + y_72 + y_76 + y_78 + y_81 - z_6834 >= 0
 c6836: y_15 + y_46 + y_49 + y_74 + y_75 + y_95 - z_6835 >= 0
 c6837: y_37 + y_45 - z_6836 >= 0
 c6838: y_0 + y_27 + y_42 + y_64 - z_6837 >= 0
 c6839: y_50 + y_56 + y_65 - z_6838 >= 0
 c6840: y_1 + y_8 + y_73 + y_75 + y_96 - z_6839 >= 0
 c6841: y_31 + y_37 + y_89 + y_99 - z_6840 >= 0
 c6842: y_50 + y_56 + y_66 + y_87 - z_6841 >= 0
 c6843: y_1 + y_23 + y_31 + y_46 + y_73 + y_89 + y_98 + y_99 - z_6842 >= 0
 c6844: y_16 + y_39 + y_50 + y_54 + y_56 + y_58 + y_66 - z_6843 >= 0
 c6845: y_25 + y_29 + y_35 + y_77 - z_6844 >= 0
 c6846: y_0 + y_27 + y_42 - z_6845 >= 0
 c6847: y_73 + y_96 - z_6846 >= 0
 c6848: y_4 + y_9 + y_26 + y_32 + y_38 + y_44 + y_67 + y_69 - z_6847 >= 0
 c6849: y_22 + y_56 - z_6848 >= 0
 c6850: y_9 + y_71 - z_6849 >= 0
 c6851: y_3 + y_5 + y_15 + y_20 + y_33 + y_34 + y_41 + y_44 + y_48 + y_61 + y_79
        + y_80 + y_93 - z_6850 >= 0
 c6852: y_6 + y_90 - z_6851 >= 0
 c6853: y_22 + y_50 + y_56 + y_65 - z_6852 >= 0
 c6854: y_1 + y_31 + y_37 + y_73 + y_89 + y_99 - z_6853 >= 0
 c6855: y_5 + y_20 + y_34 + y_44 + y_61 + y_93 - z_6854 >= 0
 c6856: y_6 + y_58 - z_6855 >= 0
 c6857: y_18 + y_21 + y_36 + y_41 + y_47 + y_48 + y_79 + y_94 - z_6856 >= 0
 c6858: y_40 + y_54 + y_66 + y_87 + y_92 - z_6857 >= 0
 c6859: y_40 + y_54 + y_55 + y_87 + y_92 - z_6858 >= 0
 c6860: y_50 + y_56 + y_66 - z_6859 >= 0
 c6861: y_12 + y_22 + y_57 + y_72 + y_88 - z_6860 >= 0
 c6862: y_46 + y_49 + y_74 - z_6861 >= 0
 c6863: y_7 + y_23 + y_31 + y_51 + y_62 + y_89 + y_98 + y_99 - z_6862 >= 0
 c6864: y_16 + y_39 + y_53 + y_54 + y_58 + y_63 + y_64 + y_66 + y_91 - z_6863
         >= 0
 c6865: y_3 + y_19 + y_26 + y_33 + y_38 + y_44 + y_67 + y_69 - z_6864 >= 0
 c6866: y_1 + y_31 + y_37 + y_73 + y_89 + y_99 - z_6865 >= 0
 c6867: y_16 + y_50 + y_54 + y_56 + y_58 + y_66 - z_6866 >= 0
 c6868: y_11 + y_24 + y_30 + y_43 + y_52 + y_59 + y_68 + y_70 - z_6867 >= 0
 c6869: y_25 + y_29 + y_35 + y_40 + y_77 + y_87 + y_92 - z_6868 >= 0
 c6870: y_25 + y_35 + y_40 + y_77 + y_87 + y_92 - z_6869 >= 0
 c6871: y_40 + y_92 - z_6870 >= 0
 c6872: y_25 + y_29 + y_35 + y_50 + y_77 + y_87 - z_6871 >= 0
 c6873: y_2 + y_14 + y_82 + y_83 + y_84 + y_85 - z_6872 >= 0
 c6874: y_3 + y_9 + y_19 + y_26 + y_38 + y_44 + y_67 + y_69 - z_6873 >= 0
 c6875: y_3 + y_19 + y_33 + y_38 + y_44 + y_48 - z_6874 >= 0
 c6876: y_45 - z_6875 >= 0
 c6877: y_9 + y_26 + y_67 + y_69 + y_71 + y_97 - z_6876 >= 0
 c6878: y_25 + y_29 + y_35 + y_77 - z_6877 >= 0
 c6879: y_25 + y_29 + y_35 + y_40 + y_50 + y_66 + y_77 + y_87 + y_92 - z_6878
         >= 0
 c6880: y_3 + y_19 + y_21 + y_33 + y_36 + y_38 + y_41 + y_47 + y_48 + y_79
        - z_6879 >= 0
 c6881: y_0 + y_2 + y_14 + y_27 + y_42 + y_55 + y_82 + y_83 - z_6880 >= 0
 c6882: y_16 + y_39 + y_53 + y_54 + y_58 + y_63 + y_66 + y_91 - z_6881 >= 0
 c6883: y_8 + y_15 + y_20 + y_34 + y_61 + y_75 + y_79 + y_80 + y_93 + y_95
        - z_6882 >= 0
 c6884: y_13 + y_57 + y_65 + y_72 - z_6883 >= 0
 c6885: y_1 + y_23 + y_31 + y_49 + y_89 + y_98 + y_99 - z_6884 >= 0
 c6886: y_4 + y_6 + y_9 + y_12 + y_32 + y_88 + y_90 - z_6885 >= 0
 c6887: y_31 + y_37 + y_45 + y_89 + y_99 - z_6886 >= 0
 c6888: y_15 + y_18 + y_46 + y_49 + y_74 + y_95 - z_6887 >= 0
 c6889: y_1 + y_7 + y_23 + y_31 + y_37 + y_51 + y_73 + y_89 + y_98 + y_99
        - z_6888 >= 0
 c6890: y_16 + y_40 + y_54 + y_66 + y_87 + y_92 - z_6889 >= 0
 c6891: y_5 + y_8 + y_17 + y_34 + y_93 - z_6890 >= 0
 c6892: y_17 + y_96 - z_6891 >= 0
 c6893: y_22 + y_57 + y_65 + y_72 - z_6892 >= 0
 c6894: y_8 + y_15 + y_20 + y_46 + y_49 + y_74 + y_75 + y_80 + y_93 + y_95
        - z_6893 >= 0
 c6895: y_18 + y_21 + y_36 + y_41 + y_47 + y_94 - z_6894 >= 0
 c6896: y_16 + y_39 + y_40 + y_54 + y_55 + y_63 + y_64 + y_66 + y_87 - z_6895
         >= 0
 c6897: y_22 + y_57 + y_65 + y_72 - z_6896 >= 0
 c6898: y_1 + y_8 + y_15 + y_20 + y_46 + y_49 + y_75 + y_80 + y_93 + y_95
        - z_6897 >= 0
 c6899: y_7 + y_31 + y_51 + y_62 + y_89 + y_99 - z_6898 >= 0
 c6900: y_7 + y_31 + y_37 + y_51 + y_89 + y_99 - z_6899 >= 0
 c6901: y_2 + y_40 + y_42 + y_55 + y_83 - z_6900 >= 0
 c6902: y_3 + y_19 + y_26 + y_33 + y_38 + y_44 + y_48 + y_69 - z_6901 >= 0
 c6903: y_7 + y_23 + y_31 + y_51 + y_62 + y_89 + y_98 + y_99 - z_6902 >= 0
 c6904: y_1 + y_8 + y_46 + y_49 + y_73 + y_75 + y_80 + y_95 - z_6903 >= 0
 c6905: y_0 + y_16 + y_39 + y_42 + y_53 + y_54 + y_55 + y_63 + y_64 - z_6904
         >= 0
 c6906: y_10 + y_78 + y_81 - z_6905 >= 0
 c6907: y_31 + y_37 + y_89 + y_99 - z_6906 >= 0
 c6908: y_2 + y_14 + y_27 + y_42 + y_55 + y_82 + y_83 - z_6907 >= 0
 c6909: y_45 - z_6908 >= 0
 c6910: y_12 + y_71 + y_88 - z_6909 >= 0
 c6911: y_3 + y_5 + y_15 + y_20 + y_33 + y_34 + y_41 + y_44 + y_48 + y_61 + y_79
        + y_80 + y_93 - z_6910 >= 0
 c6912: y_8 + y_73 + y_75 + y_80 + y_93 + y_96 - z_6911 >= 0
 c6913: y_2 + y_14 + y_27 + y_82 - z_6912 >= 0
 c6914: y_15 + y_18 + y_36 + y_41 + y_47 + y_74 + y_95 - z_6913 >= 0
 c6915: y_4 + y_9 + y_12 + y_32 + y_88 - z_6914 >= 0
 c6916: y_85 + y_92 - z_6915 >= 0
 c6917: y_40 + y_92 - z_6916 >= 0
 c6918: y_8 + y_73 + y_96 - z_6917 >= 0
 c6919: y_0 + y_27 - z_6918 >= 0
 c6920: y_3 + y_5 + y_20 + y_33 + y_34 + y_44 + y_48 + y_61 + y_79 + y_93
        - z_6919 >= 0
 c6921: y_0 + y_17 + y_39 + y_42 + y_53 + y_55 + y_63 + y_64 - z_6920 >= 0
 c6922: y_37 + y_45 + y_89 - z_6921 >= 0
 c6923: y_11 + y_19 + y_38 + y_43 + y_52 + y_59 + y_67 + y_68 + y_69 - z_6922
         >= 0
 c6924: y_2 + y_14 + y_82 + y_83 + y_85 - z_6923 >= 0
 c6925: y_21 + y_30 + y_36 + y_43 + y_47 + y_94 - z_6924 >= 0
 c6926: y_8 + y_15 + y_20 + y_34 + y_46 + y_61 + y_75 + y_79 + y_80 + y_93
        + y_95 - z_6925 >= 0
 c6927: y_16 + y_40 + y_54 + y_55 + y_66 + y_87 + y_92 - z_6926 >= 0
 c6928: y_5 + y_15 + y_20 + y_33 + y_34 + y_44 + y_48 + y_61 + y_79 + y_80
        + y_93 - z_6927 >= 0
 c6929: y_18 + y_36 + y_41 + y_47 + y_74 + y_95 - z_6928 >= 0
 c6930: y_1 + y_8 + y_46 + y_73 + y_75 + y_80 + y_96 - z_6929 >= 0
 c6931: y_6 + y_58 + y_91 - z_6930 >= 0
 c6932: y_40 + y_54 + y_55 + y_87 + y_92 - z_6931 >= 0
 c6933: y_17 + y_53 + y_58 + y_91 - z_6932 >= 0
 c6934: y_0 - z_6933 >= 0
 c6935: y_2 + y_14 + y_27 + y_42 + y_55 + y_82 + y_83 - z_6934 >= 0
 c6936: y_4 + y_9 + y_26 + y_32 + y_38 + y_67 + y_69 - z_6935 >= 0
 c6937: y_40 + y_66 + y_87 + y_92 - z_6936 >= 0
 c6938: y_3 + y_19 + y_21 + y_30 + y_33 + y_36 + y_41 + y_43 + y_47 + y_48
        + y_79 + y_94 - z_6937 >= 0
 c6939: y_2 + y_14 + y_27 + y_82 - z_6938 >= 0
 c6940: y_10 + y_72 + y_78 + y_81 - z_6939 >= 0
 c6941: y_4 + y_9 + y_26 + y_32 - z_6940 >= 0
 c6942: y_24 + y_52 + y_59 + y_70 + y_86 - z_6941 >= 0
 c6943: y_0 + y_96 - z_6942 >= 0
 c6944: y_16 + y_39 + y_53 + y_54 + y_58 + y_63 + y_64 + y_66 + y_91 - z_6943
         >= 0
 c6945: y_16 + y_39 + y_50 + y_54 + y_56 + y_58 + y_66 - z_6944 >= 0
 c6946: y_13 + y_28 + y_60 + y_76 - z_6945 >= 0
 c6947: y_1 + y_23 + y_31 + y_46 + y_73 + y_75 + y_89 + y_99 - z_6946 >= 0
 c6948: y_12 + y_22 + y_57 + y_65 + y_72 + y_88 - z_6947 >= 0
 c6949: - z_6948 >= 0
 c6950: y_2 + y_40 + y_83 + y_85 - z_6949 >= 0
 c6951: - z_6950 >= 0
 c6952: y_23 + y_49 + y_98 - z_6951 >= 0
 c6953: y_13 + y_57 + y_60 + y_72 + y_76 + y_78 + y_81 - z_6952 >= 0
 c6954: y_2 + y_83 + y_85 - z_6953 >= 0
 c6955: y_3 + y_15 + y_18 + y_21 + y_33 + y_36 + y_41 + y_47 + y_48 + y_79
        + y_94 - z_6954 >= 0
 c6956: y_5 + y_6 + y_34 + y_44 + y_90 - z_6955 >= 0
 c6957: y_6 + y_58 + y_91 - z_6956 >= 0
 c6958: y_16 + y_39 + y_50 + y_54 + y_56 + y_58 + y_66 + y_87 - z_6957 >= 0
 c6959: y_2 + y_14 + y_82 + y_83 + y_84 - z_6958 >= 0
 c6960: y_17 + y_53 + y_58 + y_91 - z_6959 >= 0
 c6961: y_5 + y_20 + y_33 + y_34 + y_44 + y_61 + y_80 + y_93 - z_6960 >= 0
 c6962: y_16 + y_50 + y_54 + y_56 + y_66 + y_87 - z_6961 >= 0
 c6963: y_3 + y_5 + y_15 + y_20 + y_33 + y_34 + y_44 + y_48 + y_61 + y_79 + y_80
        + y_93 - z_6962 >= 0
 c6964: y_5 + y_8 + y_15 + y_20 + y_34 + y_61 + y_75 + y_79 + y_80 + y_93
        - z_6963 >= 0
 c6965: y_0 + y_27 + y_39 + y_42 + y_55 + y_63 + y_64 - z_6964 >= 0
 c6966: y_83 + y_84 + y_85 - z_6965 >= 0
 c6967: y_3 + y_5 + y_19 + y_33 + y_34 + y_38 + y_44 + y_48 + y_61 - z_6966 >= 
        0
 c6968: y_9 + y_71 - z_6967 >= 0
 c6969: y_1 + y_7 + y_23 + y_31 + y_51 + y_89 + y_98 + y_99 - z_6968 >= 0
 c6970: y_16 + y_40 + y_54 + y_55 + y_66 + y_87 + y_92 - z_6969 >= 0
 c6971: y_40 + y_83 + y_85 + y_92 - z_6970 >= 0
 c6972: y_2 + y_27 + y_42 + y_55 + y_64 - z_6971 >= 0
 c6973: y_16 + y_39 + y_53 + y_54 + y_58 + y_63 + y_66 + y_91 - z_6972 >= 0
 c6974: y_5 + y_17 + y_34 + y_91 - z_6973 >= 0
 c6975: y_25 + y_29 + y_35 + y_50 + y_56 + y_77 + y_87 - z_6974 >= 0
 c6976: y_11 + y_24 + y_52 + y_59 + y_68 + y_70 + y_86 - z_6975 >= 0
 c6977: y_37 + y_45 + y_73 + y_96 - z_6976 >= 0
 c6978: y_12 + y_22 + y_57 + y_72 + y_78 + y_88 - z_6977 >= 0
 c6979: y_3 + y_19 + y_33 + y_38 + y_44 + y_48 - z_6978 >= 0
 c6980: y_10 + y_13 + y_28 + y_60 + y_76 + y_78 + y_81 - z_6979 >= 0
 c6981: y_11 + y_24 + y_52 + y_59 + y_70 + y_86 - z_6980 >= 0
 c6982: y_12 + y_32 + y_71 + y_88 - z_6981 >= 0
 c6983: y_16 + y_40 + y_54 + y_66 + y_87 + y_92 - z_6982 >= 0
 c6984: y_71 - z_6983 >= 0
 c6985: y_9 + y_11 + y_26 + y_67 + y_68 + y_69 + y_97 - z_6984 >= 0
 c6986: y_1 + y_8 + y_46 + y_49 + y_74 + y_75 + y_95 - z_6985 >= 0
 c6987: y_0 + y_64 - z_6986 >= 0
 c6988: y_12 + y_57 + y_88 - z_6987 >= 0
 c6989: y_37 + y_73 + y_96 - z_6988 >= 0
 c6990: y_2 + y_14 + y_27 + y_42 + y_82 - z_6989 >= 0
 c6991: y_83 + y_85 + y_92 - z_6990 >= 0
 c6992: y_4 + y_9 + y_26 + y_32 + y_38 + y_67 + y_69 - z_6991 >= 0
 c6993: y_16 + y_39 + y_53 + y_54 + y_55 + y_58 + y_63 + y_64 + y_91 - z_6992
         >= 0
 c6994: y_83 + y_84 + y_85 - z_6993 >= 0
 c6995: y_24 + y_52 + y_59 + y_70 + y_86 - z_6994 >= 0
 c6996: y_13 + y_57 + y_60 + y_72 + y_76 + y_78 + y_81 - z_6995 >= 0
 c6997: y_0 + y_2 + y_14 + y_27 + y_42 + y_55 + y_82 - z_6996 >= 0
 c6998: y_17 + y_53 + y_58 + y_91 - z_6997 >= 0
 c6999: y_5 + y_34 - z_6998 >= 0
 c7000: y_9 + y_71 - z_6999 >= 0
 c7001: y_3 + y_4 + y_19 + y_26 + y_33 + y_38 + y_44 - z_7000 >= 0
 c7002: y_25 + y_29 + y_35 + y_50 + y_56 + y_77 - z_7001 >= 0
 c7003: y_4 + y_9 + y_26 + y_32 + y_71 - z_7002 >= 0
 c7004: y_18 + y_21 + y_36 + y_41 + y_47 - z_7003 >= 0
 c7005: y_4 + y_12 + y_22 + y_32 + y_88 - z_7004 >= 0
 c7006: y_30 + y_43 + y_59 + y_94 - z_7005 >= 0
 c7007: y_6 + y_58 + y_91 - z_7006 >= 0
 c7008: y_16 + y_25 + y_40 + y_54 + y_66 + y_87 + y_92 - z_7007 >= 0
 c7009: y_45 + y_96 - z_7008 >= 0
 c7010: y_11 + y_24 + y_30 + y_43 + y_52 + y_59 + y_68 + y_70 - z_7009 >= 0
 c7011: y_16 + y_39 + y_53 + y_54 + y_58 + y_63 + y_66 + y_91 - z_7010 >= 0
 c7012: y_71 - z_7011 >= 0
 c7013: y_8 + y_17 + y_34 + y_75 + y_80 + y_96 - z_7012 >= 0
 c7014: y_10 + y_13 + y_28 + y_60 + y_76 + y_78 + y_81 - z_7013 >= 0
 c7015: - z_7014 >= 0
 c7016: y_17 + y_96 - z_7015 >= 0
 c7017: y_40 + y_54 + y_55 + y_87 + y_92 - z_7016 >= 0
 c7018: y_23 + y_46 + y_49 + y_74 + y_95 - z_7017 >= 0
 c7019: y_40 + y_92 - z_7018 >= 0
 c7020: y_7 + y_23 + y_31 + y_51 + y_62 + y_89 + y_98 + y_99 - z_7019 >= 0
 c7021: y_16 + y_25 + y_40 + y_50 + y_54 + y_66 + y_77 + y_87 + y_92 - z_7020
         >= 0
 c7022: y_2 + y_14 + y_82 + y_83 + y_84 + y_85 - z_7021 >= 0
 c7023: y_17 + y_53 + y_91 + y_96 - z_7022 >= 0
 c7024: y_4 + y_6 + y_12 + y_22 + y_32 + y_88 + y_90 - z_7023 >= 0
 c7025: y_12 + y_32 + y_71 + y_88 - z_7024 >= 0
 c7026: y_3 + y_19 + y_33 + y_38 + y_44 + y_48 + y_61 + y_79 - z_7025 >= 0
 c7027: y_0 + y_27 + y_42 + y_55 + y_63 + y_64 - z_7026 >= 0
 c7028: y_4 + y_12 + y_22 + y_32 + y_88 - z_7027 >= 0
 c7029: y_10 + y_57 + y_72 + y_76 + y_78 + y_81 - z_7028 >= 0
 c7030: y_16 + y_39 + y_53 + y_54 + y_58 + y_63 + y_66 + y_91 - z_7029 >= 0
 c7031: y_22 + y_57 + y_65 - z_7030 >= 0
 c7032: y_83 + y_84 + y_85 - z_7031 >= 0
 c7033: y_5 + y_17 + y_34 + y_91 - z_7032 >= 0
 c7034: y_2 + y_14 + y_27 + y_42 + y_82 - z_7033 >= 0
 c7035: y_1 + y_23 + y_46 + y_49 + y_73 + y_75 + y_98 - z_7034 >= 0
 c7036: y_12 + y_22 + y_57 + y_65 + y_72 + y_88 - z_7035 >= 0
 c7037: y_10 + y_13 + y_28 + y_60 + y_76 + y_78 + y_81 - z_7036 >= 0
 c7038: y_5 + y_33 + y_34 + y_44 + y_61 + y_90 - z_7037 >= 0
 c7039: y_1 + y_8 + y_73 + y_75 + y_80 + y_96 - z_7038 >= 0
 c7040: y_11 + y_24 + y_43 + y_52 + y_59 + y_67 + y_68 + y_69 + y_70 + y_86
        + y_97 - z_7039 >= 0
 c7041: y_4 + y_9 + y_12 + y_32 + y_71 + y_88 - z_7040 >= 0
 c7042: y_15 + y_18 + y_46 + y_49 + y_74 + y_95 - z_7041 >= 0
 c7043: y_1 + y_7 + y_23 + y_31 + y_37 + y_51 + y_73 + y_89 + y_98 + y_99
        - z_7042 >= 0
 c7044: y_18 + y_21 + y_30 + y_36 + y_41 + y_47 + y_94 - z_7043 >= 0
 c7045: y_24 + y_30 + y_52 + y_59 + y_70 + y_86 - z_7044 >= 0
 c7046: y_6 + y_22 + y_32 - z_7045 >= 0
 c7047: y_22 + y_57 + y_65 + y_72 - z_7046 >= 0
 c7048: y_3 + y_15 + y_18 + y_20 + y_21 + y_33 + y_36 + y_41 + y_47 + y_48
        + y_61 + y_79 + y_93 + y_95 - z_7047 >= 0
 c7049: y_0 + y_27 + y_42 + y_55 + y_63 + y_64 - z_7048 >= 0
 c7050: y_9 + y_12 + y_71 + y_88 - z_7049 >= 0
 c7051: y_12 + y_22 + y_57 + y_65 + y_72 + y_88 - z_7050 >= 0
 c7052: y_2 + y_27 + y_42 + y_55 + y_83 - z_7051 >= 0
 c7053: y_16 + y_50 + y_56 + y_66 - z_7052 >= 0
 c7054: y_2 + y_14 + y_82 + y_83 + y_85 - z_7053 >= 0
 c7055: y_24 + y_70 + y_86 - z_7054 >= 0
 c7056: y_10 + y_13 + y_60 + y_76 + y_78 + y_81 - z_7055 >= 0
 c7057: y_5 + y_34 + y_44 + y_61 + y_90 + y_93 - z_7056 >= 0
 c7058: y_12 + y_57 + y_72 + y_88 - z_7057 >= 0
 c7059: y_5 + y_6 + y_58 + y_90 + y_91 - z_7058 >= 0
 c7060: y_4 + y_6 + y_32 + y_44 + y_90 - z_7059 >= 0
 c7061: y_5 + y_34 + y_44 + y_90 - z_7060 >= 0
 c7062: y_31 + y_37 + y_89 + y_99 - z_7061 >= 0
 c7063: y_0 + y_27 + y_42 + y_55 + y_64 - z_7062 >= 0
 c7064: y_5 + y_8 + y_17 + y_34 - z_7063 >= 0
 c7065: y_1 + y_31 + y_37 + y_73 + y_89 + y_96 + y_99 - z_7064 >= 0
 c7066: y_13 + y_28 + y_60 + y_76 + y_78 + y_81 - z_7065 >= 0
 c7067: y_24 + y_52 + y_59 + y_70 + y_86 - z_7066 >= 0
 c7068: y_4 + y_6 + y_32 + y_90 - z_7067 >= 0
 c7069: y_22 + y_57 + y_65 + y_72 - z_7068 >= 0
 c7070: y_16 + y_39 + y_40 + y_42 + y_54 + y_55 + y_63 + y_64 - z_7069 >= 0
 c7071: y_3 + y_11 + y_19 + y_26 + y_38 + y_43 + y_52 + y_67 + y_68 + y_69
        - z_7070 >= 0
 c7072: y_5 + y_20 + y_33 + y_34 + y_44 + y_61 + y_80 + y_93 - z_7071 >= 0
 c7073: y_4 + y_5 + y_6 + y_34 + y_44 + y_90 - z_7072 >= 0
 c7074: y_24 + y_52 + y_70 + y_86 + y_97 - z_7073 >= 0
 c7075: y_10 + y_12 + y_57 + y_72 + y_78 + y_88 - z_7074 >= 0
 c7076: y_5 + y_6 + y_34 + y_90 - z_7075 >= 0
 c7077: y_0 + y_27 - z_7076 >= 0
 c7078: y_3 + y_19 + y_33 + y_38 + y_44 + y_48 + y_79 - z_7077 >= 0
 c7079: y_7 + y_23 + y_31 + y_51 + y_62 + y_89 + y_98 + y_99 - z_7078 >= 0
 c7080: y_3 + y_19 + y_33 + y_38 + y_44 + y_48 + y_61 + y_79 - z_7079 >= 0
 c7081: y_17 + y_53 + y_63 + y_91 - z_7080 >= 0
 c7082: y_1 + y_37 + y_73 + y_89 + y_96 + y_99 - z_7081 >= 0
 c7083: y_25 + y_29 + y_35 + y_50 + y_56 + y_66 + y_77 + y_87 - z_7082 >= 0
 c7084: y_3 + y_11 + y_19 + y_26 + y_33 + y_38 + y_43 + y_44 + y_48 + y_67
        + y_69 - z_7083 >= 0
 c7085: y_18 + y_21 + y_30 + y_36 + y_41 + y_47 + y_94 - z_7084 >= 0
 c7086: y_9 + y_71 - z_7085 >= 0
 c7087: y_17 + y_96 - z_7086 >= 0
 c7088: y_13 + y_57 + y_60 + y_65 + y_72 - z_7087 >= 0
 c7089: y_10 + y_13 + y_57 + y_60 + y_72 + y_76 + y_78 + y_81 - z_7088 >= 0
 c7090: y_10 + y_57 + y_60 + y_72 + y_76 + y_78 + y_81 - z_7089 >= 0
 c7091: y_17 + y_53 + y_58 + y_91 - z_7090 >= 0
 c7092: y_0 + y_64 - z_7091 >= 0
 c7093: y_2 + y_14 + y_82 + y_83 + y_84 + y_85 - z_7092 >= 0
 c7094: y_3 + y_11 + y_19 + y_38 + y_43 + y_52 + y_59 + y_67 + y_68 + y_69
        - z_7093 >= 0
 c7095: y_9 + y_26 + y_67 + y_71 - z_7094 >= 0
 c7096: y_8 + y_15 + y_20 + y_34 + y_46 + y_61 + y_75 + y_79 + y_80 + y_93
        + y_95 - z_7095 >= 0
 c7097: y_12 + y_57 + y_72 + y_88 - z_7096 >= 0
 c7098: y_5 + y_34 - z_7097 >= 0
 c7099: y_8 + y_15 + y_20 + y_33 + y_34 + y_41 + y_48 + y_61 + y_75 + y_79
        + y_80 + y_93 + y_95 - z_7098 >= 0
 c7100: y_3 + y_15 + y_19 + y_21 + y_33 + y_36 + y_41 + y_47 + y_48 + y_79
        + y_94 - z_7099 >= 0
 c7101: y_0 + y_42 + y_53 + y_63 + y_64 - z_7100 >= 0
 c7102: y_5 + y_6 + y_90 - z_7101 >= 0
 c7103: y_37 + y_45 - z_7102 >= 0
 c7104: y_40 + y_87 + y_92 - z_7103 >= 0
 c7105: y_31 + y_37 + y_73 + y_89 + y_99 - z_7104 >= 0
 c7106: y_4 + y_6 + y_32 + y_90 - z_7105 >= 0
 c7107: y_57 + y_65 + y_72 - z_7106 >= 0
 c7108: y_2 + y_14 + y_82 + y_83 - z_7107 >= 0
 c7109: y_50 + y_56 + y_65 - z_7108 >= 0
 c7110: y_12 + y_71 - z_7109 >= 0
 c7111: y_45 + y_96 - z_7110 >= 0
 c7112: y_30 + y_43 + y_52 + y_59 + y_94 - z_7111 >= 0
 c7113: y_31 + y_37 + y_89 + y_99 - z_7112 >= 0
 c7114: y_17 + y_39 + y_53 + y_58 + y_91 - z_7113 >= 0
 c7115: y_15 + y_18 + y_21 + y_36 + y_41 + y_47 + y_74 + y_79 + y_95 - z_7114
         >= 0
 c7116: y_22 + y_56 + y_65 - z_7115 >= 0
 c7117: y_3 + y_15 + y_19 + y_21 + y_33 + y_38 + y_41 + y_44 + y_48 + y_61
        + y_79 - z_7116 >= 0
 c7118: y_0 + y_27 + y_42 + y_55 + y_64 - z_7117 >= 0
 c7119: y_5 + y_6 + y_90 + y_91 - z_7118 >= 0
 c7120: y_39 + y_53 + y_58 + y_91 - z_7119 >= 0
 c7121: y_3 + y_19 + y_21 + y_30 + y_43 + y_48 + y_52 + y_59 + y_94 - z_7120
         >= 0
 c7122: y_45 - z_7121 >= 0
 c7123: y_11 + y_24 + y_52 + y_59 + y_68 + y_70 + y_86 + y_97 - z_7122 >= 0
 c7124: y_0 + y_17 + y_39 + y_53 + y_63 + y_64 - z_7123 >= 0
 c7125: y_11 + y_52 + y_67 + y_68 + y_69 + y_97 - z_7124 >= 0
 c7126: y_7 + y_23 + y_31 + y_51 + y_62 + y_89 + y_98 + y_99 - z_7125 >= 0
 c7127: y_29 + y_56 + y_65 - z_7126 >= 0
 c7128: y_0 + y_2 + y_27 + y_42 + y_55 - z_7127 >= 0
 c7129: y_0 + y_27 + y_42 - z_7128 >= 0
 c7130: y_0 + y_42 + y_53 + y_55 + y_63 + y_64 - z_7129 >= 0
 c7131: y_29 - z_7130 >= 0
 c7132: y_1 + y_8 + y_46 + y_73 + y_75 + y_96 - z_7131 >= 0
 c7133: y_45 - z_7132 >= 0
 c7134: y_12 + y_57 + y_72 + y_88 - z_7133 >= 0
 c7135: y_9 + y_26 + y_67 + y_69 + y_71 + y_97 - z_7134 >= 0
 c7136: y_0 + y_39 + y_42 + y_53 + y_55 + y_63 + y_64 - z_7135 >= 0
 c7137: y_5 + y_20 + y_34 + y_61 + y_80 + y_93 - z_7136 >= 0
 c7138: y_37 + y_45 - z_7137 >= 0
 c7139: y_5 + y_20 + y_34 + y_61 + y_80 + y_93 - z_7138 >= 0
 c7140: y_9 + y_71 - z_7139 >= 0
 c7141: y_18 + y_21 + y_36 + y_41 + y_47 + y_48 + y_94 - z_7140 >= 0
 c7142: y_8 + y_15 + y_20 + y_34 + y_48 + y_61 + y_75 + y_79 + y_80 + y_93
        + y_95 - z_7141 >= 0
 c7143: y_12 + y_71 + y_88 - z_7142 >= 0
 c7144: y_13 + y_28 + y_60 + y_76 - z_7143 >= 0
 c7145: y_1 + y_23 + y_31 + y_73 + y_89 + y_98 + y_99 - z_7144 >= 0
 c7146: y_25 + y_29 + y_50 + y_56 + y_77 - z_7145 >= 0
 c7147: y_2 + y_14 + y_82 + y_83 + y_84 + y_85 - z_7146 >= 0
 c7148: y_7 + y_31 + y_37 + y_51 + y_89 + y_99 - z_7147 >= 0
 c7149: y_40 + y_92 - z_7148 >= 0
 c7150: y_11 + y_43 + y_52 + y_59 + y_67 + y_68 + y_69 + y_97 - z_7149 >= 0
 c7151: y_1 + y_23 + y_46 + y_49 + y_74 + y_75 + y_95 - z_7150 >= 0
 c7152: y_13 + y_57 + y_60 + y_65 + y_72 + y_76 + y_78 + y_81 - z_7151 >= 0
 c7153: y_25 + y_29 + y_35 + y_50 + y_77 + y_87 - z_7152 >= 0
 c7154: y_83 + y_85 + y_92 - z_7153 >= 0
 c7155: y_1 + y_23 + y_46 + y_49 + y_73 + y_75 + y_98 - z_7154 >= 0
 c7156: y_25 + y_35 + y_40 + y_54 + y_66 + y_77 + y_87 + y_92 - z_7155 >= 0
 c7157: y_2 + y_40 + y_83 + y_85 + y_92 - z_7156 >= 0
 c7158: y_7 + y_23 + y_31 + y_51 + y_62 + y_89 + y_98 + y_99 - z_7157 >= 0
 c7159: y_18 + y_36 + y_47 + y_49 + y_74 + y_95 - z_7158 >= 0
 c7160: y_0 + y_27 + y_42 - z_7159 >= 0
 c7161: y_0 + y_27 + y_42 + y_55 + y_63 + y_64 - z_7160 >= 0
 c7162: y_8 + y_15 + y_20 + y_34 + y_61 + y_75 + y_80 + y_93 - z_7161 >= 0
 c7163: y_5 + y_17 + y_58 + y_91 - z_7162 >= 0
 c7164: y_16 + y_50 + y_54 + y_56 + y_66 + y_87 - z_7163 >= 0
 c7165: y_5 + y_8 + y_20 + y_34 + y_61 + y_75 + y_80 + y_93 - z_7164 >= 0
 c7166: y_10 + y_57 + y_60 + y_72 + y_76 + y_78 + y_81 - z_7165 >= 0
 c7167: y_16 + y_39 + y_50 + y_54 + y_56 + y_66 + y_87 - z_7166 >= 0
 c7168: y_25 + y_29 + y_35 + y_77 - z_7167 >= 0
 c7169: y_22 + y_56 + y_65 - z_7168 >= 0
 c7170: y_13 + y_28 + y_60 + y_76 + y_81 - z_7169 >= 0
 c7171: y_9 + y_11 + y_26 + y_67 + y_68 + y_69 + y_97 - z_7170 >= 0
 c7172: y_11 + y_19 + y_30 + y_43 + y_52 + y_59 + y_68 - z_7171 >= 0
 c7173: y_2 + y_83 + y_85 - z_7172 >= 0
 c7174: y_0 + y_27 + y_42 + y_55 + y_63 + y_64 - z_7173 >= 0
 c7175: y_9 + y_11 + y_26 + y_67 + y_68 + y_69 + y_97 - z_7174 >= 0
 c7176: y_1 + y_7 + y_23 + y_31 + y_49 + y_51 + y_89 + y_98 + y_99 - z_7175 >= 
        0
 c7177: y_12 + y_71 + y_88 - z_7176 >= 0
 c7178: y_17 + y_53 + y_91 - z_7177 >= 0
 c7179: y_2 + y_14 + y_82 + y_83 + y_84 + y_85 - z_7178 >= 0
 c7180: y_0 + y_64 - z_7179 >= 0
 c7181: y_1 + y_23 + y_31 + y_73 + y_89 + y_98 + y_99 - z_7180 >= 0
 c7182: y_0 + y_16 + y_39 + y_42 + y_53 + y_55 + y_63 + y_64 - z_7181 >= 0
 c7183: y_10 + y_13 + y_57 + y_60 + y_72 + y_76 + y_78 + y_81 - z_7182 >= 0
 c7184: y_6 + y_58 + y_90 - z_7183 >= 0
 c7185: y_4 + y_5 + y_6 + y_90 - z_7184 >= 0
 c7186: y_5 + y_6 + y_17 + y_58 + y_91 - z_7185 >= 0
 c7187: y_3 + y_9 + y_11 + y_19 + y_26 + y_38 + y_44 + y_67 + y_68 + y_69
        - z_7186 >= 0
 c7188: y_29 - z_7187 >= 0
 c7189: y_2 + y_40 + y_83 + y_85 - z_7188 >= 0
 c7190: y_15 + y_18 + y_20 + y_21 + y_36 + y_41 + y_46 + y_47 + y_74 + y_79
        + y_95 - z_7189 >= 0
 c7191: y_0 + y_27 + y_42 + y_55 + y_64 - z_7190 >= 0
 c7192: y_1 + y_23 + y_31 + y_49 + y_89 + y_98 + y_99 - z_7191 >= 0
 c7193: y_0 + y_42 + y_53 + y_55 + y_63 + y_64 - z_7192 >= 0
 c7194: y_3 + y_5 + y_20 + y_33 + y_34 + y_44 + y_48 + y_61 + y_79 + y_93
        - z_7193 >= 0
 c7195: y_16 + y_39 + y_40 + y_50 + y_54 + y_56 + y_66 + y_87 - z_7194 >= 0
 c7196: y_12 + y_22 + y_57 + y_88 - z_7195 >= 0
 c7197: y_11 + y_24 + y_43 + y_52 + y_59 + y_68 + y_70 + y_86 - z_7196 >= 0
 c7198: y_40 + y_55 + y_92 - z_7197 >= 0
 c7199: y_10 + y_13 + y_57 + y_60 + y_72 + y_76 + y_78 + y_81 - z_7198 >= 0
 c7200: y_17 + y_53 + y_58 + y_63 + y_91 - z_7199 >= 0
 c7201: y_40 + y_87 + y_92 - z_7200 >= 0
 c7202: y_7 + y_31 + y_51 + y_62 - z_7201 >= 0
 c7203: y_0 + y_27 + y_42 + y_55 + y_64 - z_7202 >= 0
 c7204: y_9 + y_67 + y_97 - z_7203 >= 0
 c7205: y_5 + y_17 + y_34 + y_91 - z_7204 >= 0
 c7206: y_16 + y_39 + y_53 + y_54 + y_58 + y_63 + y_66 + y_91 - z_7205 >= 0
 c7207: y_0 + y_27 + y_42 - z_7206 >= 0
 c7208: y_3 + y_4 + y_19 + y_26 + y_33 + y_38 + y_44 + y_67 + y_69 - z_7207 >= 
        0
 c7209: y_1 + y_37 + y_73 + y_96 + y_99 - z_7208 >= 0
 c7210: y_6 + y_22 - z_7209 >= 0
 c7211: y_45 - z_7210 >= 0
 c7212: y_83 + y_85 + y_92 - z_7211 >= 0
 c7213: y_5 + y_6 + y_34 + y_90 - z_7212 >= 0
 c7214: y_4 + y_6 + y_9 + y_26 + y_32 + y_90 - z_7213 >= 0
 c7215: y_1 + y_23 + y_46 + y_49 + y_74 + y_98 + y_99 - z_7214 >= 0
 c7216: y_12 + y_71 + y_88 - z_7215 >= 0
 c7217: y_13 + y_28 + y_60 + y_76 + y_81 - z_7216 >= 0
 c7218: y_3 + y_15 + y_18 + y_21 + y_33 + y_36 + y_41 + y_47 + y_48 + y_79
        - z_7217 >= 0
 c7219: y_6 + y_58 + y_90 - z_7218 >= 0
 c7220: y_15 + y_18 + y_36 + y_41 + y_47 + y_74 + y_95 - z_7219 >= 0
 c7221: y_10 + y_13 + y_28 + y_60 + y_76 + y_78 + y_81 - z_7220 >= 0
 c7222: y_21 + y_30 + y_36 + y_41 + y_43 + y_47 + y_94 - z_7221 >= 0
 c7223: y_5 + y_34 + y_90 - z_7222 >= 0
 c7224: y_16 + y_39 + y_40 + y_53 + y_54 + y_55 + y_63 + y_64 + y_66 + y_87
        - z_7223 >= 0
 c7225: - z_7224 >= 0
 c7226: y_16 + y_39 + y_40 + y_54 + y_55 + y_63 + y_64 + y_66 + y_87 - z_7225
         >= 0
 c7227: y_17 + y_39 + y_53 + y_58 + y_63 + y_91 - z_7226 >= 0
 c7228: - z_7227 >= 0
 c7229: y_9 + y_71 - z_7228 >= 0
 c7230: y_8 + y_15 + y_20 + y_46 + y_61 + y_75 + y_80 + y_93 + y_95 - z_7229
         >= 0
 c7231: y_3 + y_5 + y_20 + y_33 + y_34 + y_44 + y_48 + y_61 + y_79 + y_93
        - z_7230 >= 0
 c7232: y_4 + y_12 + y_22 + y_32 + y_88 - z_7231 >= 0
 c7233: y_8 + y_73 + y_96 - z_7232 >= 0
 c7234: y_56 + y_65 - z_7233 >= 0
 c7235: y_11 + y_24 + y_52 + y_59 + y_68 + y_70 + y_86 - z_7234 >= 0
 c7236: y_13 + y_28 + y_60 + y_76 + y_78 + y_81 - z_7235 >= 0
 c7237: y_27 - z_7236 >= 0
 c7238: y_9 + y_12 + y_71 + y_88 - z_7237 >= 0
 c7239: y_11 + y_67 + y_68 + y_69 + y_97 - z_7238 >= 0
 c7240: y_0 + y_27 + y_42 + y_55 + y_63 + y_64 - z_7239 >= 0
 c7241: y_0 + y_17 + y_53 + y_63 + y_64 - z_7240 >= 0
 c7242: y_16 + y_39 + y_53 + y_54 + y_58 + y_63 + y_66 + y_91 - z_7241 >= 0
 c7243: y_7 + y_31 + y_51 + y_62 + y_89 + y_98 + y_99 - z_7242 >= 0
 c7244: y_18 + y_21 + y_36 + y_41 + y_47 + y_94 - z_7243 >= 0
 c7245: y_25 + y_29 + y_35 + y_77 - z_7244 >= 0
 c7246: y_1 + y_23 + y_46 + y_49 + y_74 + y_98 - z_7245 >= 0
 c7247: y_23 + y_46 + y_49 + y_74 + y_98 - z_7246 >= 0
 c7248: y_4 + y_6 + y_22 + y_32 + y_90 - z_7247 >= 0
 c7249: y_8 + y_20 + y_34 + y_61 + y_75 + y_80 + y_93 - z_7248 >= 0
 c7250: y_8 + y_20 + y_34 + y_61 + y_75 + y_80 + y_93 - z_7249 >= 0
 c7251: y_5 + y_8 + y_20 + y_34 + y_61 + y_75 + y_80 + y_93 - z_7250 >= 0
 c7252: y_96 - z_7251 >= 0
 c7253: y_11 + y_24 + y_30 + y_43 + y_52 + y_59 + y_67 + y_68 + y_69 + y_70
        - z_7252 >= 0
 c7254: y_10 + y_13 + y_60 + y_72 + y_76 + y_78 + y_81 - z_7253 >= 0
 c7255: y_15 + y_18 + y_20 + y_46 + y_49 + y_61 + y_74 + y_75 + y_79 + y_80
        + y_93 + y_95 - z_7254 >= 0
 c7256: y_16 + y_39 + y_50 + y_54 + y_56 + y_58 + y_66 + y_91 - z_7255 >= 0
 c7257: y_29 + y_56 + y_65 - z_7256 >= 0
 c7258: y_16 + y_39 + y_40 + y_54 + y_63 + y_64 + y_66 + y_87 - z_7257 >= 0
 c7259: y_13 + y_28 + y_60 + y_76 + y_81 - z_7258 >= 0
 c7260: y_4 + y_6 + y_32 + y_90 - z_7259 >= 0
 c7261: y_13 + y_28 + y_60 + y_76 - z_7260 >= 0
 c7262: y_3 + y_5 + y_15 + y_19 + y_20 + y_21 + y_33 + y_34 + y_38 + y_41 + y_44
        + y_48 + y_61 + y_79 + y_93 - z_7261 >= 0
 c7263: y_7 + y_31 + y_37 + y_89 + y_99 - z_7262 >= 0
 c7264: y_4 + y_9 + y_26 + y_32 + y_67 + y_69 - z_7263 >= 0
 c7265: y_15 + y_20 + y_21 + y_33 + y_34 + y_36 + y_41 + y_47 + y_48 + y_61
        + y_79 + y_80 + y_93 + y_95 - z_7264 >= 0
 c7266: - z_7265 >= 0
 c7267: y_25 + y_29 + y_35 + y_50 + y_56 + y_77 + y_87 - z_7266 >= 0
 c7268: y_8 + y_75 + y_80 + y_96 - z_7267 >= 0
 c7269: y_31 + y_37 + y_89 - z_7268 >= 0
 c7270: y_45 + y_96 - z_7269 >= 0
 c7271: y_16 + y_17 + y_39 + y_53 + y_54 + y_58 + y_63 + y_91 - z_7270 >= 0
 c7272: y_7 + y_23 + y_31 + y_51 + y_62 + y_89 + y_98 + y_99 - z_7271 >= 0
 c7273: y_5 + y_17 + y_34 + y_58 + y_91 - z_7272 >= 0
 c7274: y_4 + y_9 + y_26 + y_32 + y_90 - z_7273 >= 0
 c7275: y_17 + y_53 + y_58 + y_91 - z_7274 >= 0
 c7276: y_9 + y_26 + y_67 + y_69 + y_71 - z_7275 >= 0
 c7277: y_5 + y_17 + y_58 + y_91 - z_7276 >= 0
 c7278: y_4 + y_6 + y_32 + y_90 - z_7277 >= 0
 c7279: y_4 + y_6 + y_32 + y_44 + y_90 - z_7278 >= 0
 c7280: y_11 + y_52 + y_59 + y_67 + y_68 + y_69 + y_97 - z_7279 >= 0
 c7281: y_6 + y_22 + y_90 - z_7280 >= 0
 c7282: y_1 + y_7 + y_23 + y_31 + y_51 + y_62 + y_89 + y_98 + y_99 - z_7281 >= 
        0
 c7283: y_5 + y_17 + y_34 + y_58 + y_91 - z_7282 >= 0
 c7284: y_5 + y_17 + y_53 + y_58 + y_91 - z_7283 >= 0
 c7285: y_4 + y_6 + y_12 + y_22 + y_32 + y_88 - z_7284 >= 0
 c7286: y_11 + y_24 + y_43 + y_52 + y_59 + y_68 + y_70 + y_86 - z_7285 >= 0
 c7287: y_23 + y_98 - z_7286 >= 0
 c7288: y_0 + y_27 + y_42 + y_55 + y_64 - z_7287 >= 0
 c7289: y_25 + y_29 + y_35 + y_77 + y_87 - z_7288 >= 0
 c7290: y_2 + y_82 + y_83 + y_84 + y_85 - z_7289 >= 0
 c7291: y_25 + y_29 + y_35 + y_77 + y_92 - z_7290 >= 0
 c7292: y_40 + y_87 + y_92 - z_7291 >= 0
 c7293: y_25 + y_29 + y_35 + y_77 + y_87 + y_92 - z_7292 >= 0
 c7294: y_15 + y_20 + y_46 + y_49 + y_74 + y_75 + y_80 + y_93 + y_95 - z_7293
         >= 0
 c7295: y_8 + y_20 + y_46 + y_75 + y_80 + y_93 + y_96 - z_7294 >= 0
 c7296: y_35 + y_40 + y_92 - z_7295 >= 0
 c7297: y_4 + y_9 + y_26 + y_32 + y_71 - z_7296 >= 0
 c7298: y_37 + y_45 + y_73 + y_89 + y_99 - z_7297 >= 0
 c7299: y_9 + y_12 + y_71 + y_88 - z_7298 >= 0
 c7300: y_12 + y_22 + y_57 + y_88 - z_7299 >= 0
 c7301: y_0 + y_2 + y_27 + y_42 + y_55 - z_7300 >= 0
 c7302: y_3 + y_19 + y_26 + y_33 + y_38 + y_44 + y_67 + y_69 - z_7301 >= 0
 c7303: y_65 - z_7302 >= 0
 c7304: y_11 + y_24 + y_52 + y_59 + y_68 + y_70 + y_86 + y_97 - z_7303 >= 0
 c7305: y_30 + y_43 + y_52 + y_59 + y_70 + y_94 - z_7304 >= 0
 c7306: y_7 + y_31 + y_37 + y_51 + y_89 + y_99 - z_7305 >= 0
 c7307: y_9 + y_71 + y_97 - z_7306 >= 0
 c7308: y_45 - z_7307 >= 0
 c7309: y_17 + y_53 + y_63 + y_64 + y_96 - z_7308 >= 0
 c7310: y_58 + y_91 - z_7309 >= 0
 c7311: y_13 + y_60 + y_65 + y_72 + y_76 - z_7310 >= 0
 c7312: y_6 + y_22 - z_7311 >= 0
 c7313: y_16 + y_39 + y_53 + y_54 + y_55 + y_63 + y_64 + y_66 - z_7312 >= 0
 c7314: y_11 + y_52 + y_67 + y_68 + y_69 + y_97 - z_7313 >= 0
 c7315: y_0 + y_27 + y_42 + y_55 + y_64 - z_7314 >= 0
 c7316: y_9 + y_11 + y_26 + y_38 + y_67 + y_68 + y_69 + y_97 - z_7315 >= 0
 c7317: y_17 + y_39 + y_53 + y_58 + y_63 + y_64 + y_91 - z_7316 >= 0
 c7318: y_18 + y_21 + y_36 + y_41 + y_47 + y_94 - z_7317 >= 0
 c7319: y_17 + y_39 + y_53 + y_58 + y_63 + y_91 - z_7318 >= 0
 c7320: y_1 + y_23 + y_31 + y_37 + y_73 + y_89 + y_98 + y_99 - z_7319 >= 0
 c7321: y_3 + y_15 + y_20 + y_21 + y_33 + y_34 + y_41 + y_48 + y_61 + y_79
        + y_80 + y_93 - z_7320 >= 0
 c7322: y_17 + y_53 + y_58 + y_91 - z_7321 >= 0
 c7323: y_6 + y_58 + y_90 - z_7322 >= 0
 c7324: y_10 + y_13 + y_60 + y_72 + y_76 + y_78 + y_81 - z_7323 >= 0
 c7325: y_45 - z_7324 >= 0
 c7326: y_16 + y_25 + y_35 + y_40 + y_50 + y_54 + y_56 + y_66 + y_77 + y_87
        - z_7325 >= 0
 c7327: y_46 + y_49 + y_74 + y_95 - z_7326 >= 0
 c7328: y_16 + y_39 + y_50 + y_53 + y_54 + y_58 + y_63 + y_66 + y_91 - z_7327
         >= 0
 c7329: y_3 + y_4 + y_19 + y_26 + y_32 + y_38 + y_44 + y_90 - z_7328 >= 0
 c7330: y_13 + y_28 + y_60 + y_76 + y_78 + y_81 - z_7329 >= 0
 c7331: y_2 + y_14 + y_27 + y_42 + y_82 - z_7330 >= 0
 c7332: y_73 + y_96 - z_7331 >= 0
 c7333: y_16 + y_40 + y_54 + y_55 + y_66 + y_87 + y_92 - z_7332 >= 0
 c7334: y_16 + y_39 + y_50 + y_54 + y_58 + y_63 + y_66 + y_87 - z_7333 >= 0
 c7335: y_17 + y_39 + y_53 + y_55 + y_58 + y_63 + y_64 + y_91 - z_7334 >= 0
 c7336: y_10 + y_13 + y_28 + y_60 + y_72 + y_76 + y_78 + y_81 - z_7335 >= 0
 c7337: y_4 + y_9 + y_26 + y_32 + y_38 + y_67 + y_69 - z_7336 >= 0
 c7338: y_8 + y_17 + y_34 + y_75 + y_96 - z_7337 >= 0
 c7339: y_9 + y_11 + y_26 + y_67 + y_68 + y_69 + y_97 - z_7338 >= 0
 c7340: y_83 + y_85 + y_92 - z_7339 >= 0
 c7341: y_12 + y_22 + y_57 + y_65 + y_72 + y_88 - z_7340 >= 0
 c7342: y_11 + y_30 + y_43 + y_52 + y_59 + y_94 - z_7341 >= 0
 c7343: y_3 + y_19 + y_33 + y_38 + y_43 + y_44 + y_48 + y_69 - z_7342 >= 0
 c7344: y_4 + y_9 + y_26 + y_32 + y_90 - z_7343 >= 0
 c7345: y_50 + y_56 - z_7344 >= 0
 c7346: y_16 + y_39 + y_53 + y_54 + y_55 + y_58 + y_63 + y_64 + y_91 - z_7345
         >= 0
 c7347: y_17 + y_39 + y_53 + y_58 + y_63 + y_91 - z_7346 >= 0
 c7348: y_14 + y_27 + y_82 - z_7347 >= 0
 c7349: y_17 + y_96 - z_7348 >= 0
 c7350: y_16 + y_17 + y_39 + y_53 + y_54 + y_58 + y_63 + y_64 + y_91 - z_7349
         >= 0
 c7351: y_37 + y_45 + y_89 - z_7350 >= 0
 c7352: y_16 + y_25 + y_35 + y_40 + y_50 + y_54 + y_56 + y_66 + y_77 + y_87
        - z_7351 >= 0
 c7353: y_50 + y_56 + y_65 - z_7352 >= 0
 c7354: y_0 + y_64 - z_7353 >= 0
 c7355: y_37 + y_45 - z_7354 >= 0
 c7356: y_25 + y_29 + y_35 + y_50 + y_54 + y_56 + y_66 + y_77 + y_87 - z_7355
         >= 0
 c7357: y_1 + y_7 + y_31 + y_37 + y_73 + y_89 + y_99 - z_7356 >= 0
 c7358: y_10 + y_13 + y_57 + y_60 + y_72 + y_76 + y_78 + y_81 - z_7357 >= 0
 c7359: y_16 + y_39 + y_50 + y_54 + y_58 + y_63 + y_66 + y_87 - z_7358 >= 0
 c7360: y_85 + y_92 - z_7359 >= 0
 c7361: y_17 + y_39 + y_53 + y_58 + y_63 + y_64 + y_91 - z_7360 >= 0
 c7362: y_22 + y_50 + y_56 + y_65 - z_7361 >= 0
 c7363: y_0 + y_27 + y_42 - z_7362 >= 0
 c7364: y_5 + y_8 + y_17 + y_34 + y_75 + y_80 + y_93 - z_7363 >= 0
 c7365: y_2 + y_14 + y_27 + y_82 + y_83 - z_7364 >= 0
 c7366: y_24 + y_52 + y_70 + y_86 - z_7365 >= 0
 c7367: y_45 - z_7366 >= 0
 c7368: y_10 + y_12 + y_57 + y_72 + y_78 + y_88 - z_7367 >= 0
 c7369: y_1 + y_23 + y_31 + y_46 + y_49 + y_74 + y_98 + y_99 - z_7368 >= 0
 c7370: y_1 + y_37 + y_73 + y_96 - z_7369 >= 0
 c7371: y_16 + y_50 + y_56 + y_58 + y_66 + y_91 - z_7370 >= 0
 c7372: y_0 + y_27 + y_42 + y_55 + y_64 - z_7371 >= 0
 c7373: y_11 + y_24 + y_30 + y_43 + y_52 + y_59 + y_68 + y_70 + y_86 - z_7372
         >= 0
 c7374: y_8 + y_20 + y_34 + y_61 + y_75 + y_80 + y_93 - z_7373 >= 0
 c7375: y_12 + y_22 + y_32 + y_57 + y_88 - z_7374 >= 0
 c7376: y_1 + y_23 + y_46 + y_49 + y_74 + y_75 + y_95 + y_98 - z_7375 >= 0
 c7377: y_2 + y_83 + y_84 + y_85 - z_7376 >= 0
 c7378: y_11 + y_43 + y_52 + y_59 + y_67 + y_68 + y_69 + y_97 - z_7377 >= 0
 c7379: y_5 + y_15 + y_20 + y_33 + y_34 + y_44 + y_48 + y_61 + y_79 + y_80
        + y_93 - z_7378 >= 0
 c7380: y_6 + y_58 - z_7379 >= 0
 c7381: y_27 + y_45 - z_7380 >= 0
 c7382: y_21 + y_30 + y_36 + y_41 + y_43 + y_47 + y_48 + y_94 - z_7381 >= 0
 c7383: y_12 + y_71 + y_88 - z_7382 >= 0
 c7384: y_3 + y_11 + y_19 + y_38 + y_43 + y_52 + y_59 + y_67 + y_68 + y_69
        - z_7383 >= 0
 c7385: y_29 - z_7384 >= 0
 c7386: y_15 + y_18 + y_20 + y_21 + y_36 + y_41 + y_47 + y_48 + y_61 + y_79
        + y_80 + y_93 + y_95 - z_7385 >= 0
 c7387: y_22 - z_7386 >= 0
 c7388: y_4 + y_6 + y_32 + y_90 - z_7387 >= 0
 c7389: y_3 + y_19 + y_21 + y_30 + y_43 + y_48 + y_52 + y_59 + y_94 - z_7388
         >= 0
 c7390: y_4 + y_6 + y_12 + y_32 + y_88 + y_90 - z_7389 >= 0
 c7391: y_21 + y_30 + y_36 + y_43 + y_59 + y_94 - z_7390 >= 0
 c7392: y_29 + y_50 + y_56 + y_65 - z_7391 >= 0
 c7393: y_9 + y_12 + y_71 - z_7392 >= 0
 c7394: y_45 - z_7393 >= 0
 c7395: y_12 + y_22 + y_32 + y_57 + y_88 - z_7394 >= 0
 c7396: y_2 + y_14 + y_82 + y_83 + y_84 - z_7395 >= 0
 c7397: y_0 + y_2 + y_27 + y_42 + y_55 - z_7396 >= 0
 c7398: y_11 + y_24 + y_43 + y_52 + y_59 + y_68 + y_70 + y_86 - z_7397 >= 0
 c7399: y_0 + y_27 + y_39 + y_42 + y_55 + y_63 + y_64 - z_7398 >= 0
 c7400: y_40 + y_83 + y_85 + y_92 - z_7399 >= 0
 c7401: y_22 + y_50 + y_56 + y_65 - z_7400 >= 0
 c7402: y_11 + y_68 + y_97 - z_7401 >= 0
 c7403: y_16 + y_39 + y_40 + y_54 + y_63 + y_66 + y_87 - z_7402 >= 0
 c7404: y_19 + y_21 + y_30 + y_36 + y_41 + y_43 + y_47 + y_48 + y_94 - z_7403
         >= 0
 c7405: y_4 + y_9 + y_26 + y_32 + y_71 - z_7404 >= 0
 c7406: y_6 + y_90 - z_7405 >= 0
 c7407: y_15 + y_20 + y_33 + y_34 + y_41 + y_48 + y_61 + y_75 + y_79 + y_80
        + y_93 + y_95 - z_7406 >= 0
 c7408: y_17 + y_53 + y_91 + y_96 - z_7407 >= 0
 c7409: y_4 + y_6 + y_9 + y_26 + y_32 + y_38 + y_44 + y_90 - z_7408 >= 0
 c7410: y_9 + y_12 + y_71 + y_88 - z_7409 >= 0
 c7411: y_13 + y_28 + y_60 + y_76 + y_81 - z_7410 >= 0
 c7412: y_23 + y_46 + y_49 + y_74 + y_95 - z_7411 >= 0
 c7413: y_3 + y_19 + y_21 + y_33 + y_38 + y_41 + y_44 + y_48 + y_61 + y_79
        - z_7412 >= 0
 c7414: y_2 + y_40 + y_83 + y_85 - z_7413 >= 0
 c7415: y_9 + y_26 + y_71 - z_7414 >= 0
 c7416: y_4 + y_6 + y_22 + y_32 + y_90 - z_7415 >= 0
 c7417: y_0 + y_2 + y_27 + y_42 + y_55 + y_64 - z_7416 >= 0
 c7418: y_4 + y_6 + y_12 + y_22 + y_32 + y_88 + y_90 - z_7417 >= 0
 c7419: y_5 + y_17 + y_34 + y_91 - z_7418 >= 0
 c7420: y_3 + y_19 + y_33 + y_38 + y_44 + y_48 + y_61 + y_79 - z_7419 >= 0
 c7421: y_11 + y_43 + y_52 + y_59 + y_67 + y_68 + y_69 + y_97 - z_7420 >= 0
 c7422: y_4 + y_9 + y_26 + y_32 + y_38 + y_67 + y_69 - z_7421 >= 0
 c7423: y_8 + y_15 + y_20 + y_41 + y_46 + y_49 + y_61 + y_75 + y_79 + y_80
        + y_93 + y_95 - z_7422 >= 0
 c7424: y_11 + y_19 + y_30 + y_38 + y_43 + y_52 + y_59 + y_67 + y_68 + y_69
        - z_7423 >= 0
 c7425: y_50 + y_56 - z_7424 >= 0
 c7426: y_4 + y_6 + y_22 + y_32 + y_90 - z_7425 >= 0
 c7427: y_29 - z_7426 >= 0
 c7428: y_3 + y_19 + y_33 + y_38 + y_44 + y_48 + y_79 - z_7427 >= 0
 c7429: y_2 + y_40 + y_55 + y_83 + y_85 + y_92 - z_7428 >= 0
 c7430: y_7 + y_23 + y_31 + y_51 + y_62 + y_89 + y_98 + y_99 - z_7429 >= 0
 c7431: y_40 + y_42 + y_55 + y_92 - z_7430 >= 0
 c7432: y_4 + y_5 + y_6 + y_32 + y_44 + y_90 - z_7431 >= 0
 c7433: y_5 + y_20 + y_34 + y_61 + y_80 + y_93 - z_7432 >= 0
 c7434: y_13 + y_28 + y_60 + y_76 + y_78 + y_81 - z_7433 >= 0
 c7435: y_4 + y_12 + y_22 + y_32 + y_88 - z_7434 >= 0
 c7436: y_0 + y_27 + y_42 + y_55 + y_63 + y_64 - z_7435 >= 0
 c7437: - z_7436 >= 0
 c7438: y_7 + y_31 + y_37 + y_51 + y_62 + y_89 + y_99 - z_7437 >= 0
 c7439: y_2 + y_42 + y_55 + y_83 + y_85 - z_7438 >= 0
 c7440: y_16 + y_39 + y_40 + y_53 + y_54 + y_55 + y_63 + y_64 + y_66 + y_87
        - z_7439 >= 0
 c7441: y_18 + y_36 + y_41 + y_47 + y_95 - z_7440 >= 0
 c7442: y_1 + y_23 + y_46 + y_49 + y_74 + y_98 + y_99 - z_7441 >= 0
 c7443: y_13 + y_28 + y_60 + y_76 + y_78 + y_81 - z_7442 >= 0
 c7444: y_8 + y_15 + y_20 + y_46 + y_49 + y_75 + y_80 + y_93 + y_95 - z_7443
         >= 0
 c7445: y_4 + y_6 + y_26 + y_32 + y_90 - z_7444 >= 0
 c7446: y_40 + y_92 - z_7445 >= 0
 c7447: y_40 + y_85 + y_92 - z_7446 >= 0
 c7448: y_16 + y_39 + y_40 + y_54 + y_63 + y_66 + y_87 - z_7447 >= 0
 c7449: y_1 + y_8 + y_73 + y_75 + y_80 + y_96 - z_7448 >= 0
 c7450: y_21 + y_30 + y_36 + y_41 + y_43 + y_47 + y_48 + y_94 - z_7449 >= 0
 c7451: y_13 + y_57 + y_60 + y_72 + y_76 + y_78 + y_81 - z_7450 >= 0
 c7452: y_6 + y_12 + y_22 + y_32 + y_88 - z_7451 >= 0
 c7453: y_12 + y_22 + y_57 + y_65 + y_72 + y_78 + y_88 - z_7452 >= 0
 c7454: y_13 - z_7453 >= 0
 c7455: y_15 + y_18 + y_20 + y_21 + y_36 + y_41 + y_47 + y_48 + y_61 + y_79
        + y_95 - z_7454 >= 0
 c7456: y_21 + y_30 + y_36 + y_47 + y_94 - z_7455 >= 0
 c7457: y_2 + y_83 + y_84 + y_85 - z_7456 >= 0
 c7458: y_1 + y_7 + y_23 + y_31 + y_51 + y_62 + y_89 + y_98 + y_99 - z_7457 >= 
        0
 c7459: y_4 + y_9 + y_12 + y_32 + y_71 + y_88 - z_7458 >= 0
 c7460: y_17 + y_39 + y_53 + y_58 + y_63 + y_64 + y_91 - z_7459 >= 0
 c7461: y_10 + y_12 + y_88 - z_7460 >= 0
 c7462: y_15 + y_20 + y_21 + y_33 + y_36 + y_41 + y_47 + y_48 + y_61 + y_79
        + y_80 + y_93 + y_95 - z_7461 >= 0
 c7463: y_25 + y_29 + y_50 + y_56 + y_77 - z_7462 >= 0
 c7464: y_13 + y_28 + y_60 + y_76 + y_78 + y_81 - z_7463 >= 0
 c7465: y_0 + y_27 + y_42 + y_55 + y_63 + y_64 - z_7464 >= 0
 c7466: y_24 + y_70 + y_86 - z_7465 >= 0
 c7467: y_16 + y_39 + y_54 + y_58 + y_63 + y_66 + y_87 - z_7466 >= 0
 c7468: y_3 + y_15 + y_19 + y_21 + y_33 + y_36 + y_38 + y_41 + y_44 + y_47
        + y_48 + y_61 + y_79 - z_7467 >= 0
 c7469: y_5 + y_8 + y_17 + y_34 - z_7468 >= 0
 c7470: y_83 + y_85 - z_7469 >= 0
 c7471: y_25 + y_29 + y_50 + y_56 + y_66 + y_77 + y_87 - z_7470 >= 0
 c7472: y_10 - z_7471 >= 0
 c7473: y_3 + y_19 + y_21 + y_30 + y_38 + y_43 + y_48 + y_52 + y_59 + y_94
        - z_7472 >= 0
 c7474: y_4 + y_6 + y_12 + y_22 + y_32 + y_88 + y_90 - z_7473 >= 0
 c7475: y_18 + y_21 + y_36 + y_41 + y_47 + y_48 + y_94 - z_7474 >= 0
 c7476: y_0 + y_27 - z_7475 >= 0
 c7477: y_6 + y_22 + y_88 - z_7476 >= 0
 c7478: y_3 + y_19 + y_26 + y_33 + y_38 + y_44 + y_67 + y_69 - z_7477 >= 0
 c7479: y_16 + y_39 + y_54 + y_58 + y_66 + y_91 - z_7478 >= 0
 c7480: y_0 + y_27 + y_42 + y_55 + y_64 - z_7479 >= 0
 c7481: y_1 + y_23 + y_31 + y_73 + y_89 + y_98 + y_99 - z_7480 >= 0
 c7482: y_4 + y_6 + y_12 + y_22 + y_32 + y_88 - z_7481 >= 0
 c7483: y_9 + y_26 + y_67 + y_68 + y_69 + y_97 - z_7482 >= 0
 c7484: y_4 + y_9 + y_19 + y_26 + y_32 + y_38 + y_44 + y_67 + y_69 - z_7483 >= 
        0
 c7485: y_13 - z_7484 >= 0
 c7486: y_1 + y_8 + y_46 + y_73 + y_75 + y_80 + y_96 - z_7485 >= 0
 c7487: y_3 + y_19 + y_26 + y_33 + y_38 + y_44 + y_67 + y_69 - z_7486 >= 0
 c7488: y_9 + y_26 + y_71 - z_7487 >= 0
 c7489: y_16 + y_39 + y_53 + y_54 + y_58 + y_63 + y_91 - z_7488 >= 0
 c7490: y_24 + y_70 + y_86 - z_7489 >= 0
 c7491: y_21 + y_30 + y_36 + y_41 + y_43 + y_47 + y_48 + y_94 - z_7490 >= 0
 c7492: y_5 + y_6 + y_33 + y_34 + y_44 + y_61 + y_90 - z_7491 >= 0
 c7493: y_3 + y_19 + y_26 + y_33 + y_38 + y_44 + y_48 - z_7492 >= 0
 c7494: y_3 + y_19 + y_21 + y_33 + y_36 + y_38 + y_41 + y_43 + y_44 + y_47
        + y_48 + y_79 - z_7493 >= 0
 c7495: y_10 + y_13 + y_60 + y_72 + y_76 + y_78 + y_81 - z_7494 >= 0
 c7496: y_11 + y_24 + y_43 + y_52 + y_59 + y_67 + y_68 + y_69 + y_70 - z_7495
         >= 0
 c7497: y_27 - z_7496 >= 0
 c7498: y_65 - z_7497 >= 0
 c7499: y_9 + y_12 + y_71 + y_88 - z_7498 >= 0
 c7500: y_0 + y_27 + y_39 + y_42 + y_55 + y_63 + y_64 - z_7499 >= 0
 c7501: y_17 + y_53 + y_58 + y_91 - z_7500 >= 0
 c7502: y_11 + y_24 + y_43 + y_52 + y_59 + y_67 + y_68 + y_69 + y_70 + y_86
        + y_97 - z_7501 >= 0
 c7503: y_57 + y_65 + y_72 + y_78 - z_7502 >= 0
 c7504: y_3 + y_15 + y_19 + y_20 + y_21 + y_33 + y_38 + y_41 + y_44 + y_47
        + y_48 + y_61 + y_79 + y_93 - z_7503 >= 0
 c7505: y_16 + y_17 + y_39 + y_53 + y_54 + y_58 + y_63 + y_64 + y_91 - z_7504
         >= 0
 c7506: y_23 + y_49 + y_74 + y_98 - z_7505 >= 0
 c7507: y_50 + y_56 + y_65 - z_7506 >= 0
 c7508: y_5 + y_8 + y_20 + y_34 + y_61 + y_75 + y_80 + y_93 - z_7507 >= 0
 c7509: y_7 + y_23 + y_31 + y_51 + y_62 + y_89 + y_98 + y_99 - z_7508 >= 0
 c7510: y_15 + y_18 + y_21 + y_36 + y_41 + y_47 + y_95 - z_7509 >= 0
 c7511: y_9 + y_26 + y_67 + y_69 + y_71 + y_97 - z_7510 >= 0
 c7512: y_2 + y_83 + y_85 + y_92 - z_7511 >= 0
 c7513: y_13 + y_28 + y_60 + y_76 + y_78 + y_81 - z_7512 >= 0
 c7514: y_13 + y_57 + y_60 + y_65 + y_72 + y_76 - z_7513 >= 0
 c7515: y_18 + y_46 + y_49 + y_74 + y_95 - z_7514 >= 0
 c7516: y_16 + y_25 + y_29 + y_50 + y_54 + y_56 + y_66 + y_77 + y_87 - z_7515
         >= 0
 c7517: y_5 + y_34 + y_44 + y_61 + y_90 + y_93 - z_7516 >= 0
 c7518: y_9 + y_67 + y_97 - z_7517 >= 0
 c7519: y_0 + y_27 + y_42 - z_7518 >= 0
 c7520: y_5 + y_6 + y_58 + y_90 + y_91 - z_7519 >= 0
 c7521: y_2 + y_14 + y_27 + y_42 + y_55 + y_82 + y_83 - z_7520 >= 0
 c7522: y_50 + y_56 + y_66 - z_7521 >= 0
 c7523: y_25 + y_29 + y_35 + y_77 - z_7522 >= 0
 c7524: y_0 + y_27 + y_42 + y_55 + y_64 - z_7523 >= 0
 c7525: y_10 - z_7524 >= 0
 c7526: y_65 - z_7525 >= 0
 c7527: y_10 + y_13 + y_28 + y_60 + y_76 + y_78 + y_81 - z_7526 >= 0
 c7528: y_13 + y_60 + y_76 - z_7527 >= 0
 c7529: y_4 + y_12 + y_22 + y_32 + y_88 - z_7528 >= 0
 c7530: y_3 + y_11 + y_19 + y_38 + y_43 + y_52 + y_59 + y_67 + y_68 + y_69
        - z_7529 >= 0
 c7531: y_3 + y_15 + y_19 + y_20 + y_21 + y_33 + y_34 + y_38 + y_41 + y_44
        + y_48 + y_61 + y_79 + y_93 - z_7530 >= 0
 c7532: y_24 + y_52 + y_70 + y_86 + y_97 - z_7531 >= 0
 c7533: y_25 + y_29 + y_35 + y_77 - z_7532 >= 0
 c7534: y_16 + y_39 + y_50 + y_54 + y_56 + y_66 + y_87 - z_7533 >= 0
 c7535: y_25 + y_29 + y_35 + y_77 - z_7534 >= 0
 c7536: y_0 + y_27 + y_39 + y_42 + y_53 + y_55 + y_63 + y_64 - z_7535 >= 0
 c7537: y_57 + y_65 + y_72 - z_7536 >= 0
 c7538: y_5 + y_8 + y_20 + y_34 + y_61 + y_75 + y_80 + y_93 - z_7537 >= 0
 c7539: y_4 + y_6 + y_12 + y_22 + y_32 + y_88 + y_90 - z_7538 >= 0
 c7540: y_10 + y_78 + y_81 - z_7539 >= 0
 c7541: y_0 + y_27 + y_42 + y_55 + y_64 - z_7540 >= 0
 c7542: y_3 + y_15 + y_19 + y_21 + y_33 + y_36 + y_38 + y_41 + y_44 + y_47
        + y_48 + y_61 + y_79 - z_7541 >= 0
 c7543: y_5 + y_6 + y_34 + y_44 + y_90 - z_7542 >= 0
 c7544: y_37 + y_45 + y_73 - z_7543 >= 0
 c7545: y_10 + y_13 + y_28 + y_60 + y_76 + y_78 + y_81 - z_7544 >= 0
 c7546: y_6 + y_58 + y_91 - z_7545 >= 0
 c7547: y_0 + y_45 - z_7546 >= 0
 c7548: y_22 + y_56 + y_65 - z_7547 >= 0
 c7549: y_15 + y_18 + y_20 + y_36 + y_41 + y_46 + y_47 + y_49 + y_61 + y_74
        + y_79 + y_80 + y_93 + y_95 - z_7548 >= 0
 c7550: y_25 + y_29 + y_35 + y_77 + y_87 - z_7549 >= 0
 c7551: y_0 + y_2 + y_14 + y_27 + y_42 + y_55 + y_82 - z_7550 >= 0
 c7552: y_25 + y_29 + y_50 + y_56 + y_77 - z_7551 >= 0
 c7553: y_25 + y_29 + y_35 + y_77 - z_7552 >= 0
 c7554: y_1 + y_31 + y_37 + y_73 + y_89 + y_99 - z_7553 >= 0
 c7555: y_15 + y_18 + y_20 + y_21 + y_33 + y_36 + y_41 + y_47 + y_48 + y_61
        + y_79 + y_95 - z_7554 >= 0
 c7556: y_10 + y_72 + y_78 + y_81 - z_7555 >= 0
 c7557: y_12 + y_22 + y_32 + y_88 - z_7556 >= 0
 c7558: y_9 + y_26 + y_67 + y_69 + y_71 + y_97 - z_7557 >= 0
 c7559: y_24 + y_70 + y_86 - z_7558 >= 0
 c7560: - z_7559 >= 0
 c7561: y_11 + y_26 + y_52 + y_59 + y_67 + y_68 + y_69 + y_97 - z_7560 >= 0
 c7562: y_25 + y_29 + y_35 + y_77 - z_7561 >= 0
 c7563: y_3 + y_19 + y_21 + y_33 + y_38 + y_43 + y_48 + y_59 + y_69 - z_7562
         >= 0
 c7564: y_3 + y_19 + y_21 + y_30 + y_33 + y_38 + y_43 + y_48 + y_59 - z_7563
         >= 0
 c7565: y_1 + y_8 + y_23 + y_46 + y_49 + y_73 + y_75 - z_7564 >= 0
 c7566: y_37 + y_45 - z_7565 >= 0
 c7567: y_10 + y_12 + y_57 + y_72 + y_78 + y_88 - z_7566 >= 0
 c7568: y_73 + y_96 - z_7567 >= 0
 c7569: y_3 + y_4 + y_6 + y_26 + y_32 + y_33 + y_38 + y_44 + y_90 - z_7568 >= 0
 c7570: y_3 + y_15 + y_19 + y_20 + y_21 + y_33 + y_38 + y_41 + y_44 + y_48
        + y_61 + y_79 + y_93 - z_7569 >= 0
 c7571: y_53 + y_58 + y_91 - z_7570 >= 0
 c7572: y_9 + y_11 + y_67 + y_68 + y_69 + y_97 - z_7571 >= 0
 c7573: y_2 + y_14 + y_82 + y_83 + y_84 + y_85 - z_7572 >= 0
 c7574: y_21 + y_30 + y_36 + y_41 + y_43 + y_47 + y_48 + y_94 - z_7573 >= 0
 c7575: y_9 + y_26 + y_67 + y_69 + y_71 - z_7574 >= 0
 c7576: y_2 + y_14 + y_27 + y_82 + y_83 - z_7575 >= 0
 c7577: y_6 + y_90 - z_7576 >= 0
 c7578: y_3 + y_9 + y_19 + y_26 + y_38 + y_44 + y_67 + y_69 - z_7577 >= 0
 c7579: y_4 + y_6 + y_32 + y_90 - z_7578 >= 0
 c7580: y_18 + y_36 + y_47 + y_74 + y_95 - z_7579 >= 0
 c7581: y_6 + y_22 + y_32 + y_90 - z_7580 >= 0
 c7582: y_17 + y_39 + y_53 + y_58 + y_63 + y_91 - z_7581 >= 0
 c7583: y_0 + y_39 + y_42 + y_53 + y_55 + y_63 + y_64 - z_7582 >= 0
 c7584: y_13 + y_28 + y_60 + y_76 + y_78 + y_81 - z_7583 >= 0
 c7585: y_9 + y_71 - z_7584 >= 0
 c7586: y_0 + y_45 + y_96 - z_7585 >= 0
 c7587: y_7 + y_31 + y_51 + y_62 + y_89 + y_99 - z_7586 >= 0
 c7588: y_11 + y_19 + y_30 + y_43 + y_52 + y_59 + y_94 - z_7587 >= 0
 c7589: y_9 + y_71 - z_7588 >= 0
 c7590: y_2 + y_40 + y_83 + y_85 + y_92 - z_7589 >= 0
 c7591: y_3 + y_11 + y_19 + y_26 + y_38 + y_43 + y_52 + y_59 + y_67 + y_68
        + y_69 - z_7590 >= 0
 c7592: y_4 + y_5 + y_6 + y_32 + y_34 + y_44 + y_90 - z_7591 >= 0
 c7593: y_4 + y_9 + y_26 + y_32 + y_38 + y_44 + y_67 + y_90 - z_7592 >= 0
 c7594: y_4 + y_6 + y_32 + y_90 - z_7593 >= 0
 c7595: y_11 + y_24 + y_43 + y_52 + y_59 + y_67 + y_68 + y_69 + y_70 + y_97
        - z_7594 >= 0
 c7596: y_17 + y_53 + y_58 + y_91 - z_7595 >= 0
 c7597: y_13 + y_65 + y_72 - z_7596 >= 0
 c7598: y_83 + y_84 + y_85 - z_7597 >= 0
 c7599: y_25 + y_29 + y_35 + y_77 + y_87 - z_7598 >= 0
 c7600: y_9 + y_71 - z_7599 >= 0
 c7601: y_15 + y_18 + y_46 + y_49 + y_74 + y_95 - z_7600 >= 0
 c7602: y_9 + y_26 + y_67 + y_71 - z_7601 >= 0
 c7603: y_0 + y_27 + y_42 + y_55 + y_64 - z_7602 >= 0
 c7604: y_15 + y_18 + y_20 + y_21 + y_36 + y_41 + y_47 + y_48 + y_61 + y_79
        + y_80 + y_93 + y_95 - z_7603 >= 0
 c7605: y_0 + y_2 + y_14 + y_27 + y_42 + y_55 + y_82 - z_7604 >= 0
 c7606: y_10 + y_13 + y_28 + y_60 + y_76 + y_78 + y_81 - z_7605 >= 0
 c7607: y_12 + y_71 + y_88 - z_7606 >= 0
 c7608: y_0 + y_16 + y_39 + y_42 + y_53 + y_54 + y_55 + y_63 + y_64 - z_7607
         >= 0
 c7609: y_13 + y_28 + y_60 + y_76 + y_81 - z_7608 >= 0
 c7610: y_2 + y_83 + y_85 - z_7609 >= 0
 c7611: y_0 + y_27 + y_42 + y_55 + y_64 - z_7610 >= 0
 c7612: y_25 + y_40 + y_66 + y_77 + y_87 + y_92 - z_7611 >= 0
 c7613: y_5 + y_34 - z_7612 >= 0
 c7614: y_13 + y_28 + y_60 + y_76 + y_81 - z_7613 >= 0
 c7615: y_16 + y_39 + y_40 + y_54 + y_55 + y_66 + y_87 + y_92 - z_7614 >= 0
 c7616: y_16 + y_39 + y_53 + y_54 + y_58 + y_63 + y_66 + y_87 - z_7615 >= 0
 c7617: y_9 + y_11 + y_26 + y_38 + y_67 + y_68 + y_69 + y_97 - z_7616 >= 0
 c7618: y_7 + y_23 + y_31 + y_51 + y_62 + y_98 - z_7617 >= 0
 c7619: y_12 + y_71 + y_88 - z_7618 >= 0
 c7620: y_7 + y_23 + y_31 + y_51 + y_98 + y_99 - z_7619 >= 0
 c7621: y_1 + y_23 + y_46 + y_49 + y_73 + y_75 + y_98 + y_99 - z_7620 >= 0
 c7622: y_11 + y_24 + y_52 + y_59 + y_67 + y_68 + y_69 + y_70 + y_86 + y_97
        - z_7621 >= 0
 c7623: y_3 + y_11 + y_19 + y_26 + y_38 + y_43 + y_52 + y_59 + y_67 + y_68
        + y_69 - z_7622 >= 0
 c7624: y_10 + y_13 + y_57 + y_60 + y_72 + y_76 + y_78 + y_81 - z_7623 >= 0
 c7625: y_23 + y_51 + y_98 - z_7624 >= 0
 c7626: y_3 + y_5 + y_19 + y_33 + y_34 + y_38 + y_44 + y_48 + y_61 + y_79
        - z_7625 >= 0
 c7627: y_29 - z_7626 >= 0
 c7628: y_1 + y_23 + y_31 + y_73 + y_89 + y_98 + y_99 - z_7627 >= 0
 c7629: y_46 + y_49 + y_74 + y_95 - z_7628 >= 0
 c7630: y_0 + y_2 + y_27 + y_42 + y_55 - z_7629 >= 0
 c7631: y_4 + y_9 + y_12 + y_32 + y_71 + y_88 - z_7630 >= 0
 c7632: y_16 + y_39 + y_53 + y_54 + y_58 + y_63 + y_64 + y_66 + y_91 - z_7631
         >= 0
 c7633: y_4 + y_6 + y_9 + y_26 + y_32 + y_90 - z_7632 >= 0
 c7634: y_22 + y_56 + y_57 + y_65 - z_7633 >= 0
 c7635: y_2 + y_14 + y_82 + y_83 + y_84 - z_7634 >= 0
 c7636: y_3 + y_11 + y_19 + y_26 + y_33 + y_38 + y_44 + y_67 + y_69 - z_7635
         >= 0
 c7637: y_10 + y_78 - z_7636 >= 0
 c7638: y_16 + y_39 + y_50 + y_54 + y_56 + y_66 + y_87 - z_7637 >= 0
 c7639: y_9 + y_11 + y_26 + y_67 + y_68 + y_69 + y_97 - z_7638 >= 0
 c7640: y_15 + y_18 + y_21 + y_36 + y_41 + y_47 + y_79 + y_95 - z_7639 >= 0
 c7641: y_23 + y_46 + y_49 + y_74 + y_95 - z_7640 >= 0
 c7642: y_25 + y_35 + y_77 + y_92 - z_7641 >= 0
 c7643: y_0 + y_27 + y_45 - z_7642 >= 0
 c7644: y_37 + y_45 + y_96 - z_7643 >= 0
 c7645: y_3 + y_15 + y_19 + y_20 + y_21 + y_33 + y_34 + y_41 + y_44 + y_48
        + y_61 + y_79 + y_93 - z_7644 >= 0
 c7646: y_37 + y_45 - z_7645 >= 0
 c7647: y_4 + y_6 + y_26 + y_32 + y_44 + y_90 - z_7646 >= 0
 c7648: y_45 - z_7647 >= 0
 c7649: y_10 + y_12 + y_57 + y_72 + y_78 + y_88 - z_7648 >= 0
 c7650: y_2 + y_40 + y_83 + y_85 + y_92 - z_7649 >= 0
 c7651: y_25 + y_29 + y_35 + y_50 + y_77 - z_7650 >= 0
 c7652: y_0 + y_27 + y_42 - z_7651 >= 0
 c7653: y_6 + y_22 - z_7652 >= 0
 c7654: y_17 + y_53 + y_96 - z_7653 >= 0
 c7655: y_10 + y_13 + y_57 + y_60 + y_72 + y_76 + y_78 + y_81 - z_7654 >= 0
 c7656: y_3 + y_5 + y_15 + y_20 + y_33 + y_34 + y_41 + y_48 + y_61 + y_79 + y_80
        + y_93 - z_7655 >= 0
 c7657: y_13 + y_28 + y_60 + y_72 + y_76 + y_78 + y_81 - z_7656 >= 0
 c7658: y_40 + y_83 + y_85 + y_92 - z_7657 >= 0
 c7659: y_5 + y_8 + y_20 + y_34 + y_61 + y_75 + y_80 + y_93 - z_7658 >= 0
 c7660: y_46 + y_49 + y_74 - z_7659 >= 0
 c7661: y_5 + y_6 + y_34 + y_44 + y_90 - z_7660 >= 0
 c7662: y_8 + y_20 + y_34 + y_61 + y_75 + y_80 + y_93 - z_7661 >= 0
 c7663: y_4 + y_9 + y_26 + y_32 + y_71 - z_7662 >= 0
 c7664: y_12 + y_22 + y_57 + y_65 + y_72 + y_88 - z_7663 >= 0
 c7665: y_2 + y_83 + y_84 + y_85 - z_7664 >= 0
 c7666: y_50 + y_56 - z_7665 >= 0
 c7667: y_12 + y_22 + y_57 + y_72 + y_78 + y_88 - z_7666 >= 0
 c7668: y_96 - z_7667 >= 0
 c7669: y_17 + y_53 + y_63 + y_64 + y_96 - z_7668 >= 0
 c7670: y_11 + y_24 + y_52 + y_59 + y_67 + y_68 + y_69 + y_70 + y_86 + y_97
        - z_7669 >= 0
 c7671: y_17 + y_96 - z_7670 >= 0
 c7672: y_8 + y_15 + y_20 + y_46 + y_49 + y_61 + y_75 + y_79 + y_80 + y_93
        + y_95 - z_7671 >= 0
 c7673: y_16 + y_39 + y_53 + y_54 + y_55 + y_58 + y_63 + y_64 + y_91 - z_7672
         >= 0
 c7674: y_2 + y_14 + y_27 + y_42 + y_55 + y_82 + y_83 - z_7673 >= 0
 c7675: y_9 + y_71 - z_7674 >= 0
 c7676: y_4 + y_6 + y_12 + y_22 + y_32 + y_88 - z_7675 >= 0
 c7677: y_11 + y_24 + y_30 + y_43 + y_52 + y_59 + y_67 + y_68 + y_69 + y_70
        - z_7676 >= 0
 c7678: y_12 + y_22 + y_57 + y_72 + y_88 - z_7677 >= 0
 c7679: y_6 + y_58 - z_7678 >= 0
 c7680: y_16 + y_39 + y_40 + y_53 + y_54 + y_55 + y_63 + y_64 + y_66 + y_87
        - z_7679 >= 0
 c7681: y_25 + y_29 + y_35 + y_50 + y_56 + y_77 + y_87 - z_7680 >= 0
 c7682: y_5 + y_8 + y_17 + y_20 + y_34 + y_75 + y_80 + y_93 + y_96 - z_7681 >= 
        0
 c7683: y_6 + y_22 - z_7682 >= 0
 c7684: y_13 + y_60 + y_65 + y_72 + y_76 - z_7683 >= 0
 c7685: y_0 + y_2 + y_14 + y_27 + y_42 + y_55 - z_7684 >= 0
 c7686: y_37 + y_45 - z_7685 >= 0
 c7687: y_45 - z_7686 >= 0
 c7688: y_5 + y_6 + y_90 - z_7687 >= 0
 c7689: y_0 + y_27 + y_42 - z_7688 >= 0
 c7690: y_23 + y_49 + y_74 + y_98 - z_7689 >= 0
 c7691: y_83 + y_84 + y_85 - z_7690 >= 0
 c7692: y_25 + y_29 + y_56 + y_77 - z_7691 >= 0
 c7693: y_45 + y_96 - z_7692 >= 0
 c7694: y_50 + y_56 - z_7693 >= 0
 c7695: y_13 + y_28 + y_60 + y_76 + y_78 + y_81 - z_7694 >= 0
 c7696: y_17 + y_53 + y_58 + y_91 - z_7695 >= 0
 c7697: y_13 + y_57 + y_60 + y_65 + y_72 + y_76 + y_78 - z_7696 >= 0
 c7698: y_4 + y_9 + y_26 + y_32 + y_67 - z_7697 >= 0
 c7699: y_16 + y_17 + y_39 + y_53 + y_54 + y_58 + y_63 + y_64 + y_91 - z_7698
         >= 0
 c7700: y_17 + y_53 + y_63 + y_96 - z_7699 >= 0
 c7701: y_1 + y_8 + y_73 + y_75 + y_96 - z_7700 >= 0
 c7702: y_9 + y_26 + y_32 + y_71 - z_7701 >= 0
 c7703: y_4 + y_9 + y_26 + y_32 + y_90 - z_7702 >= 0
 c7704: y_10 + y_13 + y_28 + y_60 + y_72 + y_76 + y_78 + y_81 - z_7703 >= 0
 c7705: y_7 + y_23 + y_31 + y_51 + y_62 + y_89 + y_98 + y_99 - z_7704 >= 0
 c7706: y_11 + y_24 + y_43 + y_52 + y_59 + y_68 + y_70 + y_86 + y_97 - z_7705
         >= 0
 c7707: y_0 + y_45 - z_7706 >= 0
 c7708: y_7 + y_31 + y_37 + y_51 + y_89 + y_99 - z_7707 >= 0
 c7709: y_12 + y_71 + y_88 - z_7708 >= 0
 c7710: y_13 + y_28 + y_60 + y_76 + y_78 + y_81 - z_7709 >= 0
 c7711: y_5 + y_8 + y_15 + y_20 + y_33 + y_34 + y_61 + y_79 + y_80 + y_93
        - z_7710 >= 0
 c7712: y_5 + y_8 + y_20 + y_34 + y_61 + y_75 + y_80 + y_93 - z_7711 >= 0
 c7713: y_1 + y_31 + y_37 + y_73 + y_89 + y_99 - z_7712 >= 0
 c7714: y_4 + y_6 + y_32 + y_90 - z_7713 >= 0
 c7715: y_13 + y_28 + y_60 + y_76 - z_7714 >= 0
 c7716: y_11 + y_24 + y_52 + y_59 + y_68 + y_70 + y_86 + y_97 - z_7715 >= 0
 c7717: y_40 + y_54 + y_66 + y_87 + y_92 - z_7716 >= 0
 c7718: y_15 + y_18 + y_21 + y_36 + y_41 + y_47 + y_48 + y_79 + y_95 - z_7717
         >= 0
 c7719: y_17 + y_96 - z_7718 >= 0
 c7720: y_9 + y_11 + y_26 + y_67 + y_68 + y_69 + y_97 - z_7719 >= 0
 c7721: y_25 + y_29 + y_50 + y_56 + y_77 - z_7720 >= 0
 c7722: y_16 + y_39 + y_53 + y_54 + y_58 + y_63 + y_66 + y_91 - z_7721 >= 0
 c7723: y_17 + y_53 + y_96 - z_7722 >= 0
 c7724: y_11 + y_26 + y_38 + y_52 + y_67 + y_68 + y_69 + y_97 - z_7723 >= 0
 c7725: y_2 + y_14 + y_27 + y_82 + y_83 - z_7724 >= 0
 c7726: y_0 + y_27 + y_42 + y_64 - z_7725 >= 0
 c7727: y_0 + y_27 - z_7726 >= 0
 c7728: y_11 + y_24 + y_43 + y_52 + y_59 + y_67 + y_68 + y_69 + y_70 - z_7727
         >= 0
 c7729: y_4 + y_12 + y_22 + y_32 + y_88 - z_7728 >= 0
 c7730: y_6 + y_22 - z_7729 >= 0
 c7731: y_6 + y_58 + y_90 + y_91 - z_7730 >= 0
 c7732: y_65 + y_72 - z_7731 >= 0
 c7733: y_8 + y_20 + y_34 + y_61 + y_75 + y_80 + y_93 - z_7732 >= 0
 c7734: y_12 + y_57 + y_88 - z_7733 >= 0
 c7735: y_57 + y_65 + y_72 - z_7734 >= 0
 c7736: y_11 + y_26 + y_67 + y_68 + y_69 + y_97 - z_7735 >= 0
 c7737: y_3 + y_4 + y_5 + y_6 + y_33 + y_38 + y_44 + y_90 - z_7736 >= 0
 c7738: y_13 + y_28 + y_60 + y_76 + y_81 - z_7737 >= 0
 c7739: y_13 + y_57 + y_60 + y_65 + y_72 + y_76 + y_78 - z_7738 >= 0
 c7740: y_2 + y_40 + y_83 + y_85 + y_92 - z_7739 >= 0
 c7741: y_5 + y_20 + y_34 + y_44 + y_61 + y_80 + y_93 - z_7740 >= 0
 c7742: y_16 + y_17 + y_39 + y_53 + y_58 + y_63 + y_91 - z_7741 >= 0
 c7743: y_9 + y_11 + y_26 + y_67 + y_68 + y_69 + y_97 - z_7742 >= 0
 c7744: y_22 + y_57 + y_65 - z_7743 >= 0
 c7745: y_9 + y_11 + y_26 + y_38 + y_67 + y_68 + y_69 + y_97 - z_7744 >= 0
 c7746: y_17 + y_96 - z_7745 >= 0
 c7747: y_24 + y_30 + y_43 + y_52 + y_59 + y_70 - z_7746 >= 0
 c7748: y_1 + y_8 + y_73 + y_75 + y_96 - z_7747 >= 0
 c7749: y_1 + y_23 + y_46 + y_49 + y_73 + y_74 + y_75 + y_95 - z_7748 >= 0
 c7750: y_24 + y_30 + y_52 + y_59 + y_70 + y_86 - z_7749 >= 0
 c7751: y_10 + y_13 + y_60 + y_76 + y_78 + y_81 - z_7750 >= 0
 c7752: y_0 + y_39 + y_42 + y_53 + y_55 + y_63 + y_64 - z_7751 >= 0
 c7753: y_1 + y_23 + y_31 + y_73 + y_89 + y_98 + y_99 - z_7752 >= 0
 c7754: y_25 + y_29 + y_35 + y_77 - z_7753 >= 0
 c7755: y_10 + y_57 + y_72 + y_76 + y_78 + y_81 - z_7754 >= 0
 c7756: y_4 + y_9 + y_12 + y_26 + y_32 + y_71 - z_7755 >= 0
 c7757: y_31 + y_37 + y_73 + y_89 + y_99 - z_7756 >= 0
 c7758: y_83 + y_84 + y_85 - z_7757 >= 0
 c7759: y_16 + y_50 + y_54 + y_56 + y_66 + y_87 - z_7758 >= 0
 c7760: y_3 + y_4 + y_5 + y_6 + y_32 + y_33 + y_38 + y_44 + y_90 - z_7759 >= 0
 c7761: y_2 + y_14 + y_82 + y_83 + y_84 + y_85 - z_7760 >= 0
 c7762: y_13 - z_7761 >= 0
 c7763: y_24 + y_52 + y_59 + y_70 + y_86 - z_7762 >= 0
 c7764: y_1 + y_23 + y_31 + y_37 + y_73 + y_89 + y_98 + y_99 - z_7763 >= 0
 c7765: y_7 + y_23 + y_31 + y_51 + y_89 + y_98 + y_99 - z_7764 >= 0
 c7766: y_1 + y_23 + y_31 + y_46 + y_49 + y_73 + y_89 + y_98 + y_99 - z_7765
         >= 0
 c7767: y_9 + y_12 + y_71 + y_88 - z_7766 >= 0
 c7768: y_30 + y_43 + y_52 + y_59 + y_94 - z_7767 >= 0
 c7769: y_3 + y_19 + y_33 + y_38 + y_44 + y_48 - z_7768 >= 0
 c7770: y_0 + y_27 - z_7769 >= 0
 c7771: y_2 + y_14 + y_82 + y_83 + y_84 + y_85 - z_7770 >= 0
 c7772: y_7 + y_23 + y_31 + y_51 + y_62 + y_89 + y_98 + y_99 - z_7771 >= 0
 c7773: y_7 + y_23 + y_31 + y_51 + y_62 + y_89 + y_98 + y_99 - z_7772 >= 0
 c7774: y_0 + y_27 + y_42 - z_7773 >= 0
 c7775: y_12 + y_22 + y_57 + y_72 + y_88 - z_7774 >= 0
 c7776: y_2 + y_14 + y_82 + y_83 + y_84 + y_85 - z_7775 >= 0
 c7777: y_50 + y_56 + y_65 - z_7776 >= 0
 c7778: y_4 + y_12 + y_32 + y_88 - z_7777 >= 0
 c7779: y_13 - z_7778 >= 0
 c7780: y_13 - z_7779 >= 0
 c7781: y_83 + y_84 + y_85 - z_7780 >= 0
 c7782: y_2 + y_83 + y_84 + y_85 - z_7781 >= 0
 c7783: y_16 + y_25 + y_35 + y_40 + y_50 + y_54 + y_56 + y_66 + y_77 + y_87
        - z_7782 >= 0
 c7784: y_24 + y_52 + y_59 + y_70 + y_86 - z_7783 >= 0
 c7785: y_7 + y_23 + y_51 + y_62 + y_98 - z_7784 >= 0
 c7786: y_3 + y_19 + y_21 + y_30 + y_33 + y_38 + y_41 + y_43 + y_48 - z_7785
         >= 0
 c7787: y_10 + y_13 + y_57 + y_60 + y_72 + y_76 + y_78 + y_81 - z_7786 >= 0
 c7788: y_23 + y_49 + y_74 + y_98 - z_7787 >= 0
 c7789: y_9 + y_11 + y_26 + y_38 + y_67 + y_68 + y_69 + y_97 - z_7788 >= 0
 c7790: y_22 + y_56 + y_65 - z_7789 >= 0
 c7791: y_14 + y_27 + y_82 - z_7790 >= 0
 c7792: y_58 - z_7791 >= 0
 c7793: y_5 + y_8 + y_17 + y_20 + y_34 + y_61 + y_75 + y_80 + y_93 - z_7792 >= 
        0
 c7794: y_1 + y_7 + y_23 + y_31 + y_37 + y_73 + y_89 + y_98 + y_99 - z_7793 >= 
        0
 c7795: y_40 + y_87 + y_92 - z_7794 >= 0
 c7796: y_37 + y_45 + y_73 + y_96 - z_7795 >= 0
 c7797: y_11 + y_19 + y_26 + y_38 + y_43 + y_52 + y_59 + y_67 + y_68 + y_69
        - z_7796 >= 0
 c7798: y_1 + y_8 + y_46 + y_73 + y_75 + y_96 - z_7797 >= 0
 c7799: y_31 + y_37 + y_89 + y_99 - z_7798 >= 0
 c7800: y_8 + y_15 + y_20 + y_46 + y_49 + y_74 + y_75 + y_80 + y_93 + y_95
        - z_7799 >= 0
 c7801: y_23 + y_46 + y_49 + y_74 + y_98 - z_7800 >= 0
 c7802: y_1 + y_23 + y_46 + y_49 + y_74 + y_75 + y_95 - z_7801 >= 0
 c7803: y_12 + y_22 + y_32 + y_88 - z_7802 >= 0
 c7804: y_0 + y_27 + y_42 + y_55 + y_64 - z_7803 >= 0
 c7805: y_10 + y_13 + y_57 + y_60 + y_72 + y_76 + y_78 + y_81 - z_7804 >= 0
 c7806: y_40 + y_87 + y_92 - z_7805 >= 0
 c7807: y_25 + y_29 + y_35 + y_50 + y_77 + y_87 - z_7806 >= 0
 c7808: y_25 + y_29 + y_35 + y_50 + y_56 + y_77 + y_87 - z_7807 >= 0
 c7809: y_0 + y_27 + y_39 + y_42 + y_53 + y_55 + y_63 + y_64 - z_7808 >= 0
 c7810: y_0 + y_27 + y_42 - z_7809 >= 0
 c7811: y_15 + y_20 + y_33 + y_34 + y_41 + y_48 + y_61 + y_75 + y_79 + y_80
        + y_93 + y_95 - z_7810 >= 0
 c7812: y_9 + y_26 + y_67 + y_68 + y_69 + y_97 - z_7811 >= 0
 c7813: y_8 + y_15 + y_20 + y_34 + y_46 + y_61 + y_75 + y_79 + y_80 + y_93
        + y_95 - z_7812 >= 0
 c7814: y_4 + y_5 + y_6 + y_90 - z_7813 >= 0
 c7815: y_25 + y_29 + y_35 + y_77 - z_7814 >= 0
 c7816: y_22 + y_50 + y_56 + y_65 - z_7815 >= 0
 c7817: y_13 + y_28 + y_60 + y_76 + y_81 - z_7816 >= 0
 c7818: y_10 + y_13 + y_57 + y_60 + y_72 + y_76 + y_78 + y_81 - z_7817 >= 0
 c7819: y_15 + y_18 + y_21 + y_36 + y_41 + y_47 + y_95 - z_7818 >= 0
 c7820: y_5 + y_8 + y_34 + y_80 + y_93 - z_7819 >= 0
 c7821: y_13 + y_57 + y_60 + y_72 + y_76 + y_78 + y_81 - z_7820 >= 0
 c7822: y_1 + y_8 + y_73 + y_75 + y_96 - z_7821 >= 0
 c7823: y_22 + y_57 + y_65 + y_72 - z_7822 >= 0
 c7824: y_83 + y_85 + y_92 - z_7823 >= 0
 c7825: y_8 + y_20 + y_34 + y_46 + y_61 + y_75 + y_80 + y_93 - z_7824 >= 0
 c7826: y_25 + y_29 + y_35 + y_50 + y_56 + y_77 + y_87 - z_7825 >= 0
 c7827: y_5 + y_17 + y_34 + y_58 + y_91 - z_7826 >= 0
 c7828: y_2 + y_83 + y_85 + y_92 - z_7827 >= 0
 c7829: y_22 + y_56 + y_65 - z_7828 >= 0
 c7830: y_1 + y_8 + y_15 + y_46 + y_49 + y_74 + y_75 + y_80 + y_95 - z_7829 >= 
        0
 c7831: - z_7830 >= 0
 c7832: y_10 + y_12 + y_57 + y_72 + y_78 + y_88 - z_7831 >= 0
 c7833: y_10 + y_13 + y_57 + y_60 + y_72 + y_76 + y_78 + y_81 - z_7832 >= 0
 c7834: y_5 + y_34 + y_90 - z_7833 >= 0
 c7835: y_13 + y_28 + y_60 - z_7834 >= 0
 c7836: y_12 + y_22 + y_57 + y_65 + y_72 + y_88 - z_7835 >= 0
 c7837: y_30 + y_43 + y_52 + y_59 + y_70 + y_94 - z_7836 >= 0
 c7838: y_71 - z_7837 >= 0
 c7839: y_3 + y_11 + y_19 + y_30 + y_38 + y_43 + y_52 + y_59 + y_67 + y_68
        + y_69 - z_7838 >= 0
 c7840: y_15 + y_20 + y_46 + y_49 + y_61 + y_74 + y_75 + y_79 + y_80 + y_93
        + y_95 - z_7839 >= 0
 c7841: y_25 + y_29 + y_35 + y_77 + y_87 + y_92 - z_7840 >= 0
 c7842: y_2 + y_14 + y_82 + y_83 + y_84 + y_85 - z_7841 >= 0
 c7843: y_8 + y_15 + y_20 + y_46 + y_49 + y_61 + y_75 + y_80 + y_93 + y_95
        - z_7842 >= 0
 c7844: y_24 + y_30 + y_43 + y_52 + y_59 + y_70 + y_94 - z_7843 >= 0
 c7845: y_11 + y_24 + y_52 + y_59 + y_68 + y_70 + y_86 + y_97 - z_7844 >= 0
 c7846: y_0 + y_27 + y_42 + y_55 + y_63 + y_64 - z_7845 >= 0
 c7847: y_7 + y_23 + y_31 + y_51 + y_62 + y_89 + y_98 + y_99 - z_7846 >= 0
 c7848: y_25 + y_35 + y_77 + y_92 - z_7847 >= 0
 c7849: y_13 + y_28 + y_60 + y_76 + y_78 + y_81 - z_7848 >= 0
 c7850: y_16 + y_39 + y_54 + y_63 + y_66 + y_87 - z_7849 >= 0
 c7851: y_11 + y_24 + y_43 + y_52 + y_59 + y_67 + y_68 + y_69 + y_70 + y_97
        - z_7850 >= 0
 c7852: y_16 + y_39 + y_53 + y_54 + y_58 + y_63 + y_64 + y_66 + y_91 - z_7851
         >= 0
 c7853: y_73 + y_96 - z_7852 >= 0
 c7854: y_83 + y_85 - z_7853 >= 0
 c7855: y_6 + y_58 + y_91 - z_7854 >= 0
 c7856: y_83 + y_84 + y_85 - z_7855 >= 0
 c7857: y_15 + y_18 + y_20 + y_21 + y_36 + y_41 + y_47 + y_48 + y_61 + y_79
        + y_80 + y_93 + y_95 - z_7856 >= 0
 c7858: y_13 + y_28 + y_60 + y_72 + y_76 + y_78 + y_81 - z_7857 >= 0
 c7859: y_16 + y_39 + y_53 + y_54 + y_55 + y_58 + y_63 + y_64 + y_91 - z_7858
         >= 0
 c7860: y_9 + y_11 + y_67 + y_68 + y_69 + y_97 - z_7859 >= 0
 c7861: y_11 + y_19 + y_30 + y_38 + y_43 + y_52 + y_59 + y_67 + y_68 + y_69
        - z_7860 >= 0
 c7862: y_10 + y_13 + y_28 + y_60 + y_76 + y_78 + y_81 - z_7861 >= 0
 c7863: y_1 + y_8 + y_73 + y_75 + y_96 - z_7862 >= 0
 c7864: y_11 + y_24 + y_43 + y_52 + y_59 + y_67 + y_68 + y_69 + y_70 + y_86
        + y_97 - z_7863 >= 0
 c7865: y_1 + y_8 + y_73 + y_75 + y_96 + y_99 - z_7864 >= 0
 c7866: y_11 + y_24 + y_30 + y_43 + y_52 + y_59 + y_68 + y_70 + y_86 - z_7865
         >= 0
 c7867: y_8 + y_15 + y_20 + y_34 + y_46 + y_61 + y_75 + y_79 + y_80 + y_93
        + y_95 - z_7866 >= 0
 c7868: y_12 + y_22 + y_57 + y_88 - z_7867 >= 0
 c7869: y_25 + y_29 + y_77 - z_7868 >= 0
 c7870: y_3 + y_15 + y_18 + y_21 + y_33 + y_36 + y_41 + y_47 + y_48 + y_61
        + y_79 - z_7869 >= 0
 c7871: y_16 + y_39 + y_50 + y_54 + y_56 + y_58 + y_66 - z_7870 >= 0
 c7872: y_83 + y_84 + y_85 - z_7871 >= 0
 c7873: y_13 + y_28 + y_60 + y_76 - z_7872 >= 0
 c7874: y_11 + y_24 + y_43 + y_52 + y_59 + y_67 + y_68 + y_69 + y_70 + y_86
        + y_97 - z_7873 >= 0
 c7875: y_29 + y_50 + y_56 + y_65 - z_7874 >= 0
 c7876: y_5 + y_8 + y_17 + y_34 + y_80 - z_7875 >= 0
 c7877: y_9 + y_71 + y_97 - z_7876 >= 0
 c7878: y_1 + y_8 + y_46 + y_73 + y_75 + y_96 - z_7877 >= 0
 c7879: y_3 + y_19 + y_21 + y_30 + y_33 + y_38 + y_43 + y_48 + y_52 + y_59
        - z_7878 >= 0
 c7880: y_25 + y_35 + y_40 + y_77 + y_87 + y_92 - z_7879 >= 0
 c7881: y_8 + y_15 + y_20 + y_34 + y_46 + y_61 + y_75 + y_79 + y_80 + y_93
        + y_95 - z_7880 >= 0
 c7882: y_2 + y_14 + y_82 + y_83 + y_84 + y_85 - z_7881 >= 0
 c7883: y_25 + y_29 + y_50 + y_56 + y_66 + y_77 + y_87 - z_7882 >= 0
 c7884: y_15 + y_18 + y_20 + y_21 + y_36 + y_41 + y_46 + y_47 + y_61 + y_79
        + y_93 + y_95 - z_7883 >= 0
 c7885: y_30 + y_43 + y_52 + y_59 + y_94 - z_7884 >= 0
 c7886: y_1 + y_8 + y_46 + y_73 + y_75 + y_99 - z_7885 >= 0
 c7887: y_4 + y_9 + y_19 + y_26 + y_32 + y_38 + y_44 + y_67 + y_69 - z_7886 >= 
        0
 c7888: y_0 + y_27 + y_42 + y_55 + y_63 + y_64 - z_7887 >= 0
 c7889: y_1 + y_23 + y_46 + y_49 + y_74 + y_95 + y_98 - z_7888 >= 0
 c7890: y_13 + y_65 - z_7889 >= 0
 c7891: y_11 + y_24 + y_52 + y_59 + y_67 + y_68 + y_69 + y_70 + y_86 + y_97
        - z_7890 >= 0
 c7892: y_40 + y_92 - z_7891 >= 0
 c7893: y_6 + y_58 + y_90 - z_7892 >= 0
 c7894: y_1 + y_37 + y_73 + y_89 + y_99 - z_7893 >= 0
 c7895: y_4 + y_6 + y_22 + y_32 + y_90 - z_7894 >= 0
 c7896: y_1 + y_23 + y_31 + y_46 + y_49 + y_73 + y_98 + y_99 - z_7895 >= 0
 c7897: y_3 + y_11 + y_19 + y_26 + y_33 + y_38 + y_44 + y_67 + y_68 + y_69
        - z_7896 >= 0
 c7898: y_11 + y_67 + y_68 + y_97 - z_7897 >= 0
 c7899: y_45 - z_7898 >= 0
 c7900: y_16 + y_40 + y_54 + y_66 + y_87 + y_92 - z_7899 >= 0
 c7901: y_58 + y_91 - z_7900 >= 0
 c7902: y_31 + y_37 + y_45 + y_89 + y_99 - z_7901 >= 0
 c7903: y_11 + y_67 + y_68 + y_69 + y_97 - z_7902 >= 0
 c7904: y_9 + y_11 + y_26 + y_52 + y_67 + y_68 + y_69 + y_97 - z_7903 >= 0
 c7905: y_16 + y_17 + y_39 + y_53 + y_54 + y_58 + y_63 + y_64 + y_91 - z_7904
         >= 0
 c7906: y_1 + y_31 + y_37 + y_73 + y_89 + y_99 - z_7905 >= 0
 c7907: y_4 + y_9 + y_26 + y_32 - z_7906 >= 0
 c7908: y_37 + y_45 + y_73 + y_96 - z_7907 >= 0
 c7909: y_97 - z_7908 >= 0
 c7910: y_22 + y_56 + y_65 - z_7909 >= 0
 c7911: y_13 + y_60 + y_76 - z_7910 >= 0
 c7912: y_12 + y_71 + y_88 - z_7911 >= 0
 c7913: y_2 + y_40 + y_55 + y_83 + y_85 - z_7912 >= 0
 c7914: y_9 + y_11 + y_19 + y_26 + y_38 + y_67 + y_68 + y_69 - z_7913 >= 0
 c7915: y_1 + y_8 + y_23 + y_46 + y_49 + y_73 + y_75 - z_7914 >= 0
 c7916: y_2 + y_14 + y_82 + y_83 + y_85 - z_7915 >= 0
 c7917: y_11 + y_19 + y_30 + y_38 + y_43 + y_52 + y_59 + y_67 + y_68 + y_69
        - z_7916 >= 0
 c7918: y_2 + y_14 + y_27 + y_42 + y_82 - z_7917 >= 0
 c7919: y_25 + y_29 + y_35 + y_40 + y_77 + y_87 + y_92 - z_7918 >= 0
 c7920: y_10 + y_76 + y_78 + y_81 - z_7919 >= 0
 c7921: y_15 + y_18 + y_20 + y_21 + y_33 + y_36 + y_41 + y_47 + y_48 + y_61
        + y_79 + y_93 + y_95 - z_7920 >= 0
 c7922: y_37 + y_45 - z_7921 >= 0
 c7923: y_3 + y_15 + y_19 + y_20 + y_21 + y_33 + y_36 + y_41 + y_44 + y_47
        + y_48 + y_61 + y_79 + y_93 - z_7922 >= 0
 c7924: y_4 + y_6 + y_12 + y_22 + y_32 + y_88 - z_7923 >= 0
 c7925: y_5 + y_34 - z_7924 >= 0
 c7926: y_1 + y_8 + y_73 + y_75 + y_96 - z_7925 >= 0
 c7927: y_1 + y_23 + y_46 + y_49 + y_74 + y_75 + y_95 - z_7926 >= 0
 c7928: y_9 + y_12 + y_32 + y_71 + y_88 - z_7927 >= 0
 c7929: y_10 + y_12 + y_57 + y_78 + y_88 - z_7928 >= 0
 c7930: y_3 + y_11 + y_19 + y_26 + y_33 + y_38 + y_43 + y_44 + y_52 + y_67
        + y_68 + y_69 - z_7929 >= 0
 c7931: y_13 + y_60 + y_72 + y_76 + y_78 + y_81 - z_7930 >= 0
 c7932: y_14 + y_27 - z_7931 >= 0
 c7933: y_7 + y_31 + y_51 + y_62 + y_89 - z_7932 >= 0
 c7934: y_8 + y_17 + y_34 + y_91 + y_96 - z_7933 >= 0
 c7935: y_37 + y_45 - z_7934 >= 0
 c7936: y_0 + y_27 + y_42 + y_55 + y_64 - z_7935 >= 0
 c7937: y_15 + y_20 + y_21 + y_33 + y_34 + y_36 + y_41 + y_47 + y_48 + y_61
        + y_79 + y_80 + y_93 + y_95 - z_7936 >= 0
 c7938: y_11 + y_24 + y_52 + y_59 + y_68 + y_70 + y_86 - z_7937 >= 0
 c7939: y_16 + y_39 + y_53 + y_54 + y_58 + y_63 + y_66 + y_91 - z_7938 >= 0
 c7940: y_65 - z_7939 >= 0
 c7941: y_83 + y_84 + y_85 - z_7940 >= 0
 c7942: y_37 + y_45 + y_73 + y_96 - z_7941 >= 0
 c7943: y_7 + y_23 + y_31 + y_51 + y_62 + y_98 - z_7942 >= 0
 c7944: y_24 + y_30 + y_43 + y_52 + y_59 + y_70 - z_7943 >= 0
 c7945: y_12 + y_22 + y_88 - z_7944 >= 0
 c7946: y_0 + y_42 + y_53 + y_55 + y_63 + y_64 - z_7945 >= 0
 c7947: y_5 + y_8 + y_15 + y_20 + y_34 + y_61 + y_75 + y_79 + y_80 + y_93
        - z_7946 >= 0
 c7948: y_0 + y_96 - z_7947 >= 0
 c7949: y_16 + y_17 + y_39 + y_53 + y_54 + y_58 + y_63 + y_64 + y_91 - z_7948
         >= 0
 c7950: y_9 + y_26 + y_67 + y_69 + y_71 - z_7949 >= 0
 c7951: y_24 + y_52 + y_70 + y_86 - z_7950 >= 0
 c7952: y_71 - z_7951 >= 0
 c7953: y_40 + y_85 + y_92 - z_7952 >= 0
 c7954: y_22 + y_56 - z_7953 >= 0
 c7955: y_3 + y_5 + y_15 + y_19 + y_20 + y_33 + y_34 + y_44 + y_48 + y_61 + y_79
        + y_93 - z_7954 >= 0
 c7956: y_56 + y_58 - z_7955 >= 0
 c7957: y_0 + y_27 + y_42 + y_55 + y_63 + y_64 - z_7956 >= 0
 c7958: y_37 + y_45 + y_89 - z_7957 >= 0
 c7959: y_65 - z_7958 >= 0
 c7960: y_17 + y_96 - z_7959 >= 0
 c7961: y_17 + y_53 + y_58 + y_91 - z_7960 >= 0
 c7962: y_13 + y_28 + y_60 + y_76 + y_81 - z_7961 >= 0
 c7963: y_3 + y_11 + y_19 + y_26 + y_38 + y_43 + y_52 + y_59 + y_67 + y_68
        + y_69 - z_7962 >= 0
 c7964: y_15 + y_20 + y_41 + y_46 + y_49 + y_61 + y_74 + y_75 + y_79 + y_80
        + y_93 + y_95 - z_7963 >= 0
 c7965: y_9 + y_11 + y_19 + y_26 + y_38 + y_67 + y_68 + y_69 - z_7964 >= 0
 c7966: y_25 + y_50 + y_56 + y_66 + y_77 + y_87 - z_7965 >= 0
 c7967: y_17 + y_53 + y_58 + y_63 + y_91 - z_7966 >= 0
 c7968: y_0 + y_16 + y_39 + y_42 + y_53 + y_54 + y_55 + y_63 + y_64 - z_7967
         >= 0
 c7969: y_25 + y_35 + y_40 + y_66 + y_77 + y_87 + y_92 - z_7968 >= 0
 c7970: y_40 + y_92 - z_7969 >= 0
 c7971: y_2 + y_83 + y_85 - z_7970 >= 0
 c7972: y_4 + y_5 + y_6 + y_33 + y_34 + y_44 + y_90 - z_7971 >= 0
 c7973: y_58 + y_91 - z_7972 >= 0
 c7974: y_3 + y_19 + y_33 + y_38 + y_44 + y_48 + y_79 - z_7973 >= 0
 c7975: y_25 + y_29 + y_35 + y_77 - z_7974 >= 0
 c7976: y_29 - z_7975 >= 0
 c7977: y_16 + y_50 + y_54 + y_56 + y_58 + y_66 - z_7976 >= 0
 c7978: y_9 + y_11 + y_26 + y_67 + y_68 + y_69 + y_97 - z_7977 >= 0
 c7979: y_9 + y_11 + y_26 + y_67 + y_68 + y_69 + y_97 - z_7978 >= 0
 c7980: y_16 + y_39 + y_50 + y_54 + y_56 + y_58 + y_66 + y_87 - z_7979 >= 0
 c7981: y_29 - z_7980 >= 0
 c7982: y_15 + y_18 + y_21 + y_36 + y_41 + y_47 + y_95 - z_7981 >= 0
 c7983: y_16 + y_25 + y_50 + y_54 + y_56 + y_66 + y_77 + y_87 - z_7982 >= 0
 c7984: y_56 + y_65 - z_7983 >= 0
 c7985: - z_7984 >= 0
 c7986: y_13 + y_57 + y_60 + y_65 + y_72 + y_76 + y_78 + y_81 - z_7985 >= 0
 c7987: y_4 + y_9 + y_26 + y_32 - z_7986 >= 0
 c7988: y_1 + y_73 + y_96 - z_7987 >= 0
 c7989: y_2 + y_14 + y_82 + y_83 + y_84 + y_85 - z_7988 >= 0
 c7990: y_6 + y_58 + y_90 + y_91 - z_7989 >= 0
 c7991: y_11 + y_19 + y_26 + y_38 + y_52 + y_67 + y_68 + y_69 + y_97 - z_7990
         >= 0
 c7992: y_5 + y_20 + y_34 + y_61 + y_80 + y_93 - z_7991 >= 0
 c7993: y_9 + y_26 + y_71 - z_7992 >= 0
 c7994: y_50 + y_56 + y_65 - z_7993 >= 0
 c7995: y_30 + y_43 + y_52 + y_59 + y_94 - z_7994 >= 0
 c7996: y_5 + y_6 + y_34 + y_90 - z_7995 >= 0
 c7997: y_7 + y_31 + y_51 + y_62 + y_98 - z_7996 >= 0
 c7998: y_17 + y_53 + y_58 + y_91 - z_7997 >= 0
 c7999: y_11 + y_24 + y_30 + y_43 + y_52 + y_59 + y_68 + y_70 - z_7998 >= 0
 c8000: y_17 + y_39 + y_53 + y_58 + y_63 + y_91 - z_7999 >= 0
 c8001: y_7 + y_31 + y_37 + y_51 + y_62 + y_89 + y_99 - z_8000 >= 0
 c8002: y_16 + y_40 + y_54 + y_66 + y_87 + y_92 - z_8001 >= 0
 c8003: y_6 + y_22 + y_90 - z_8002 >= 0
 c8004: y_0 + y_2 + y_27 + y_42 + y_55 + y_64 - z_8003 >= 0
 c8005: y_16 + y_39 + y_50 + y_54 + y_56 + y_58 + y_66 + y_87 - z_8004 >= 0
 c8006: y_1 + y_73 + y_96 + y_99 - z_8005 >= 0
 c8007: y_10 + y_57 + y_72 + y_78 + y_81 - z_8006 >= 0
 c8008: y_25 + y_29 + y_50 + y_56 + y_65 + y_77 - z_8007 >= 0
 c8009: y_1 + y_31 + y_37 + y_73 + y_89 + y_99 - z_8008 >= 0
 c8010: y_29 + y_65 - z_8009 >= 0
 c8011: y_1 + y_8 + y_46 + y_49 + y_73 + y_75 - z_8010 >= 0
 c8012: y_1 + y_8 + y_73 + y_75 + y_96 - z_8011 >= 0
 c8013: y_0 + y_27 + y_39 + y_42 + y_55 + y_63 + y_64 - z_8012 >= 0
 c8014: y_11 + y_24 + y_30 + y_43 + y_52 + y_59 + y_70 + y_94 - z_8013 >= 0
 c8015: y_3 + y_11 + y_19 + y_30 + y_38 + y_43 + y_52 + y_59 + y_67 + y_68
        + y_69 - z_8014 >= 0
 c8016: y_29 + y_50 + y_56 + y_65 - z_8015 >= 0
 c8017: y_25 + y_35 + y_40 + y_77 + y_92 - z_8016 >= 0
 c8018: y_29 - z_8017 >= 0
 c8019: y_50 + y_56 + y_66 + y_87 - z_8018 >= 0
 c8020: y_29 - z_8019 >= 0
 c8021: y_25 + y_29 + y_35 + y_50 + y_56 + y_66 + y_77 + y_87 - z_8020 >= 0
 c8022: y_73 + y_96 - z_8021 >= 0
 c8023: y_29 + y_50 + y_56 + y_65 - z_8022 >= 0
 c8024: y_16 + y_39 + y_40 + y_42 + y_54 + y_55 + y_63 + y_64 - z_8023 >= 0
 c8025: y_2 + y_82 + y_83 + y_84 + y_85 - z_8024 >= 0
 c8026: y_3 + y_5 + y_19 + y_33 + y_34 + y_38 + y_44 + y_61 + y_90 - z_8025 >= 
        0
 c8027: y_2 + y_83 + y_84 + y_85 - z_8026 >= 0
 c8028: y_3 + y_4 + y_5 + y_6 + y_19 + y_32 + y_33 + y_38 + y_44 + y_90 - z_8027
         >= 0
 c8029: y_4 + y_5 + y_6 + y_32 + y_90 - z_8028 >= 0
 c8030: y_5 + y_8 + y_17 + y_34 + y_80 + y_93 - z_8029 >= 0
 c8031: y_18 + y_21 + y_30 + y_36 + y_41 + y_47 + y_94 - z_8030 >= 0
 c8032: y_83 + y_85 + y_92 - z_8031 >= 0
 c8033: y_10 + y_13 + y_60 + y_76 + y_78 + y_81 - z_8032 >= 0
 c8034: y_9 + y_12 + y_71 - z_8033 >= 0
 c8035: y_6 + y_22 + y_90 - z_8034 >= 0
 c8036: y_15 + y_18 + y_21 + y_36 + y_41 + y_46 + y_47 + y_74 + y_79 + y_95
        - z_8035 >= 0
 c8037: y_16 + y_39 + y_50 + y_54 + y_56 + y_58 + y_66 + y_87 - z_8036 >= 0
 c8038: y_15 + y_18 + y_21 + y_36 + y_41 + y_47 + y_95 - z_8037 >= 0
 c8039: y_50 + y_56 + y_66 - z_8038 >= 0
 c8040: y_4 + y_12 + y_22 + y_32 + y_88 - z_8039 >= 0
 c8041: y_3 + y_4 + y_6 + y_26 + y_32 + y_33 + y_38 + y_44 + y_90 - z_8040 >= 0
 c8042: y_10 + y_13 + y_57 + y_60 + y_72 + y_76 + y_78 + y_81 - z_8041 >= 0
 c8043: y_0 + y_17 + y_39 + y_53 + y_63 + y_64 - z_8042 >= 0
 c8044: y_2 + y_83 + y_85 - z_8043 >= 0
 c8045: y_27 - z_8044 >= 0
 c8046: y_0 + y_27 + y_39 + y_42 + y_53 + y_55 + y_63 + y_64 - z_8045 >= 0
 c8047: y_4 + y_5 + y_6 + y_34 + y_44 + y_90 - z_8046 >= 0
 c8048: y_6 + y_90 - z_8047 >= 0
 c8049: y_0 + y_17 + y_53 + y_63 + y_64 - z_8048 >= 0
 c8050: y_2 + y_14 + y_82 + y_83 + y_84 + y_85 - z_8049 >= 0
 c8051: y_0 + y_27 + y_42 - z_8050 >= 0
 c8052: y_12 + y_71 - z_8051 >= 0
 c8053: y_17 + y_96 - z_8052 >= 0
 c8054: y_50 + y_56 + y_65 - z_8053 >= 0
 c8055: y_1 + y_73 + y_96 - z_8054 >= 0
 c8056: y_25 + y_35 + y_40 + y_66 + y_77 + y_87 + y_92 - z_8055 >= 0
 c8057: y_3 + y_19 + y_26 + y_33 + y_38 + y_44 + y_48 + y_67 + y_69 - z_8056
         >= 0
 c8058: y_29 - z_8057 >= 0
 c8059: y_13 + y_57 + y_60 + y_65 + y_72 + y_76 + y_78 - z_8058 >= 0
 c8060: y_13 + y_57 + y_60 + y_65 + y_72 + y_76 + y_78 + y_81 - z_8059 >= 0
 c8061: y_18 + y_46 + y_49 + y_74 + y_95 - z_8060 >= 0
 c8062: y_25 + y_29 + y_35 + y_77 + y_87 + y_92 - z_8061 >= 0
 c8063: y_15 + y_18 + y_21 + y_36 + y_41 + y_47 + y_95 - z_8062 >= 0
 c8064: y_50 + y_56 + y_66 + y_87 - z_8063 >= 0
 c8065: y_6 + y_58 - z_8064 >= 0
 c8066: y_22 + y_56 + y_65 - z_8065 >= 0
 c8067: y_0 + y_27 + y_42 + y_55 + y_64 - z_8066 >= 0
 c8068: y_73 + y_96 - z_8067 >= 0
 c8069: y_2 + y_14 + y_82 + y_83 + y_85 - z_8068 >= 0
 c8070: y_1 + y_37 + y_73 + y_96 + y_99 - z_8069 >= 0
 c8071: y_0 + y_27 + y_42 + y_64 - z_8070 >= 0
 c8072: y_2 + y_83 + y_85 - z_8071 >= 0
 c8073: y_13 + y_57 + y_60 + y_65 + y_72 + y_76 - z_8072 >= 0
 c8074: y_12 + y_88 - z_8073 >= 0
 c8075: y_22 + y_56 + y_65 - z_8074 >= 0
 c8076: y_18 + y_46 + y_49 + y_74 + y_95 - z_8075 >= 0
 c8077: y_57 + y_65 + y_72 - z_8076 >= 0
 c8078: y_11 + y_67 + y_68 + y_97 - z_8077 >= 0
 c8079: y_4 + y_9 + y_12 + y_32 + y_71 + y_88 - z_8078 >= 0
 c8080: y_9 + y_71 + y_97 - z_8079 >= 0
 c8081: y_0 + y_27 + y_42 + y_55 - z_8080 >= 0
 c8082: y_31 + y_37 + y_89 + y_99 - z_8081 >= 0
 c8083: y_1 + y_8 + y_73 + y_75 + y_96 - z_8082 >= 0
 c8084: y_3 + y_4 + y_5 + y_19 + y_33 + y_38 + y_44 + y_90 - z_8083 >= 0
 c8085: y_2 + y_14 + y_82 + y_83 + y_85 - z_8084 >= 0
 c8086: y_3 + y_5 + y_19 + y_33 + y_38 + y_44 + y_48 + y_61 + y_79 - z_8085 >= 
        0
 c8087: y_16 + y_40 + y_54 + y_66 + y_87 + y_92 - z_8086 >= 0
 c8088: y_1 + y_7 + y_23 + y_31 + y_51 + y_73 + y_89 + y_98 + y_99 - z_8087 >= 
        0
 c8089: y_18 + y_21 + y_30 + y_36 + y_47 + y_94 - z_8088 >= 0
 c8090: y_3 + y_19 + y_26 + y_33 + y_38 + y_44 + y_67 + y_69 - z_8089 >= 0
 c8091: y_3 + y_19 + y_21 + y_30 + y_33 + y_36 + y_41 + y_43 + y_47 + y_48
        + y_94 - z_8090 >= 0
 c8092: y_17 + y_96 - z_8091 >= 0
 c8093: y_9 + y_11 + y_26 + y_67 + y_68 + y_69 + y_97 - z_8092 >= 0
 c8094: y_22 + y_50 + y_56 + y_65 - z_8093 >= 0
 c8095: y_12 + y_22 + y_57 + y_72 + y_88 - z_8094 >= 0
 c8096: y_2 + y_83 + y_84 + y_85 - z_8095 >= 0
 c8097: y_1 + y_23 + y_46 + y_49 + y_73 + y_75 - z_8096 >= 0
 c8098: y_0 + y_27 + y_42 - z_8097 >= 0
 c8099: y_16 + y_25 + y_50 + y_54 + y_56 + y_66 + y_77 + y_87 - z_8098 >= 0
 c8100: y_12 + y_71 + y_88 - z_8099 >= 0
 c8101: y_4 + y_6 + y_32 + y_90 - z_8100 >= 0
 c8102: y_24 + y_30 + y_43 + y_52 + y_59 + y_70 - z_8101 >= 0
 c8103: y_23 + y_46 + y_49 + y_74 - z_8102 >= 0
 c8104: y_83 + y_85 - z_8103 >= 0
 c8105: y_2 + y_14 + y_82 + y_83 + y_84 + y_85 - z_8104 >= 0
 c8106: y_0 + y_27 + y_39 + y_42 + y_55 + y_63 + y_64 - z_8105 >= 0
 c8107: y_45 - z_8106 >= 0
 c8108: y_2 + y_83 + y_84 + y_85 - z_8107 >= 0
 c8109: y_22 + y_57 + y_65 + y_72 + y_78 + y_88 - z_8108 >= 0
 c8110: y_6 + y_22 - z_8109 >= 0
 c8111: y_16 + y_39 + y_40 + y_50 + y_54 + y_66 + y_87 - z_8110 >= 0
 c8112: y_16 + y_39 + y_50 + y_54 + y_56 + y_58 + y_66 + y_91 - z_8111 >= 0
 c8113: y_10 + y_12 + y_88 - z_8112 >= 0
 c8114: y_73 + y_96 - z_8113 >= 0
 c8115: y_15 + y_18 + y_36 + y_41 + y_46 + y_47 + y_49 + y_74 + y_95 - z_8114
         >= 0
 c8116: y_24 + y_52 + y_59 + y_70 + y_86 - z_8115 >= 0
 c8117: y_29 + y_50 + y_56 + y_65 - z_8116 >= 0
 c8118: y_2 + y_14 + y_82 + y_83 + y_84 + y_85 - z_8117 >= 0
 c8119: y_11 + y_19 + y_26 + y_38 + y_52 + y_67 + y_68 + y_69 + y_97 - z_8118
         >= 0
 c8120: y_13 + y_57 + y_60 + y_72 + y_76 + y_78 + y_81 - z_8119 >= 0
 c8121: y_7 + y_23 + y_31 + y_51 + y_62 + y_89 + y_98 + y_99 - z_8120 >= 0
 c8122: y_15 + y_18 + y_20 + y_21 + y_33 + y_36 + y_41 + y_47 + y_48 + y_61
        + y_79 + y_80 + y_93 + y_95 - z_8121 >= 0
 c8123: y_22 - z_8122 >= 0
 c8124: y_37 + y_45 - z_8123 >= 0
 c8125: y_16 + y_39 + y_40 + y_54 + y_63 + y_66 + y_87 - z_8124 >= 0
 c8126: y_2 + y_14 + y_82 - z_8125 >= 0
 c8127: y_5 + y_6 + y_58 + y_91 - z_8126 >= 0
 c8128: y_5 + y_17 + y_34 + y_91 - z_8127 >= 0
 c8129: y_0 + y_27 + y_42 + y_55 + y_64 - z_8128 >= 0
 c8130: y_12 + y_22 + y_32 + y_88 - z_8129 >= 0
 c8131: y_22 + y_56 + y_57 + y_65 + y_72 - z_8130 >= 0
 c8132: y_3 + y_19 + y_33 + y_38 + y_44 + y_48 + y_61 + y_79 - z_8131 >= 0
 c8133: y_22 + y_50 + y_56 + y_65 - z_8132 >= 0
 c8134: y_45 + y_96 - z_8133 >= 0
 c8135: y_13 + y_28 + y_60 + y_76 + y_81 - z_8134 >= 0
 c8136: y_1 + y_23 + y_46 + y_49 + y_74 + y_98 - z_8135 >= 0
 c8137: y_2 + y_14 + y_82 + y_83 - z_8136 >= 0
 c8138: y_0 + y_16 + y_39 + y_42 + y_53 + y_54 + y_55 + y_63 + y_64 - z_8137
         >= 0
 c8139: y_5 + y_8 + y_17 + y_20 + y_34 + y_75 + y_80 + y_93 - z_8138 >= 0
 c8140: y_2 + y_14 + y_82 + y_83 - z_8139 >= 0
 c8141: y_7 + y_23 + y_31 + y_51 + y_62 + y_89 + y_98 + y_99 - z_8140 >= 0
 c8142: y_6 + y_58 + y_91 - z_8141 >= 0
 c8143: y_25 + y_29 + y_35 + y_77 - z_8142 >= 0
 c8144: y_2 + y_14 + y_27 + y_82 - z_8143 >= 0
 c8145: y_25 + y_29 + y_50 + y_56 + y_77 - z_8144 >= 0
 c8146: y_1 + y_8 + y_73 + y_75 + y_96 - z_8145 >= 0
 c8147: y_29 - z_8146 >= 0
 c8148: y_3 + y_15 + y_20 + y_21 + y_33 + y_34 + y_41 + y_48 + y_61 + y_79
        + y_80 + y_93 - z_8147 >= 0
 c8149: y_22 + y_56 + y_65 - z_8148 >= 0
 c8150: y_6 + y_22 + y_90 - z_8149 >= 0
 c8151: y_29 + y_65 - z_8150 >= 0
 c8152: y_22 + y_57 + y_65 - z_8151 >= 0
 c8153: y_29 - z_8152 >= 0
 c8154: y_46 + y_49 + y_74 + y_95 - z_8153 >= 0
 c8155: y_8 + y_17 + y_96 - z_8154 >= 0
 c8156: y_9 + y_26 + y_67 + y_71 - z_8155 >= 0
 c8157: y_5 + y_17 + y_34 + y_91 - z_8156 >= 0
 c8158: y_24 + y_70 + y_86 - z_8157 >= 0
 c8159: y_18 + y_49 + y_74 + y_95 - z_8158 >= 0
 c8160: - z_8159 >= 0
 c8161: y_13 + y_28 + y_60 + y_76 - z_8160 >= 0
 c8162: y_17 + y_96 - z_8161 >= 0
 c8163: y_10 + y_13 + y_57 + y_60 + y_72 + y_76 + y_78 + y_81 - z_8162 >= 0
 c8164: y_4 + y_6 + y_32 + y_90 - z_8163 >= 0
 c8165: y_5 + y_8 + y_20 + y_34 + y_61 + y_75 + y_80 + y_93 - z_8164 >= 0
 c8166: y_7 + y_23 + y_31 + y_51 + y_62 + y_89 + y_98 + y_99 - z_8165 >= 0
 c8167: y_2 + y_40 + y_42 + y_55 - z_8166 >= 0
 c8168: y_13 + y_28 + y_60 + y_76 + y_81 - z_8167 >= 0
 c8169: y_3 + y_11 + y_19 + y_30 + y_38 + y_43 + y_52 + y_59 + y_68 + y_69
        - z_8168 >= 0
 c8170: y_24 + y_70 + y_86 - z_8169 >= 0
 c8171: y_25 + y_29 + y_35 + y_50 + y_56 + y_77 - z_8170 >= 0
 c8172: y_18 + y_36 + y_47 + y_74 + y_95 - z_8171 >= 0
 c8173: y_17 + y_53 + y_96 - z_8172 >= 0
 c8174: y_2 + y_14 + y_27 + y_82 - z_8173 >= 0
 c8175: y_16 + y_39 + y_50 + y_54 + y_56 + y_66 + y_87 - z_8174 >= 0
 c8176: y_3 + y_19 + y_26 + y_33 + y_38 + y_44 - z_8175 >= 0
 c8177: - z_8176 >= 0
 c8178: y_12 + y_22 + y_57 + y_88 - z_8177 >= 0
 c8179: y_4 + y_6 + y_32 + y_90 - z_8178 >= 0
 c8180: y_1 + y_7 + y_23 + y_31 + y_37 + y_51 + y_73 + y_89 + y_98 + y_99
        - z_8179 >= 0
 c8181: y_3 + y_11 + y_19 + y_38 + y_43 + y_52 + y_59 + y_67 + y_68 + y_69
        - z_8180 >= 0
 c8182: y_23 + y_46 + y_49 + y_74 - z_8181 >= 0
 c8183: y_11 + y_24 + y_52 + y_68 + y_70 + y_86 + y_97 - z_8182 >= 0
 c8184: y_10 + y_57 + y_72 + y_78 + y_81 + y_88 - z_8183 >= 0
 c8185: y_40 + y_87 + y_92 - z_8184 >= 0
 c8186: y_13 + y_57 + y_60 + y_65 + y_72 + y_76 - z_8185 >= 0
 c8187: y_3 + y_11 + y_19 + y_26 + y_38 + y_43 + y_52 + y_67 + y_68 + y_69
        - z_8186 >= 0
 c8188: y_11 + y_24 + y_30 + y_43 + y_52 + y_59 + y_68 + y_70 + y_86 - z_8187
         >= 0
 c8189: y_65 - z_8188 >= 0
 c8190: y_11 + y_30 + y_43 + y_52 + y_59 + y_68 + y_69 + y_70 - z_8189 >= 0
 c8191: y_4 + y_6 + y_32 + y_90 - z_8190 >= 0
 c8192: y_5 + y_8 + y_17 + y_20 + y_34 + y_61 + y_75 + y_80 + y_93 - z_8191 >= 
        0
 c8193: y_8 + y_15 + y_20 + y_34 + y_46 + y_61 + y_75 + y_79 + y_80 + y_93
        + y_95 - z_8192 >= 0
 c8194: y_11 + y_24 + y_52 + y_59 + y_68 + y_70 + y_86 + y_97 - z_8193 >= 0
 c8195: y_21 + y_30 + y_36 + y_41 + y_43 + y_47 + y_48 + y_94 - z_8194 >= 0
 c8196: y_17 + y_53 + y_91 + y_96 - z_8195 >= 0
 c8197: y_0 + y_16 + y_39 + y_42 + y_53 + y_54 + y_55 + y_63 + y_64 - z_8196
         >= 0
 c8198: y_8 + y_15 + y_20 + y_34 + y_61 + y_75 + y_79 + y_80 + y_93 + y_95
        - z_8197 >= 0
 c8199: y_4 + y_9 + y_26 + y_32 + y_38 + y_67 + y_69 - z_8198 >= 0
 c8200: y_11 + y_24 + y_52 + y_59 + y_68 + y_70 + y_86 - z_8199 >= 0
 c8201: y_16 + y_39 + y_40 + y_42 + y_54 + y_55 + y_63 + y_64 + y_66 + y_87
        - z_8200 >= 0
 c8202: y_24 + y_52 + y_59 + y_70 + y_86 - z_8201 >= 0
 c8203: y_10 + y_13 + y_60 + y_76 + y_78 + y_81 - z_8202 >= 0
 c8204: y_0 + y_27 + y_42 + y_55 + y_63 + y_64 - z_8203 >= 0
 c8205: - z_8204 >= 0
 c8206: y_4 + y_9 + y_19 + y_26 + y_32 + y_38 + y_44 + y_67 + y_69 - z_8205 >= 
        0
 c8207: y_15 + y_20 + y_33 + y_34 + y_41 + y_48 + y_61 + y_75 + y_79 + y_80
        + y_93 + y_95 - z_8206 >= 0
 c8208: - z_8207 >= 0
 c8209: y_16 + y_39 + y_53 + y_54 + y_58 + y_63 + y_66 + y_91 - z_8208 >= 0
 c8210: y_7 + y_23 + y_31 + y_51 + y_62 + y_89 + y_98 + y_99 - z_8209 >= 0
 c8211: y_4 + y_6 + y_26 + y_32 + y_44 + y_90 - z_8210 >= 0
 c8212: y_25 + y_29 + y_35 + y_77 - z_8211 >= 0
 c8213: y_83 + y_84 + y_85 - z_8212 >= 0
 c8214: y_2 + y_40 + y_83 + y_85 + y_92 - z_8213 >= 0
 c8215: y_8 + y_15 + y_20 + y_46 + y_49 + y_75 + y_80 + y_93 + y_95 - z_8214
         >= 0
 c8216: y_10 + y_12 + y_78 + y_88 - z_8215 >= 0
 c8217: y_13 + y_28 + y_60 + y_76 + y_78 + y_81 - z_8216 >= 0
 c8218: y_13 + y_65 - z_8217 >= 0
 c8219: - z_8218 >= 0
 c8220: y_5 + y_6 + y_34 + y_90 - z_8219 >= 0
 c8221: y_9 + y_11 + y_26 + y_67 + y_68 + y_69 + y_97 - z_8220 >= 0
 c8222: y_4 + y_9 + y_26 + y_32 + y_90 - z_8221 >= 0
 c8223: y_5 + y_6 + y_34 + y_58 + y_90 + y_91 - z_8222 >= 0
 c8224: y_25 + y_35 + y_40 + y_77 + y_87 + y_92 - z_8223 >= 0
 c8225: y_45 - z_8224 >= 0
 c8226: y_10 + y_13 + y_60 + y_76 + y_78 + y_81 - z_8225 >= 0
 c8227: y_9 + y_12 + y_32 + y_71 + y_88 - z_8226 >= 0
 c8228: y_13 + y_60 + y_76 - z_8227 >= 0
 c8229: y_18 + y_21 + y_36 + y_41 + y_47 - z_8228 >= 0
 c8230: y_13 + y_60 - z_8229 >= 0
 c8231: y_0 + y_2 + y_27 + y_42 + y_55 + y_64 - z_8230 >= 0
 c8232: y_15 + y_18 + y_21 + y_36 + y_41 + y_47 + y_48 + y_79 - z_8231 >= 0
 c8233: y_3 + y_5 + y_19 + y_33 + y_38 + y_44 + y_48 + y_90 - z_8232 >= 0
 c8234: y_9 + y_71 + y_97 - z_8233 >= 0
 c8235: y_0 + y_17 + y_53 + y_63 + y_64 - z_8234 >= 0
 c8236: y_11 + y_19 + y_38 + y_43 + y_52 + y_59 + y_67 + y_68 + y_69 - z_8235
         >= 0
 c8237: y_12 + y_22 + y_88 - z_8236 >= 0
 c8238: y_3 + y_5 + y_6 + y_33 + y_34 + y_44 + y_90 - z_8237 >= 0
 c8239: y_83 + y_84 + y_85 - z_8238 >= 0
 c8240: y_1 + y_23 + y_46 + y_49 + y_73 + y_75 - z_8239 >= 0
 c8241: y_8 + y_20 + y_34 + y_61 + y_75 + y_80 + y_93 - z_8240 >= 0
 c8242: y_11 + y_68 + y_86 + y_97 - z_8241 >= 0
 c8243: y_13 + y_57 + y_60 + y_65 + y_72 + y_76 + y_78 - z_8242 >= 0
 c8244: y_37 + y_45 + y_73 + y_96 - z_8243 >= 0
 c8245: y_13 + y_28 + y_60 + y_72 + y_76 + y_78 + y_81 - z_8244 >= 0
 c8246: y_23 + y_49 + y_74 + y_98 - z_8245 >= 0
 c8247: y_50 + y_56 + y_65 - z_8246 >= 0
 c8248: y_1 + y_31 + y_37 + y_73 + y_89 + y_99 - z_8247 >= 0
 c8249: y_1 + y_7 + y_23 + y_31 + y_51 + y_62 + y_89 + y_98 + y_99 - z_8248 >= 
        0
 c8250: y_4 + y_5 + y_6 + y_33 + y_34 + y_44 + y_90 - z_8249 >= 0
 c8251: y_4 + y_5 + y_6 + y_32 + y_44 + y_90 - z_8250 >= 0
 c8252: y_5 + y_6 + y_90 - z_8251 >= 0
 c8253: y_11 + y_24 + y_68 + y_70 + y_86 + y_97 - z_8252 >= 0
 c8254: y_24 + y_30 + y_43 + y_52 + y_59 + y_70 + y_94 - z_8253 >= 0
 c8255: y_7 + y_23 + y_31 + y_51 + y_62 + y_89 + y_98 + y_99 - z_8254 >= 0
 c8256: y_0 + y_96 - z_8255 >= 0
 c8257: y_8 + y_15 + y_20 + y_46 + y_49 + y_61 + y_75 + y_80 + y_93 + y_95
        - z_8256 >= 0
 c8258: y_3 + y_19 + y_21 + y_33 + y_38 + y_43 + y_44 + y_48 - z_8257 >= 0
 c8259: y_2 + y_14 + y_82 + y_83 + y_84 - z_8258 >= 0
 c8260: y_25 + y_29 + y_35 + y_50 + y_56 + y_66 + y_77 + y_87 - z_8259 >= 0
 c8261: y_22 + y_57 + y_65 + y_72 - z_8260 >= 0
 c8262: y_9 + y_11 + y_26 + y_67 + y_68 + y_69 + y_97 - z_8261 >= 0
 c8263: y_25 + y_29 + y_35 + y_77 - z_8262 >= 0
 c8264: y_22 + y_50 + y_56 - z_8263 >= 0
 c8265: y_1 + y_7 + y_31 + y_37 + y_51 + y_73 + y_89 + y_98 + y_99 - z_8264 >= 
        0
 c8266: y_2 + y_14 + y_27 + y_82 - z_8265 >= 0
 c8267: y_6 + y_22 - z_8266 >= 0
 c8268: y_0 + y_27 + y_42 + y_55 + y_63 + y_64 - z_8267 >= 0
 c8269: y_30 + y_43 + y_52 + y_59 + y_94 - z_8268 >= 0
 c8270: y_29 + y_50 + y_56 + y_65 - z_8269 >= 0
 c8271: y_2 + y_83 + y_85 - z_8270 >= 0
 c8272: y_17 + y_39 + y_53 + y_58 + y_63 + y_64 + y_91 - z_8271 >= 0
 c8273: y_7 + y_31 + y_51 + y_62 + y_98 - z_8272 >= 0
 c8274: y_30 + y_43 + y_59 + y_94 - z_8273 >= 0
 c8275: y_9 + y_11 + y_26 + y_67 + y_68 + y_69 + y_97 - z_8274 >= 0
 c8276: y_12 + y_71 + y_88 - z_8275 >= 0
 c8277: y_2 + y_14 + y_27 + y_82 - z_8276 >= 0
 c8278: y_12 + y_71 + y_88 - z_8277 >= 0
 c8279: y_4 + y_6 + y_32 + y_90 - z_8278 >= 0
 c8280: y_40 + y_55 + y_92 - z_8279 >= 0
 c8281: y_3 + y_4 + y_19 + y_26 + y_33 + y_38 + y_44 - z_8280 >= 0
 c8282: y_3 + y_5 + y_20 + y_33 + y_34 + y_44 + y_48 + y_61 + y_79 + y_93
        - z_8281 >= 0
 c8283: y_10 + y_13 + y_57 + y_60 + y_72 + y_76 + y_78 + y_81 - z_8282 >= 0
 c8284: y_10 + y_12 + y_57 + y_72 + y_78 + y_88 - z_8283 >= 0
 c8285: y_12 + y_32 + y_71 + y_88 - z_8284 >= 0
 c8286: y_25 + y_29 + y_35 + y_77 - z_8285 >= 0
 c8287: y_25 + y_35 + y_40 + y_66 + y_77 + y_87 + y_92 - z_8286 >= 0
 c8288: y_5 + y_6 + y_34 + y_90 - z_8287 >= 0
 c8289: y_11 + y_26 + y_67 + y_68 + y_69 + y_97 - z_8288 >= 0
 c8290: y_16 + y_25 + y_40 + y_50 + y_54 + y_56 + y_66 + y_77 + y_87 - z_8289
         >= 0
 c8291: y_5 + y_20 + y_33 + y_34 + y_44 + y_48 + y_61 + y_79 + y_80 + y_93
        - z_8290 >= 0
 c8292: y_17 + y_39 + y_53 + y_58 + y_63 + y_91 - z_8291 >= 0
 c8293: y_37 + y_45 - z_8292 >= 0
 c8294: y_2 + y_14 + y_27 + y_42 + y_55 + y_83 - z_8293 >= 0
 c8295: y_4 + y_9 + y_26 + y_32 + y_67 - z_8294 >= 0
 c8296: y_6 + y_90 - z_8295 >= 0
 c8297: y_3 + y_19 + y_21 + y_30 + y_33 + y_38 + y_43 + y_48 + y_59 + y_94
        - z_8296 >= 0
 c8298: y_12 + y_22 + y_57 + y_88 - z_8297 >= 0
 c8299: y_10 + y_57 + y_72 + y_76 + y_78 + y_81 - z_8298 >= 0
 c8300: y_16 + y_40 + y_54 + y_55 + y_66 + y_87 + y_92 - z_8299 >= 0
 c8301: y_40 + y_54 + y_55 + y_87 + y_92 - z_8300 >= 0
 c8302: y_12 + y_22 + y_57 + y_65 + y_72 + y_88 - z_8301 >= 0
 c8303: y_3 + y_19 + y_26 + y_33 + y_38 + y_44 + y_48 - z_8302 >= 0
 c8304: y_0 + y_27 + y_42 - z_8303 >= 0
 c8305: y_5 + y_6 + y_90 - z_8304 >= 0
 c8306: y_15 + y_18 + y_36 + y_41 + y_46 + y_47 + y_49 + y_74 + y_95 - z_8305
         >= 0
 c8307: y_13 + y_57 + y_60 + y_65 + y_72 + y_76 - z_8306 >= 0
 c8308: y_50 + y_56 + y_65 - z_8307 >= 0
 c8309: y_2 + y_14 + y_27 + y_42 + y_55 + y_82 + y_83 + y_85 - z_8308 >= 0
 c8310: y_25 + y_29 + y_35 + y_77 - z_8309 >= 0
 c8311: y_1 + y_23 + y_31 + y_49 + y_73 + y_89 + y_98 + y_99 - z_8310 >= 0
 c8312: y_25 + y_29 + y_35 + y_50 + y_66 + y_77 + y_87 - z_8311 >= 0
 c8313: y_1 + y_8 + y_73 + y_75 + y_96 - z_8312 >= 0
 c8314: y_15 + y_20 + y_33 + y_34 + y_41 + y_48 + y_61 + y_75 + y_79 + y_80
        + y_93 + y_95 - z_8313 >= 0
 c8315: y_2 + y_14 + y_82 + y_83 - z_8314 >= 0
 c8316: y_97 - z_8315 >= 0
 c8317: y_50 + y_56 + y_65 - z_8316 >= 0
 c8318: y_11 + y_67 + y_68 + y_69 + y_97 - z_8317 >= 0
 c8319: y_7 + y_51 + y_62 + y_98 - z_8318 >= 0
 c8320: y_12 + y_57 + y_88 - z_8319 >= 0
 c8321: y_5 + y_8 + y_20 + y_34 + y_61 + y_79 + y_80 + y_93 - z_8320 >= 0
 c8322: y_3 + y_19 + y_26 + y_33 + y_38 + y_44 + y_67 + y_69 - z_8321 >= 0
 c8323: y_37 + y_45 + y_73 + y_96 - z_8322 >= 0
 c8324: y_31 + y_37 + y_73 + y_89 + y_99 - z_8323 >= 0
 c8325: y_0 + y_27 + y_42 + y_55 + y_64 - z_8324 >= 0
 c8326: y_1 + y_73 + y_96 - z_8325 >= 0
 c8327: y_12 + y_22 + y_57 + y_65 + y_72 + y_88 - z_8326 >= 0
 c8328: y_1 + y_23 + y_46 + y_49 + y_74 + y_98 + y_99 - z_8327 >= 0
 c8329: y_10 + y_78 + y_81 - z_8328 >= 0
 c8330: y_92 - z_8329 >= 0
 c8331: y_5 + y_8 + y_15 + y_20 + y_33 + y_34 + y_61 + y_75 + y_79 + y_80 + y_93
        - z_8330 >= 0
 c8332: y_23 + y_46 + y_49 + y_74 + y_95 + y_98 - z_8331 >= 0
 c8333: y_31 + y_37 + y_89 + y_99 - z_8332 >= 0
 c8334: y_46 + y_49 + y_74 + y_95 - z_8333 >= 0
 c8335: y_1 + y_8 + y_46 + y_73 + y_75 - z_8334 >= 0
 c8336: y_22 + y_57 + y_65 + y_72 - z_8335 >= 0
 c8337: y_5 + y_6 + y_34 + y_90 - z_8336 >= 0
 c8338: y_14 + y_27 + y_42 + y_82 - z_8337 >= 0
 c8339: y_11 + y_19 + y_30 + y_43 + y_52 + y_59 + y_68 - z_8338 >= 0
 c8340: y_13 + y_28 + y_60 + y_76 + y_81 - z_8339 >= 0
 c8341: y_3 + y_11 + y_19 + y_30 + y_38 + y_43 + y_52 + y_59 + y_68 + y_69
        - z_8340 >= 0
 c8342: y_0 + y_17 + y_39 + y_53 + y_63 + y_64 + y_91 - z_8341 >= 0
 c8343: y_4 + y_9 + y_12 + y_32 + y_88 - z_8342 >= 0
 c8344: y_50 + y_56 + y_65 - z_8343 >= 0
 c8345: y_40 + y_83 + y_85 + y_92 - z_8344 >= 0
 c8346: y_22 + y_57 + y_65 + y_72 + y_88 - z_8345 >= 0
 c8347: y_1 + y_23 + y_31 + y_49 + y_98 + y_99 - z_8346 >= 0
 c8348: y_3 + y_11 + y_19 + y_26 + y_38 + y_43 + y_52 + y_67 + y_68 + y_69
        - z_8347 >= 0
 c8349: y_1 + y_46 + y_49 + y_74 + y_75 + y_95 - z_8348 >= 0
 c8350: y_16 + y_17 + y_39 + y_53 + y_54 + y_58 + y_63 + y_64 + y_91 - z_8349
         >= 0
 c8351: y_46 + y_49 + y_74 + y_95 - z_8350 >= 0
 c8352: y_25 + y_35 + y_40 + y_77 + y_87 + y_92 - z_8351 >= 0
 c8353: y_5 + y_17 + y_34 - z_8352 >= 0
 c8354: y_3 + y_5 + y_15 + y_19 + y_20 + y_33 + y_34 + y_38 + y_44 + y_48 + y_61
        + y_79 + y_93 - z_8353 >= 0
 c8355: y_5 + y_6 + y_58 + y_90 + y_91 - z_8354 >= 0
 c8356: y_1 + y_37 + y_73 + y_96 + y_99 - z_8355 >= 0
 c8357: y_4 + y_6 + y_32 + y_90 - z_8356 >= 0
 c8358: y_4 + y_9 + y_26 + y_32 + y_71 - z_8357 >= 0
 c8359: y_71 - z_8358 >= 0
 c8360: y_1 + y_23 + y_31 + y_73 + y_89 + y_99 - z_8359 >= 0
 c8361: y_25 + y_35 + y_77 + y_92 - z_8360 >= 0
 c8362: y_12 + y_71 + y_88 - z_8361 >= 0
 c8363: y_2 + y_14 + y_27 + y_42 + y_82 - z_8362 >= 0
 c8364: y_4 + y_9 + y_26 + y_32 + y_67 + y_69 - z_8363 >= 0
 c8365: y_11 + y_24 + y_43 + y_52 + y_59 + y_67 + y_68 + y_69 + y_70 - z_8364
         >= 0
 c8366: y_11 + y_68 + y_97 - z_8365 >= 0
 c8367: y_37 + y_73 + y_96 - z_8366 >= 0
 c8368: y_0 + y_27 + y_42 + y_55 + y_64 - z_8367 >= 0
 c8369: y_12 + y_22 + y_57 + y_65 + y_72 + y_88 - z_8368 >= 0
 c8370: y_9 + y_11 + y_26 + y_67 + y_68 + y_69 + y_97 - z_8369 >= 0
 c8371: y_1 + y_23 + y_31 + y_46 + y_49 + y_89 + y_98 + y_99 - z_8370 >= 0
 c8372: y_25 + y_29 + y_50 + y_56 + y_77 - z_8371 >= 0
 c8373: y_4 + y_5 + y_6 + y_34 + y_44 + y_90 - z_8372 >= 0
 c8374: y_0 + y_16 + y_39 + y_42 + y_53 + y_55 + y_63 + y_64 - z_8373 >= 0
 c8375: y_4 + y_9 + y_12 + y_32 + y_71 + y_88 - z_8374 >= 0
 c8376: y_11 + y_19 + y_26 + y_38 + y_43 + y_52 + y_59 + y_67 + y_68 + y_69
        - z_8375 >= 0
 c8377: y_16 + y_50 + y_54 + y_56 + y_66 + y_87 - z_8376 >= 0
 c8378: y_4 + y_12 + y_22 + y_32 + y_88 - z_8377 >= 0
 c8379: y_58 + y_91 - z_8378 >= 0
 c8380: y_9 + y_26 + y_67 + y_69 + y_71 + y_97 - z_8379 >= 0
 c8381: - z_8380 >= 0
 c8382: y_25 + y_29 + y_35 + y_50 + y_56 + y_77 - z_8381 >= 0
 c8383: y_16 + y_39 + y_40 + y_42 + y_54 + y_55 + y_63 + y_64 - z_8382 >= 0
 c8384: y_18 + y_21 + y_36 + y_41 + y_47 - z_8383 >= 0
 c8385: y_5 + y_17 + y_53 + y_58 + y_91 - z_8384 >= 0
 c8386: y_0 + y_16 + y_39 + y_42 + y_53 + y_54 + y_55 + y_63 + y_64 - z_8385
         >= 0
 c8387: y_25 + y_29 + y_50 + y_56 + y_65 + y_77 - z_8386 >= 0
 c8388: y_15 + y_20 + y_34 + y_41 + y_48 + y_61 + y_75 + y_79 + y_80 + y_93
        + y_95 - z_8387 >= 0
 c8389: y_40 + y_42 + y_55 - z_8388 >= 0
 c8390: y_11 + y_24 + y_30 + y_43 + y_52 + y_59 + y_70 + y_94 - z_8389 >= 0
 c8391: y_0 + y_16 + y_39 + y_42 + y_53 + y_54 + y_55 + y_63 + y_64 - z_8390
         >= 0
 c8392: y_16 + y_39 + y_40 + y_42 + y_54 + y_55 + y_63 + y_64 + y_66 - z_8391
         >= 0
 c8393: y_15 + y_18 + y_46 + y_49 + y_74 + y_95 - z_8392 >= 0
 c8394: y_40 + y_92 - z_8393 >= 0
 c8395: y_3 + y_19 + y_21 + y_33 + y_38 + y_41 + y_44 + y_47 + y_48 + y_61
        + y_79 - z_8394 >= 0
 c8396: y_8 + y_73 + y_75 + y_96 - z_8395 >= 0
 c8397: y_2 + y_14 + y_82 + y_83 + y_84 + y_85 - z_8396 >= 0
 c8398: y_73 + y_96 - z_8397 >= 0
 c8399: y_50 + y_56 + y_65 - z_8398 >= 0
 c8400: y_18 + y_46 + y_49 + y_74 + y_95 - z_8399 >= 0
 c8401: y_0 + y_16 + y_39 + y_42 + y_54 + y_55 + y_63 + y_64 - z_8400 >= 0
 c8402: y_65 - z_8401 >= 0
 c8403: y_15 + y_18 + y_20 + y_21 + y_33 + y_36 + y_41 + y_47 + y_48 + y_61
        + y_79 + y_80 + y_93 + y_95 - z_8402 >= 0
 c8404: y_2 + y_14 + y_27 + y_82 + y_83 - z_8403 >= 0
 c8405: y_10 + y_13 + y_28 + y_60 + y_76 + y_78 + y_81 - z_8404 >= 0
 c8406: y_11 + y_19 + y_26 + y_38 + y_43 + y_52 + y_59 + y_67 + y_68 + y_69
        - z_8405 >= 0
 c8407: y_15 + y_18 + y_20 + y_21 + y_36 + y_41 + y_47 + y_48 + y_61 + y_79
        + y_95 - z_8406 >= 0
 c8408: y_13 + y_28 + y_60 + y_76 + y_78 + y_81 - z_8407 >= 0
 c8409: y_1 + y_31 + y_37 + y_73 + y_89 + y_99 - z_8408 >= 0
 c8410: y_13 + y_57 + y_60 + y_65 + y_72 + y_76 + y_78 - z_8409 >= 0
 c8411: y_15 + y_18 + y_36 + y_41 + y_46 + y_47 + y_49 + y_74 + y_95 - z_8410
         >= 0
 c8412: y_0 + y_27 - z_8411 >= 0
 c8413: y_9 + y_71 + y_97 - z_8412 >= 0
 c8414: y_12 + y_71 + y_88 - z_8413 >= 0
 c8415: y_1 + y_37 + y_73 + y_96 + y_99 - z_8414 >= 0
 c8416: y_5 + y_6 + y_34 + y_44 + y_90 - z_8415 >= 0
 c8417: y_11 + y_67 + y_68 + y_97 - z_8416 >= 0
 c8418: y_17 + y_53 + y_63 + y_64 + y_91 - z_8417 >= 0
 c8419: y_5 + y_8 + y_17 + y_20 + y_34 + y_75 + y_80 + y_93 - z_8418 >= 0
 c8420: y_8 + y_73 + y_75 + y_96 - z_8419 >= 0
 c8421: y_1 + y_23 + y_31 + y_46 + y_49 + y_98 + y_99 - z_8420 >= 0
 c8422: y_50 + y_56 + y_66 - z_8421 >= 0
 c8423: y_0 + y_96 - z_8422 >= 0
 c8424: y_3 + y_4 + y_5 + y_19 + y_33 + y_38 + y_44 + y_90 - z_8423 >= 0
 c8425: y_4 + y_6 + y_32 + y_90 - z_8424 >= 0
 c8426: y_1 + y_7 + y_23 + y_31 + y_51 + y_62 + y_89 + y_98 + y_99 - z_8425 >= 
        0
 c8427: y_3 + y_5 + y_15 + y_20 + y_33 + y_34 + y_41 + y_44 + y_48 + y_61 + y_79
        + y_80 + y_93 - z_8426 >= 0
 c8428: y_4 + y_6 + y_32 + y_90 - z_8427 >= 0
 c8429: y_6 + y_22 + y_90 - z_8428 >= 0
 c8430: y_2 + y_14 + y_27 + y_82 + y_83 - z_8429 >= 0
 c8431: y_12 + y_57 + y_88 - z_8430 >= 0
 c8432: y_2 + y_40 + y_83 + y_85 + y_92 - z_8431 >= 0
 c8433: y_9 + y_12 + y_71 + y_88 - z_8432 >= 0
 c8434: y_8 + y_20 + y_34 + y_61 + y_75 + y_80 + y_93 - z_8433 >= 0
 c8435: y_12 + y_22 + y_57 + y_72 + y_88 - z_8434 >= 0
 c8436: y_18 + y_21 + y_36 + y_41 + y_47 + y_48 + y_94 - z_8435 >= 0
 c8437: y_3 + y_11 + y_19 + y_30 + y_38 + y_43 + y_48 + y_52 + y_59 + y_69
        - z_8436 >= 0
 c8438: y_13 + y_60 - z_8437 >= 0
 c8439: y_4 + y_5 + y_6 + y_32 + y_44 + y_90 - z_8438 >= 0
 c8440: y_8 + y_73 + y_96 - z_8439 >= 0
 c8441: y_9 + y_26 + y_32 + y_67 + y_69 + y_71 - z_8440 >= 0
 c8442: y_5 + y_34 - z_8441 >= 0
 c8443: y_3 + y_19 + y_21 + y_33 + y_36 + y_38 + y_41 + y_44 + y_47 + y_48
        + y_61 + y_79 - z_8442 >= 0
 c8444: y_11 + y_26 + y_52 + y_67 + y_68 + y_69 + y_97 - z_8443 >= 0
 c8445: y_13 - z_8444 >= 0
 c8446: y_14 + y_27 - z_8445 >= 0
 c8447: y_3 + y_15 + y_19 + y_20 + y_21 + y_33 + y_34 + y_41 + y_44 + y_48
        + y_61 + y_79 + y_93 - z_8446 >= 0
 c8448: y_5 + y_6 + y_34 + y_90 - z_8447 >= 0
 c8449: y_65 - z_8448 >= 0
 c8450: y_4 + y_6 + y_12 + y_22 + y_32 + y_88 + y_90 - z_8449 >= 0
 c8451: y_5 + y_20 + y_33 + y_34 + y_44 + y_61 + y_93 - z_8450 >= 0
 c8452: y_3 + y_5 + y_19 + y_33 + y_34 + y_38 + y_44 + y_48 + y_61 + y_79
        - z_8451 >= 0
 c8453: y_5 + y_34 + y_61 + y_93 - z_8452 >= 0
 c8454: y_1 + y_23 + y_31 + y_46 + y_49 + y_73 + y_89 + y_98 + y_99 - z_8453
         >= 0
 c8455: y_4 + y_9 + y_12 + y_32 + y_88 - z_8454 >= 0
 c8456: y_58 + y_91 - z_8455 >= 0
 c8457: y_24 + y_30 + y_43 + y_52 + y_59 + y_70 + y_86 - z_8456 >= 0
 c8458: y_45 - z_8457 >= 0
 c8459: y_40 + y_83 + y_85 + y_92 - z_8458 >= 0
 c8460: - z_8459 >= 0
 c8461: y_10 + y_57 + y_60 + y_72 + y_76 + y_78 + y_81 + y_88 - z_8460 >= 0
 c8462: y_4 + y_5 + y_6 + y_32 + y_44 + y_90 - z_8461 >= 0
 c8463: y_11 + y_24 + y_52 + y_68 + y_70 + y_86 + y_97 - z_8462 >= 0
 c8464: y_10 + y_12 + y_57 + y_72 + y_78 + y_88 - z_8463 >= 0
 c8465: y_0 + y_27 - z_8464 >= 0
 c8466: y_0 + y_39 + y_42 + y_53 + y_55 + y_63 + y_64 - z_8465 >= 0
 c8467: y_10 + y_13 + y_28 + y_60 + y_72 + y_76 + y_78 + y_81 - z_8466 >= 0
 c8468: y_9 + y_26 + y_32 + y_71 - z_8467 >= 0
 c8469: y_1 + y_23 + y_46 + y_49 + y_74 + y_98 + y_99 - z_8468 >= 0
 c8470: y_18 + y_21 + y_36 + y_41 + y_47 + y_94 - z_8469 >= 0
 c8471: y_15 + y_18 + y_21 + y_36 + y_41 + y_47 + y_48 + y_79 - z_8470 >= 0
 c8472: y_4 + y_5 + y_6 + y_32 + y_44 + y_90 - z_8471 >= 0
 c8473: y_0 + y_27 + y_42 + y_55 + y_64 - z_8472 >= 0
 c8474: y_9 + y_26 + y_67 + y_68 + y_69 + y_97 - z_8473 >= 0
 c8475: y_50 + y_56 - z_8474 >= 0
 c8476: y_17 + y_96 - z_8475 >= 0
 c8477: y_25 + y_29 + y_35 + y_77 + y_87 + y_92 - z_8476 >= 0
 c8478: y_4 + y_9 + y_26 + y_32 + y_67 + y_69 - z_8477 >= 0
 c8479: y_0 + y_2 + y_14 + y_27 + y_42 + y_55 + y_82 - z_8478 >= 0
 c8480: y_7 + y_23 + y_31 + y_51 + y_62 + y_89 + y_98 + y_99 - z_8479 >= 0
 c8481: y_1 + y_8 + y_73 + y_75 + y_96 - z_8480 >= 0
 c8482: y_3 + y_11 + y_19 + y_33 + y_38 + y_43 + y_44 + y_48 + y_67 + y_69
        - z_8481 >= 0
 c8483: y_0 + y_27 + y_42 + y_55 + y_64 - z_8482 >= 0
 c8484: y_4 + y_5 + y_6 + y_32 + y_38 + y_44 + y_90 - z_8483 >= 0
 c8485: y_3 + y_19 + y_33 + y_38 + y_44 + y_48 - z_8484 >= 0
 c8486: y_8 + y_15 + y_20 + y_34 + y_46 + y_61 + y_75 + y_80 + y_93 + y_95
        - z_8485 >= 0
 c8487: y_46 + y_49 + y_74 + y_95 - z_8486 >= 0
 c8488: y_4 + y_6 + y_32 + y_44 + y_90 - z_8487 >= 0
 c8489: y_6 + y_22 - z_8488 >= 0
 c8490: y_3 + y_11 + y_19 + y_26 + y_38 + y_44 + y_67 + y_68 + y_69 - z_8489
         >= 0
 c8491: y_1 + y_23 + y_46 + y_49 + y_74 + y_98 - z_8490 >= 0
 c8492: y_22 + y_57 + y_65 - z_8491 >= 0
 c8493: y_45 - z_8492 >= 0
 c8494: y_7 + y_23 + y_31 + y_51 + y_62 + y_89 + y_98 + y_99 - z_8493 >= 0
 c8495: y_1 + y_23 + y_31 + y_46 + y_49 + y_98 + y_99 - z_8494 >= 0
 c8496: y_0 + y_17 + y_53 + y_63 + y_64 + y_96 - z_8495 >= 0
 c8497: y_25 + y_29 + y_35 + y_77 + y_92 - z_8496 >= 0
 c8498: y_4 + y_6 + y_12 + y_22 + y_32 + y_88 - z_8497 >= 0
 c8499: y_5 + y_6 + y_34 + y_44 + y_90 - z_8498 >= 0
 c8500: y_11 + y_67 + y_68 + y_69 + y_97 - z_8499 >= 0
 c8501: y_5 + y_6 + y_33 + y_34 + y_44 + y_90 - z_8500 >= 0
 c8502: y_25 + y_29 + y_35 + y_77 + y_87 - z_8501 >= 0
 c8503: y_8 + y_15 + y_20 + y_46 + y_49 + y_61 + y_75 + y_80 + y_93 + y_95
        - z_8502 >= 0
 c8504: y_46 + y_49 + y_74 + y_95 - z_8503 >= 0
 c8505: y_11 + y_19 + y_30 + y_43 + y_52 + y_59 + y_68 + y_69 - z_8504 >= 0
 c8506: y_46 + y_49 + y_74 + y_95 - z_8505 >= 0
 c8507: y_23 + y_49 + y_74 + y_98 - z_8506 >= 0
 c8508: y_3 + y_11 + y_19 + y_26 + y_33 + y_38 + y_43 + y_44 + y_67 + y_68
        + y_69 - z_8507 >= 0
 c8509: y_25 + y_29 + y_50 + y_56 + y_66 + y_77 + y_87 - z_8508 >= 0
 c8510: y_16 + y_39 + y_40 + y_54 + y_66 + y_87 - z_8509 >= 0
 c8511: y_12 + y_71 + y_88 - z_8510 >= 0
 c8512: y_8 + y_73 + y_96 - z_8511 >= 0
 c8513: y_25 + y_29 + y_35 + y_77 - z_8512 >= 0
 c8514: y_11 + y_24 + y_52 + y_59 + y_68 + y_70 + y_86 + y_97 - z_8513 >= 0
 c8515: y_25 + y_35 + y_40 + y_77 + y_87 + y_92 - z_8514 >= 0
 c8516: y_25 + y_35 + y_40 + y_77 + y_87 + y_92 - z_8515 >= 0
 c8517: y_40 + y_92 - z_8516 >= 0
 c8518: y_10 + y_12 + y_57 + y_72 + y_88 - z_8517 >= 0
 c8519: y_31 + y_37 + y_89 + y_99 - z_8518 >= 0
 c8520: y_13 + y_57 + y_65 + y_72 - z_8519 >= 0
 c8521: y_15 + y_18 + y_46 + y_49 + y_74 + y_95 - z_8520 >= 0
 c8522: y_12 + y_71 + y_88 - z_8521 >= 0
 c8523: y_0 + y_27 + y_42 + y_55 - z_8522 >= 0
 c8524: y_12 + y_22 + y_57 + y_72 + y_88 - z_8523 >= 0
 c8525: y_8 + y_15 + y_20 + y_41 + y_46 + y_61 + y_75 + y_79 + y_80 + y_93
        + y_95 - z_8524 >= 0
 c8526: y_5 + y_8 + y_17 + y_34 + y_75 + y_80 + y_96 - z_8525 >= 0
 c8527: y_12 + y_22 + y_57 + y_65 + y_72 + y_88 - z_8526 >= 0
 c8528: y_3 + y_4 + y_19 + y_26 + y_32 + y_38 + y_44 + y_90 - z_8527 >= 0
 c8529: y_22 + y_65 - z_8528 >= 0
 c8530: y_25 + y_29 + y_35 + y_77 - z_8529 >= 0
 c8531: y_25 + y_29 + y_50 + y_56 + y_77 - z_8530 >= 0
 c8532: y_10 + y_13 + y_60 + y_72 + y_76 + y_78 + y_81 - z_8531 >= 0
 c8533: y_57 + y_65 + y_72 - z_8532 >= 0
 c8534: y_16 + y_50 + y_54 + y_56 + y_66 + y_87 - z_8533 >= 0
 c8535: y_1 + y_31 + y_37 + y_73 + y_89 + y_99 - z_8534 >= 0
 c8536: y_4 + y_5 + y_6 + y_32 + y_90 - z_8535 >= 0
 c8537: y_17 + y_53 + y_63 + y_64 + y_91 - z_8536 >= 0
 c8538: y_37 + y_45 - z_8537 >= 0
 c8539: y_2 + y_83 + y_85 - z_8538 >= 0
 c8540: y_0 + y_27 - z_8539 >= 0
 c8541: y_45 - z_8540 >= 0
 c8542: y_10 + y_13 + y_28 + y_60 + y_76 + y_78 + y_81 - z_8541 >= 0
 c8543: y_0 + y_2 + y_14 + y_27 + y_42 + y_55 + y_82 - z_8542 >= 0
 c8544: y_39 + y_40 + y_42 + y_54 + y_55 + y_63 + y_64 - z_8543 >= 0
 c8545: y_16 + y_39 + y_40 + y_54 + y_55 + y_63 + y_64 + y_66 + y_87 - z_8544
         >= 0
 c8546: y_65 - z_8545 >= 0
 c8547: y_56 - z_8546 >= 0
 c8548: y_3 + y_19 + y_26 + y_33 + y_38 + y_44 + y_67 + y_69 - z_8547 >= 0
 c8549: y_8 + y_15 + y_20 + y_34 + y_41 + y_48 + y_61 + y_75 + y_79 + y_80
        + y_93 + y_95 - z_8548 >= 0
 c8550: y_0 + y_27 - z_8549 >= 0
 c8551: y_16 + y_39 + y_50 + y_54 + y_56 + y_58 + y_66 + y_91 - z_8550 >= 0
 c8552: y_2 + y_14 + y_27 + y_82 + y_83 - z_8551 >= 0
 c8553: y_1 + y_23 + y_31 + y_49 + y_89 + y_98 + y_99 - z_8552 >= 0
 c8554: y_37 + y_73 + y_96 - z_8553 >= 0
 c8555: y_7 + y_31 + y_37 + y_89 + y_99 - z_8554 >= 0
 c8556: y_11 + y_24 + y_52 + y_59 + y_68 + y_70 + y_86 + y_97 - z_8555 >= 0
 c8557: y_29 - z_8556 >= 0
 c8558: y_2 + y_14 + y_27 + y_42 + y_82 + y_83 - z_8557 >= 0
 c8559: y_3 + y_5 + y_19 + y_33 + y_34 + y_38 + y_44 + y_48 + y_61 - z_8558 >= 
        0
 c8560: y_25 + y_29 + y_35 + y_77 - z_8559 >= 0
 c8561: y_7 + y_31 + y_37 + y_51 + y_62 + y_89 + y_99 - z_8560 >= 0
 c8562: y_12 + y_57 + y_71 + y_88 - z_8561 >= 0
 c8563: y_12 + y_22 + y_57 + y_88 - z_8562 >= 0
 c8564: y_9 + y_11 + y_26 + y_67 + y_68 + y_69 + y_97 - z_8563 >= 0
 c8565: y_13 + y_28 + y_60 + y_76 - z_8564 >= 0
 c8566: y_9 + y_11 + y_26 + y_67 + y_68 + y_69 + y_97 - z_8565 >= 0
 c8567: y_29 - z_8566 >= 0
 c8568: y_2 + y_14 + y_82 + y_83 + y_84 + y_85 - z_8567 >= 0
 c8569: y_31 + y_37 + y_89 + y_99 - z_8568 >= 0
 c8570: y_1 + y_7 + y_23 + y_31 + y_51 + y_89 + y_98 + y_99 - z_8569 >= 0
 c8571: y_15 + y_18 + y_20 + y_21 + y_36 + y_41 + y_46 + y_47 + y_61 + y_79
        + y_80 + y_93 + y_95 - z_8570 >= 0
 c8572: y_1 + y_23 + y_31 + y_46 + y_49 + y_98 + y_99 - z_8571 >= 0
 c8573: y_37 + y_45 + y_89 - z_8572 >= 0
 c8574: y_10 + y_12 + y_57 + y_72 + y_78 + y_88 - z_8573 >= 0
 c8575: y_3 + y_5 + y_33 + y_34 + y_38 + y_44 + y_61 + y_90 - z_8574 >= 0
 c8576: y_6 + y_22 - z_8575 >= 0
 c8577: y_5 + y_6 + y_58 + y_91 - z_8576 >= 0
 c8578: y_1 + y_73 + y_96 - z_8577 >= 0
 c8579: y_1 + y_7 + y_23 + y_31 + y_51 + y_62 + y_89 + y_98 + y_99 - z_8578 >= 
        0
 c8580: y_29 - z_8579 >= 0
 c8581: y_0 + y_45 - z_8580 >= 0
 c8582: y_16 + y_39 + y_40 + y_42 + y_54 + y_55 + y_63 + y_64 - z_8581 >= 0
 c8583: y_5 + y_8 + y_20 + y_34 + y_61 + y_75 + y_80 + y_93 - z_8582 >= 0
 c8584: y_5 + y_6 + y_34 + y_90 - z_8583 >= 0
 c8585: y_50 + y_56 - z_8584 >= 0
 c8586: y_15 + y_18 + y_21 + y_36 + y_41 + y_47 + y_79 + y_95 - z_8585 >= 0
 c8587: y_57 + y_60 + y_65 + y_72 + y_76 + y_78 - z_8586 >= 0
 c8588: y_2 + y_83 + y_85 - z_8587 >= 0
 c8589: y_7 + y_31 + y_51 + y_62 + y_89 + y_98 - z_8588 >= 0
 c8590: y_56 + y_58 - z_8589 >= 0
 c8591: y_8 + y_15 + y_20 + y_46 + y_49 + y_61 + y_75 + y_80 + y_93 + y_95
        - z_8590 >= 0
 c8592: y_40 + y_85 + y_92 - z_8591 >= 0
 c8593: y_4 + y_6 + y_32 + y_90 - z_8592 >= 0
 c8594: y_40 + y_55 + y_83 + y_92 - z_8593 >= 0
 c8595: y_25 + y_29 + y_50 + y_56 + y_77 - z_8594 >= 0
 c8596: y_12 + y_22 + y_57 + y_65 + y_72 + y_88 - z_8595 >= 0
 c8597: y_18 + y_46 + y_49 + y_74 + y_95 - z_8596 >= 0
 c8598: y_16 + y_25 + y_40 + y_50 + y_54 + y_66 + y_87 + y_92 - z_8597 >= 0
 c8599: y_25 + y_35 + y_40 + y_77 + y_87 + y_92 - z_8598 >= 0
 c8600: y_40 + y_85 + y_92 - z_8599 >= 0
 c8601: y_50 + y_56 + y_65 - z_8600 >= 0
 c8602: y_71 - z_8601 >= 0
 c8603: y_15 + y_18 + y_20 + y_21 + y_33 + y_36 + y_41 + y_47 + y_48 + y_61
        + y_79 + y_80 + y_93 + y_95 - z_8602 >= 0
 c8604: y_17 + y_39 + y_53 + y_58 + y_63 + y_64 + y_91 - z_8603 >= 0
 c8605: y_40 + y_83 + y_85 + y_92 - z_8604 >= 0
 c8606: y_0 + y_27 + y_42 + y_55 + y_63 + y_64 - z_8605 >= 0
 c8607: y_0 + y_45 - z_8606 >= 0
 c8608: y_16 + y_25 + y_50 + y_54 + y_56 + y_66 + y_77 + y_87 - z_8607 >= 0
 c8609: y_10 + y_78 + y_81 - z_8608 >= 0
 c8610: y_6 + y_22 + y_90 - z_8609 >= 0
 c8611: y_4 + y_5 + y_6 + y_32 + y_34 + y_44 + y_90 - z_8610 >= 0
 c8612: y_85 + y_92 - z_8611 >= 0
 c8613: y_16 + y_39 + y_53 + y_54 + y_58 + y_63 + y_66 + y_91 - z_8612 >= 0
 c8614: y_13 + y_57 + y_60 + y_65 + y_72 + y_76 + y_78 - z_8613 >= 0
 c8615: y_15 + y_18 + y_21 + y_36 + y_41 + y_47 + y_79 + y_95 - z_8614 >= 0
 c8616: y_3 + y_11 + y_19 + y_30 + y_38 + y_43 + y_52 + y_59 + y_67 + y_68
        + y_69 - z_8615 >= 0
 c8617: y_57 + y_60 + y_65 + y_72 + y_76 + y_78 - z_8616 >= 0
 c8618: y_3 + y_4 + y_5 + y_6 + y_19 + y_33 + y_38 + y_44 + y_90 - z_8617 >= 0
 c8619: y_13 + y_28 + y_60 + y_76 + y_81 - z_8618 >= 0
 c8620: y_11 + y_24 + y_52 + y_59 + y_68 + y_70 + y_86 - z_8619 >= 0
 c8621: y_11 + y_24 + y_43 + y_52 + y_59 + y_68 + y_69 + y_70 + y_86 - z_8620
         >= 0
 c8622: - z_8621 >= 0
 c8623: y_3 + y_15 + y_19 + y_20 + y_21 + y_33 + y_36 + y_38 + y_41 + y_44
        + y_47 + y_48 + y_61 + y_79 - z_8622 >= 0
 c8624: y_4 + y_12 + y_22 + y_32 + y_88 - z_8623 >= 0
 c8625: y_9 + y_26 + y_71 - z_8624 >= 0
 c8626: y_0 + y_27 + y_42 - z_8625 >= 0
 c8627: y_4 + y_9 + y_26 + y_32 + y_67 + y_69 - z_8626 >= 0
 c8628: y_3 + y_5 + y_15 + y_20 + y_33 + y_34 + y_41 + y_44 + y_48 + y_61 + y_79
        + y_80 + y_93 - z_8627 >= 0
 c8629: y_37 + y_45 - z_8628 >= 0
 c8630: y_0 + y_27 + y_45 - z_8629 >= 0
 c8631: y_16 + y_25 + y_35 + y_40 + y_50 + y_54 + y_66 + y_77 + y_87 + y_92
        - z_8630 >= 0
 c8632: y_3 + y_19 + y_33 + y_38 + y_43 + y_44 + y_48 + y_69 - z_8631 >= 0
 c8633: y_3 + y_5 + y_33 + y_34 + y_38 + y_44 + y_61 + y_90 - z_8632 >= 0
 c8634: y_6 + y_90 - z_8633 >= 0
 c8635: y_17 + y_53 + y_63 + y_91 + y_96 - z_8634 >= 0
 c8636: y_3 + y_19 + y_21 + y_33 + y_38 + y_41 + y_44 + y_47 + y_48 + y_61
        + y_79 - z_8635 >= 0
 c8637: y_3 + y_5 + y_33 + y_34 + y_38 + y_44 + y_90 - z_8636 >= 0
 c8638: y_1 + y_23 + y_31 + y_37 + y_73 + y_89 + y_98 + y_99 - z_8637 >= 0
 c8639: y_25 + y_29 + y_35 + y_77 - z_8638 >= 0
 c8640: y_4 + y_9 + y_26 + y_32 - z_8639 >= 0
 c8641: y_25 + y_35 + y_40 + y_77 + y_87 + y_92 - z_8640 >= 0
 c8642: y_7 + y_31 + y_51 + y_62 + y_89 + y_99 - z_8641 >= 0
 c8643: y_17 + y_39 + y_53 + y_58 + y_63 + y_64 + y_91 - z_8642 >= 0
 c8644: y_8 + y_20 + y_34 + y_75 + y_80 + y_93 - z_8643 >= 0
 c8645: y_9 + y_26 + y_71 - z_8644 >= 0
 c8646: y_9 + y_11 + y_26 + y_38 + y_67 + y_68 + y_69 + y_97 - z_8645 >= 0
 c8647: y_17 + y_39 + y_53 + y_63 + y_64 + y_91 - z_8646 >= 0
 c8648: y_25 + y_29 + y_35 + y_50 + y_56 + y_77 + y_87 - z_8647 >= 0
 c8649: y_11 + y_24 + y_43 + y_52 + y_59 + y_70 + y_86 - z_8648 >= 0
 c8650: y_8 + y_15 + y_20 + y_34 + y_46 + y_61 + y_75 + y_79 + y_80 + y_93
        + y_95 - z_8649 >= 0
 c8651: y_15 + y_18 + y_21 + y_36 + y_41 + y_47 + y_79 - z_8650 >= 0
 c8652: y_8 + y_15 + y_20 + y_46 + y_49 + y_61 + y_75 + y_79 + y_80 + y_93
        + y_95 - z_8651 >= 0
 c8653: y_16 + y_17 + y_39 + y_53 + y_54 + y_58 + y_63 + y_64 + y_91 - z_8652
         >= 0
 c8654: y_25 + y_35 + y_40 + y_77 + y_87 + y_92 - z_8653 >= 0
 c8655: y_15 + y_18 + y_20 + y_21 + y_33 + y_36 + y_41 + y_47 + y_48 + y_61
        + y_79 + y_93 + y_95 - z_8654 >= 0
 c8656: y_25 + y_35 + y_40 + y_66 + y_77 + y_87 + y_92 - z_8655 >= 0
 c8657: y_37 + y_45 - z_8656 >= 0
 c8658: y_37 + y_45 - z_8657 >= 0
 c8659: y_9 + y_26 + y_71 - z_8658 >= 0
 c8660: y_57 + y_65 + y_72 - z_8659 >= 0
 c8661: y_12 + y_71 + y_88 - z_8660 >= 0
 c8662: y_7 + y_23 + y_31 + y_37 + y_51 + y_62 + y_89 + y_98 + y_99 - z_8661
         >= 0
 c8663: y_0 + y_27 + y_42 + y_64 - z_8662 >= 0
 c8664: y_7 + y_31 + y_51 + y_62 + y_98 - z_8663 >= 0
 c8665: y_4 + y_5 + y_6 + y_32 + y_90 - z_8664 >= 0
 c8666: y_1 + y_23 + y_46 + y_49 + y_73 + y_75 + y_98 + y_99 - z_8665 >= 0
 c8667: y_16 + y_39 + y_50 + y_54 + y_56 + y_58 + y_66 + y_91 - z_8666 >= 0
 c8668: y_40 + y_87 + y_92 - z_8667 >= 0
 c8669: y_0 + y_16 + y_39 + y_42 + y_54 + y_55 + y_63 + y_64 - z_8668 >= 0
 c8670: y_13 + y_57 + y_60 + y_65 + y_72 + y_76 + y_78 - z_8669 >= 0
 c8671: y_11 + y_43 + y_52 + y_59 + y_67 + y_68 + y_69 + y_97 - z_8670 >= 0
 c8672: y_29 - z_8671 >= 0
 c8673: y_50 + y_56 - z_8672 >= 0
 c8674: y_17 + y_53 + y_58 + y_63 + y_91 - z_8673 >= 0
 c8675: y_7 + y_23 + y_31 + y_51 + y_62 + y_89 + y_98 + y_99 - z_8674 >= 0
 c8676: y_40 + y_92 - z_8675 >= 0
 c8677: y_3 + y_4 + y_5 + y_6 + y_33 + y_34 + y_38 + y_44 + y_90 - z_8676 >= 0
 c8678: y_2 + y_14 + y_27 + y_42 + y_82 + y_83 - z_8677 >= 0
 c8679: y_11 + y_24 + y_52 + y_59 + y_68 + y_70 + y_86 + y_97 - z_8678 >= 0
 c8680: y_4 + y_12 + y_22 + y_32 + y_88 - z_8679 >= 0
 c8681: y_18 + y_21 + y_36 + y_41 + y_47 + y_94 - z_8680 >= 0
 c8682: y_30 + y_43 + y_52 + y_59 + y_94 - z_8681 >= 0
 c8683: y_21 + y_30 + y_36 + y_41 + y_43 + y_47 + y_48 + y_94 - z_8682 >= 0
 c8684: y_13 + y_28 + y_60 + y_76 + y_78 + y_81 - z_8683 >= 0
 c8685: y_22 + y_57 + y_65 + y_72 - z_8684 >= 0
 c8686: y_12 + y_22 + y_57 + y_65 + y_88 - z_8685 >= 0
 c8687: y_9 + y_26 + y_71 + y_97 - z_8686 >= 0
 c8688: y_6 + y_90 - z_8687 >= 0
 c8689: y_2 + y_82 + y_83 + y_84 + y_85 - z_8688 >= 0
 c8690: y_24 + y_68 + y_70 + y_86 + y_97 - z_8689 >= 0
 c8691: y_11 + y_67 + y_68 + y_69 + y_97 - z_8690 >= 0
 c8692: y_0 + y_27 + y_42 - z_8691 >= 0
 c8693: y_3 + y_19 + y_21 + y_33 + y_36 + y_41 + y_43 + y_47 + y_48 + y_79
        + y_94 - z_8692 >= 0
 c8694: y_17 + y_39 + y_53 + y_58 + y_63 + y_64 + y_91 - z_8693 >= 0
 c8695: y_1 + y_23 + y_46 + y_49 + y_74 + y_98 - z_8694 >= 0
 c8696: y_2 + y_83 + y_85 - z_8695 >= 0
 c8697: y_2 + y_82 + y_83 + y_84 + y_85 - z_8696 >= 0
 c8698: y_10 + y_13 + y_57 + y_60 + y_72 + y_76 + y_78 + y_81 - z_8697 >= 0
 c8699: y_10 + y_13 + y_28 + y_60 + y_76 + y_78 + y_81 - z_8698 >= 0
 c8700: y_22 + y_57 + y_65 + y_72 - z_8699 >= 0
 c8701: y_4 + y_5 + y_6 + y_32 + y_44 + y_90 - z_8700 >= 0
 c8702: y_17 + y_39 + y_53 + y_58 + y_63 + y_64 + y_91 - z_8701 >= 0
 c8703: y_13 + y_28 + y_60 + y_76 + y_81 - z_8702 >= 0
 c8704: y_2 + y_14 + y_82 + y_83 + y_84 + y_85 - z_8703 >= 0
 c8705: y_11 + y_24 + y_30 + y_43 + y_52 + y_59 + y_68 + y_70 - z_8704 >= 0
 c8706: y_2 + y_14 + y_82 + y_83 - z_8705 >= 0
 c8707: y_46 + y_49 + y_74 + y_75 + y_95 - z_8706 >= 0
 c8708: y_18 + y_46 + y_49 + y_74 + y_95 - z_8707 >= 0
 c8709: y_0 + y_27 + y_39 + y_42 + y_55 + y_63 + y_64 - z_8708 >= 0
 c8710: y_5 + y_6 + y_90 - z_8709 >= 0
 c8711: y_12 + y_22 + y_57 + y_65 + y_72 + y_88 - z_8710 >= 0
 c8712: y_25 + y_35 + y_40 + y_87 + y_92 - z_8711 >= 0
 c8713: y_3 + y_5 + y_15 + y_19 + y_20 + y_21 + y_33 + y_34 + y_38 + y_41 + y_44
        + y_48 + y_61 + y_79 + y_93 - z_8712 >= 0
 c8714: y_4 + y_6 + y_12 + y_22 + y_32 + y_88 + y_90 - z_8713 >= 0
 c8715: y_45 - z_8714 >= 0
 c8716: y_16 + y_40 + y_42 + y_54 + y_55 + y_64 - z_8715 >= 0
 c8717: y_12 + y_71 + y_88 - z_8716 >= 0
 c8718: y_16 + y_39 + y_40 + y_54 + y_55 + y_63 + y_64 + y_66 + y_87 - z_8717
         >= 0
 c8719: y_5 + y_6 + y_34 + y_44 + y_90 - z_8718 >= 0
 c8720: y_4 + y_5 + y_6 + y_32 + y_33 + y_38 + y_44 + y_90 - z_8719 >= 0
 c8721: y_16 + y_39 + y_50 + y_54 + y_56 + y_58 + y_66 + y_91 - z_8720 >= 0
 c8722: y_2 + y_40 + y_55 + y_83 + y_85 - z_8721 >= 0
 c8723: y_4 + y_12 + y_22 + y_32 + y_88 - z_8722 >= 0
 c8724: y_24 + y_30 + y_43 + y_52 + y_59 + y_70 + y_94 - z_8723 >= 0
 c8725: y_17 + y_96 - z_8724 >= 0
 c8726: y_15 + y_18 + y_21 + y_36 + y_41 + y_47 + y_48 + y_79 + y_95 - z_8725
         >= 0
 c8727: y_2 + y_14 + y_82 + y_83 + y_85 - z_8726 >= 0
 c8728: y_2 + y_14 + y_27 + y_82 - z_8727 >= 0
 c8729: y_0 + y_2 + y_14 + y_27 + y_42 + y_55 + y_82 - z_8728 >= 0
 c8730: y_1 + y_8 + y_46 + y_49 + y_73 + y_75 + y_99 - z_8729 >= 0
 c8731: y_0 - z_8730 >= 0
 c8732: y_24 + y_52 + y_59 + y_70 + y_86 - z_8731 >= 0
 c8733: y_1 + y_31 + y_37 + y_73 + y_89 + y_99 - z_8732 >= 0
 c8734: y_12 + y_22 + y_57 + y_72 + y_88 - z_8733 >= 0
 c8735: y_4 + y_6 + y_32 + y_44 + y_90 - z_8734 >= 0
 c8736: y_7 + y_31 + y_51 + y_62 + y_89 + y_99 - z_8735 >= 0
 c8737: y_1 + y_7 + y_31 + y_37 + y_73 + y_89 + y_99 - z_8736 >= 0
 c8738: y_10 + y_13 + y_28 + y_60 + y_76 + y_78 + y_81 - z_8737 >= 0
 c8739: y_57 + y_65 + y_72 - z_8738 >= 0
 c8740: y_24 + y_52 + y_59 + y_70 + y_86 - z_8739 >= 0
 c8741: y_96 - z_8740 >= 0
 c8742: y_37 + y_45 + y_73 + y_96 - z_8741 >= 0
 c8743: y_1 + y_23 + y_46 + y_49 + y_74 + y_98 + y_99 - z_8742 >= 0
 c8744: y_37 + y_45 - z_8743 >= 0
 c8745: y_9 + y_11 + y_26 + y_67 + y_68 + y_69 + y_97 - z_8744 >= 0
 c8746: y_18 + y_21 + y_36 + y_41 + y_47 + y_94 - z_8745 >= 0
 c8747: y_4 + y_9 + y_12 + y_32 + y_88 - z_8746 >= 0
 c8748: y_2 + y_83 + y_84 + y_85 - z_8747 >= 0
 c8749: y_13 + y_60 + y_72 + y_76 - z_8748 >= 0
 c8750: y_5 + y_6 + y_90 - z_8749 >= 0
 c8751: y_16 + y_17 + y_39 + y_53 + y_54 + y_58 + y_63 + y_64 + y_91 - z_8750
         >= 0
 c8752: y_4 + y_5 + y_6 + y_32 + y_90 - z_8751 >= 0
 c8753: y_12 + y_22 + y_88 - z_8752 >= 0
 c8754: y_16 + y_17 + y_39 + y_53 + y_54 + y_58 + y_63 + y_64 + y_91 - z_8753
         >= 0
 c8755: y_8 + y_20 + y_46 + y_75 + y_80 + y_93 - z_8754 >= 0
 c8756: y_4 + y_6 + y_22 + y_32 + y_90 - z_8755 >= 0
 c8757: y_22 + y_56 + y_65 - z_8756 >= 0
 c8758: y_13 + y_28 + y_60 + y_76 + y_78 + y_81 - z_8757 >= 0
 c8759: y_13 + y_28 + y_60 + y_76 + y_78 + y_81 - z_8758 >= 0
 c8760: y_16 + y_39 + y_40 + y_42 + y_54 + y_55 + y_64 - z_8759 >= 0
 c8761: y_2 + y_40 + y_55 + y_83 + y_85 + y_92 - z_8760 >= 0
 c8762: y_30 + y_43 + y_52 + y_59 + y_94 - z_8761 >= 0
 c8763: y_25 + y_40 + y_66 + y_87 + y_92 - z_8762 >= 0
 c8764: y_11 + y_24 + y_52 + y_68 + y_70 + y_86 + y_97 - z_8763 >= 0
 c8765: y_4 + y_6 + y_12 + y_22 + y_32 + y_88 - z_8764 >= 0
 c8766: y_3 + y_21 + y_33 + y_36 + y_41 + y_43 + y_47 + y_48 + y_79 + y_94
        - z_8765 >= 0
 c8767: y_1 + y_31 + y_37 + y_73 + y_89 + y_99 - z_8766 >= 0
 c8768: y_25 + y_29 + y_35 + y_77 - z_8767 >= 0
 c8769: y_13 + y_28 + y_60 + y_72 + y_76 + y_81 - z_8768 >= 0
 c8770: y_3 + y_15 + y_20 + y_21 + y_33 + y_36 + y_41 + y_47 + y_48 + y_61
        + y_79 + y_93 - z_8769 >= 0
 c8771: y_1 + y_23 + y_31 + y_37 + y_73 + y_89 + y_98 + y_99 - z_8770 >= 0
 c8772: y_57 + y_65 + y_72 - z_8771 >= 0
 c8773: y_10 + y_12 + y_88 - z_8772 >= 0
 c8774: y_13 + y_65 + y_72 - z_8773 >= 0
 c8775: y_18 + y_21 + y_36 + y_41 + y_47 - z_8774 >= 0
 c8776: y_50 + y_56 + y_65 - z_8775 >= 0
 c8777: y_4 + y_9 + y_26 + y_32 + y_67 + y_69 - z_8776 >= 0
 c8778: y_11 + y_19 + y_38 + y_43 + y_52 + y_59 + y_67 + y_68 + y_69 - z_8777
         >= 0
 c8779: y_40 + y_42 + y_54 + y_55 + y_64 - z_8778 >= 0
 c8780: y_46 + y_49 + y_74 - z_8779 >= 0
 c8781: y_40 + y_92 - z_8780 >= 0
 c8782: y_45 - z_8781 >= 0
 c8783: y_0 + y_27 + y_42 + y_55 + y_63 + y_64 - z_8782 >= 0
 c8784: y_15 + y_18 + y_36 + y_47 + y_49 + y_74 + y_95 - z_8783 >= 0
 c8785: y_25 + y_29 + y_35 + y_77 - z_8784 >= 0
 c8786: y_0 + y_27 + y_42 + y_55 + y_63 + y_64 - z_8785 >= 0
 c8787: y_83 + y_85 + y_92 - z_8786 >= 0
 c8788: y_15 + y_18 + y_20 + y_21 + y_33 + y_36 + y_41 + y_47 + y_48 + y_61
        + y_79 + y_93 + y_95 - z_8787 >= 0
 c8789: y_3 + y_5 + y_19 + y_20 + y_33 + y_34 + y_38 + y_44 + y_48 + y_61 + y_79
        + y_93 - z_8788 >= 0
 c8790: y_7 + y_31 + y_51 + y_62 + y_89 + y_99 - z_8789 >= 0
 c8791: y_0 + y_16 + y_39 + y_42 + y_53 + y_54 + y_55 + y_63 + y_64 - z_8790
         >= 0
 c8792: y_11 + y_24 + y_52 + y_59 + y_68 + y_70 + y_86 - z_8791 >= 0
 c8793: y_2 + y_14 + y_27 + y_82 - z_8792 >= 0
 c8794: y_1 + y_8 + y_46 + y_73 + y_75 + y_96 - z_8793 >= 0
 c8795: y_39 + y_53 + y_58 + y_91 - z_8794 >= 0
 c8796: y_40 + y_54 + y_55 + y_87 + y_92 - z_8795 >= 0
 c8797: y_5 + y_6 + y_34 + y_44 + y_90 - z_8796 >= 0
 c8798: y_16 + y_40 + y_42 + y_54 + y_55 + y_64 - z_8797 >= 0
 c8799: y_2 + y_14 + y_27 + y_42 + y_82 - z_8798 >= 0
 c8800: y_12 + y_22 + y_57 + y_88 - z_8799 >= 0
 c8801: y_21 + y_30 + y_43 + y_94 - z_8800 >= 0
 c8802: y_25 + y_40 + y_87 + y_92 - z_8801 >= 0
 c8803: y_10 + y_13 + y_28 + y_60 + y_76 + y_78 + y_81 - z_8802 >= 0
 c8804: y_0 + y_27 - z_8803 >= 0
 c8805: y_7 + y_23 + y_31 + y_51 + y_62 + y_89 + y_98 + y_99 - z_8804 >= 0
 c8806: y_4 + y_6 + y_9 + y_26 + y_32 + y_44 + y_90 - z_8805 >= 0
 c8807: y_22 + y_65 - z_8806 >= 0
 c8808: y_50 + y_56 + y_58 + y_66 - z_8807 >= 0
 c8809: y_16 + y_40 + y_54 + y_66 + y_87 + y_92 - z_8808 >= 0
 c8810: y_10 + y_13 + y_28 + y_60 + y_76 + y_78 + y_81 - z_8809 >= 0
 c8811: y_8 + y_15 + y_20 + y_46 + y_61 + y_75 + y_79 + y_80 + y_93 + y_95
        - z_8810 >= 0
 c8812: y_29 - z_8811 >= 0
 c8813: y_25 + y_29 + y_35 + y_56 + y_77 - z_8812 >= 0
 c8814: y_12 + y_22 + y_57 + y_65 + y_88 - z_8813 >= 0
 c8815: y_4 + y_6 + y_32 + y_90 - z_8814 >= 0
 c8816: y_1 + y_8 + y_73 + y_75 + y_96 - z_8815 >= 0
 c8817: y_58 + y_91 - z_8816 >= 0
 c8818: y_0 + y_64 - z_8817 >= 0
 c8819: y_8 + y_15 + y_20 + y_34 + y_61 + y_75 + y_79 + y_80 + y_93 + y_95
        - z_8818 >= 0
 c8820: y_0 + y_27 + y_42 - z_8819 >= 0
 c8821: y_40 + y_54 + y_66 + y_87 + y_92 - z_8820 >= 0
 c8822: y_83 + y_84 + y_85 - z_8821 >= 0
 c8823: y_39 + y_53 + y_58 + y_91 - z_8822 >= 0
 c8824: y_56 + y_65 - z_8823 >= 0
 c8825: y_16 + y_17 + y_39 + y_53 + y_54 + y_58 + y_63 + y_91 - z_8824 >= 0
 c8826: y_56 + y_65 - z_8825 >= 0
 c8827: y_9 + y_11 + y_19 + y_26 + y_38 + y_67 + y_68 + y_69 - z_8826 >= 0
 c8828: y_4 + y_9 + y_26 + y_32 + y_38 + y_44 + y_90 - z_8827 >= 0
 c8829: y_17 + y_96 - z_8828 >= 0
 c8830: y_2 + y_14 + y_82 + y_83 + y_84 + y_85 - z_8829 >= 0
 c8831: y_11 + y_67 + y_68 + y_69 + y_97 - z_8830 >= 0
 c8832: y_0 + y_45 - z_8831 >= 0
 c8833: y_9 + y_26 + y_67 + y_68 + y_69 + y_97 - z_8832 >= 0
 c8834: y_37 + y_45 - z_8833 >= 0
 c8835: y_15 + y_18 + y_21 + y_36 + y_41 + y_47 + y_48 + y_79 - z_8834 >= 0
 c8836: y_10 + y_13 + y_28 + y_60 + y_76 + y_78 + y_81 - z_8835 >= 0
 c8837: y_13 + y_28 + y_60 + y_76 - z_8836 >= 0
 c8838: y_9 + y_26 + y_67 + y_69 - z_8837 >= 0
 c8839: y_6 + y_90 - z_8838 >= 0
 c8840: y_83 + y_85 + y_92 - z_8839 >= 0
 c8841: y_2 + y_14 + y_82 + y_83 + y_84 + y_85 - z_8840 >= 0
 c8842: y_13 - z_8841 >= 0
 c8843: y_0 + y_96 - z_8842 >= 0
 c8844: y_17 + y_96 - z_8843 >= 0
 c8845: y_9 + y_67 + y_68 + y_69 + y_97 - z_8844 >= 0
 c8846: y_40 + y_85 + y_92 - z_8845 >= 0
 c8847: y_4 + y_5 + y_6 + y_34 + y_44 + y_90 - z_8846 >= 0
 c8848: y_5 + y_17 + y_34 + y_53 + y_91 - z_8847 >= 0
 c8849: y_4 + y_6 + y_9 + y_26 + y_32 + y_90 - z_8848 >= 0
 c8850: y_3 + y_4 + y_9 + y_19 + y_26 + y_32 + y_38 + y_44 + y_67 + y_69
        - z_8849 >= 0
 c8851: y_16 + y_50 + y_54 + y_56 + y_58 + y_66 - z_8850 >= 0
 c8852: y_96 - z_8851 >= 0
 c8853: y_21 + y_30 + y_36 + y_43 + y_47 + y_94 - z_8852 >= 0
 c8854: y_3 + y_11 + y_19 + y_26 + y_38 + y_43 + y_67 + y_68 + y_69 - z_8853
         >= 0
 c8855: y_25 + y_29 + y_35 + y_77 - z_8854 >= 0
 c8856: y_0 + y_27 + y_42 + y_55 + y_63 + y_64 - z_8855 >= 0
 c8857: y_13 + y_28 + y_60 + y_76 - z_8856 >= 0
 c8858: y_18 + y_21 + y_36 + y_41 + y_47 + y_94 - z_8857 >= 0
 c8859: y_25 + y_29 + y_35 + y_40 + y_50 + y_66 + y_77 + y_87 + y_92 - z_8858
         >= 0
 c8860: y_5 + y_8 + y_17 + y_34 - z_8859 >= 0
 c8861: y_0 + y_2 + y_27 + y_42 + y_55 + y_64 - z_8860 >= 0
 c8862: y_16 + y_39 + y_40 + y_54 + y_55 + y_66 + y_87 + y_92 - z_8861 >= 0
 c8863: y_0 + y_2 + y_14 + y_27 + y_42 + y_55 + y_83 - z_8862 >= 0
 c8864: y_40 + y_83 + y_85 + y_92 - z_8863 >= 0
 c8865: y_83 + y_85 - z_8864 >= 0
 c8866: y_0 + y_27 + y_42 + y_55 + y_63 + y_64 - z_8865 >= 0
 c8867: y_4 + y_6 + y_32 + y_44 + y_90 - z_8866 >= 0
 c8868: y_37 + y_45 + y_73 - z_8867 >= 0
 c8869: y_25 + y_29 + y_35 + y_50 + y_56 + y_66 + y_77 + y_87 - z_8868 >= 0
 c8870: y_18 + y_21 + y_36 + y_41 + y_47 + y_94 - z_8869 >= 0
 c8871: y_13 + y_57 + y_60 + y_72 + y_76 + y_78 + y_81 - z_8870 >= 0
 c8872: y_22 + y_65 - z_8871 >= 0
 c8873: y_3 + y_11 + y_19 + y_26 + y_33 + y_38 + y_43 + y_44 + y_48 + y_67
        + y_69 - z_8872 >= 0
 c8874: y_3 + y_19 + y_21 + y_33 + y_38 + y_43 + y_48 + y_59 - z_8873 >= 0
 c8875: y_1 + y_7 + y_23 + y_31 + y_37 + y_51 + y_62 + y_89 + y_98 + y_99
        - z_8874 >= 0
 c8876: y_3 + y_5 + y_15 + y_20 + y_33 + y_34 + y_44 + y_48 + y_61 + y_79 + y_80
        + y_93 - z_8875 >= 0
 c8877: y_13 + y_28 + y_60 + y_72 + y_76 + y_78 + y_81 - z_8876 >= 0
 c8878: y_7 + y_31 + y_51 + y_62 - z_8877 >= 0
 c8879: y_3 + y_19 + y_20 + y_21 + y_33 + y_38 + y_41 + y_44 + y_48 + y_61
        + y_79 - z_8878 >= 0
 c8880: y_10 + y_13 + y_57 + y_60 + y_72 + y_76 + y_78 + y_81 - z_8879 >= 0
 c8881: y_1 + y_23 + y_31 + y_46 + y_49 + y_73 + y_89 + y_98 + y_99 - z_8880
         >= 0
 c8882: y_25 + y_29 + y_35 + y_40 + y_50 + y_66 + y_77 + y_87 + y_92 - z_8881
         >= 0
 c8883: y_6 + y_58 + y_90 + y_91 - z_8882 >= 0
 c8884: y_85 + y_92 - z_8883 >= 0
 c8885: y_16 + y_25 + y_40 + y_50 + y_54 + y_66 + y_77 + y_87 + y_92 - z_8884
         >= 0
 c8886: y_31 + y_37 + y_89 - z_8885 >= 0
 c8887: y_22 + y_56 + y_65 - z_8886 >= 0
 c8888: y_9 + y_26 + y_67 + y_69 + y_71 + y_97 - z_8887 >= 0
 c8889: y_10 + y_12 + y_57 + y_72 + y_88 - z_8888 >= 0
 c8890: y_25 + y_29 + y_35 + y_77 - z_8889 >= 0
 c8891: y_11 + y_24 + y_30 + y_43 + y_52 + y_59 + y_68 + y_70 - z_8890 >= 0
 c8892: y_16 + y_39 + y_40 + y_42 + y_54 + y_55 + y_63 + y_64 - z_8891 >= 0
 c8893: y_9 + y_11 + y_67 + y_68 + y_69 + y_97 - z_8892 >= 0
 c8894: y_4 + y_6 + y_12 + y_22 + y_32 + y_88 - z_8893 >= 0
 c8895: y_50 + y_56 + y_58 - z_8894 >= 0
 c8896: y_16 + y_39 + y_40 + y_54 + y_55 + y_63 + y_66 + y_87 - z_8895 >= 0
 c8897: y_13 + y_57 + y_60 + y_65 + y_72 + y_78 - z_8896 >= 0
 c8898: y_3 + y_5 + y_19 + y_33 + y_34 + y_38 + y_44 + y_90 - z_8897 >= 0
 c8899: y_40 + y_54 + y_66 + y_87 + y_92 - z_8898 >= 0
 c8900: y_16 + y_39 + y_40 + y_54 + y_55 + y_63 + y_64 + y_66 + y_87 - z_8899
         >= 0
 c8901: y_3 + y_4 + y_19 + y_33 + y_38 + y_44 + y_90 - z_8900 >= 0
 c8902: y_11 + y_67 + y_68 + y_69 + y_97 - z_8901 >= 0
 c8903: y_2 + y_14 + y_82 + y_83 + y_84 + y_85 - z_8902 >= 0
 c8904: y_29 - z_8903 >= 0
 c8905: y_3 + y_15 + y_18 + y_20 + y_21 + y_33 + y_36 + y_41 + y_47 + y_48
        + y_61 + y_79 + y_93 + y_95 - z_8904 >= 0
 c8906: y_9 + y_26 + y_67 + y_71 - z_8905 >= 0
 c8907: y_1 + y_23 + y_31 + y_46 + y_49 + y_73 + y_89 + y_98 + y_99 - z_8906
         >= 0
 c8908: y_1 + y_7 + y_23 + y_31 + y_37 + y_51 + y_62 + y_73 + y_89 + y_98 + y_99
        - z_8907 >= 0
 c8909: y_25 + y_29 + y_35 + y_50 + y_56 + y_66 + y_77 + y_87 - z_8908 >= 0
 c8910: y_30 + y_43 + y_59 + y_94 - z_8909 >= 0
 c8911: y_15 + y_18 + y_21 + y_36 + y_41 + y_47 + y_48 + y_79 + y_95 - z_8910
         >= 0
 c8912: y_3 + y_9 + y_19 + y_26 + y_38 + y_44 + y_67 + y_69 - z_8911 >= 0
 c8913: y_9 + y_26 + y_67 + y_69 + y_71 - z_8912 >= 0
 c8914: y_3 + y_19 + y_21 + y_33 + y_36 + y_38 + y_41 + y_44 + y_47 + y_48
        + y_61 + y_79 - z_8913 >= 0
 c8915: y_83 + y_85 + y_92 - z_8914 >= 0
 c8916: y_13 + y_28 + y_60 + y_76 + y_78 + y_81 - z_8915 >= 0
 c8917: y_40 + y_87 + y_92 - z_8916 >= 0
 c8918: y_1 + y_37 + y_73 + y_96 + y_99 - z_8917 >= 0
 c8919: y_13 + y_57 + y_65 + y_72 - z_8918 >= 0
 c8920: y_1 + y_73 + y_96 - z_8919 >= 0
 c8921: y_11 + y_24 + y_52 + y_59 + y_68 + y_70 + y_86 + y_97 - z_8920 >= 0
 c8922: y_3 + y_11 + y_19 + y_21 + y_30 + y_33 + y_38 + y_43 + y_48 + y_52
        + y_59 - z_8921 >= 0
 c8923: y_40 + y_54 + y_66 + y_87 + y_92 - z_8922 >= 0
 c8924: y_16 + y_40 + y_54 + y_66 + y_87 + y_92 - z_8923 >= 0
 c8925: y_21 + y_30 + y_36 + y_41 + y_43 + y_47 + y_94 - z_8924 >= 0
 c8926: y_11 + y_19 + y_26 + y_38 + y_43 + y_52 + y_59 + y_67 + y_68 + y_69
        - z_8925 >= 0
 c8927: y_0 + y_27 + y_42 + y_55 + y_64 - z_8926 >= 0
 c8928: y_18 + y_21 + y_36 + y_41 + y_47 + y_95 - z_8927 >= 0
 c8929: y_11 + y_24 + y_52 + y_59 + y_68 + y_70 + y_86 + y_97 - z_8928 >= 0
 c8930: y_1 + y_23 + y_31 + y_73 + y_89 + y_98 + y_99 - z_8929 >= 0
 c8931: y_7 + y_23 + y_31 + y_51 + y_62 + y_89 + y_98 + y_99 - z_8930 >= 0
 c8932: y_37 + y_45 - z_8931 >= 0
 c8933: y_11 + y_67 + y_68 + y_69 + y_97 - z_8932 >= 0
 c8934: y_22 + y_57 + y_65 + y_72 - z_8933 >= 0
 c8935: y_2 + y_14 + y_82 + y_83 + y_84 + y_85 - z_8934 >= 0
 c8936: y_83 + y_84 + y_85 - z_8935 >= 0
 c8937: y_2 + y_14 + y_82 + y_83 + y_84 - z_8936 >= 0
 c8938: y_37 + y_45 + y_73 - z_8937 >= 0
 c8939: y_4 + y_5 + y_6 + y_32 + y_44 + y_90 - z_8938 >= 0
 c8940: y_37 + y_45 + y_73 + y_96 - z_8939 >= 0
 c8941: y_25 + y_29 + y_35 + y_77 - z_8940 >= 0
 c8942: y_56 + y_58 - z_8941 >= 0
 c8943: y_15 + y_18 + y_21 + y_36 + y_41 + y_47 + y_95 - z_8942 >= 0
 c8944: y_4 + y_6 + y_32 + y_90 - z_8943 >= 0
 c8945: y_2 + y_83 + y_85 - z_8944 >= 0
 c8946: y_3 + y_19 + y_33 + y_38 + y_44 + y_48 + y_79 - z_8945 >= 0
 c8947: y_10 + y_12 + y_57 + y_72 + y_78 + y_81 + y_88 - z_8946 >= 0
 c8948: y_29 + y_65 - z_8947 >= 0
 c8949: y_9 + y_26 + y_67 + y_68 + y_69 + y_97 - z_8948 >= 0
 c8950: y_29 - z_8949 >= 0
 c8951: y_0 + y_16 + y_39 + y_40 + y_42 + y_54 + y_55 + y_63 + y_64 - z_8950
         >= 0
 c8952: y_9 + y_11 + y_26 + y_67 + y_68 + y_69 + y_97 - z_8951 >= 0
 c8953: y_25 + y_29 + y_35 + y_77 - z_8952 >= 0
 c8954: y_3 + y_19 + y_21 + y_33 + y_36 + y_38 + y_41 + y_44 + y_47 + y_48
        + y_79 - z_8953 >= 0
 c8955: y_16 + y_40 + y_50 + y_54 + y_66 + y_87 - z_8954 >= 0
 c8956: y_25 + y_29 + y_35 + y_50 + y_56 + y_77 + y_87 - z_8955 >= 0
 c8957: y_30 + y_43 + y_52 + y_59 + y_94 - z_8956 >= 0
 c8958: y_3 + y_5 + y_15 + y_20 + y_33 + y_34 + y_44 + y_48 + y_61 + y_79 + y_80
        + y_93 - z_8957 >= 0
 c8959: y_7 + y_31 + y_37 + y_51 + y_62 + y_89 + y_99 - z_8958 >= 0
 c8960: y_3 + y_11 + y_19 + y_26 + y_33 + y_38 + y_43 + y_44 + y_67 + y_68
        + y_69 - z_8959 >= 0
 c8961: y_37 + y_45 - z_8960 >= 0
 c8962: y_25 + y_29 + y_35 + y_77 - z_8961 >= 0
 c8963: y_1 + y_7 + y_23 + y_31 + y_51 + y_62 + y_89 + y_98 + y_99 - z_8962 >= 
        0
 c8964: y_24 + y_30 + y_43 + y_52 + y_59 + y_70 - z_8963 >= 0
 c8965: y_5 + y_17 + y_53 + y_58 + y_91 - z_8964 >= 0
 c8966: y_10 + y_78 + y_81 - z_8965 >= 0
 c8967: y_2 + y_40 + y_83 + y_85 + y_92 - z_8966 >= 0
 c8968: y_10 + y_78 + y_81 - z_8967 >= 0
 c8969: y_12 + y_22 + y_57 + y_72 + y_88 - z_8968 >= 0
 c8970: y_11 + y_26 + y_52 + y_67 + y_68 + y_69 + y_97 - z_8969 >= 0
 c8971: y_5 + y_8 + y_17 + y_34 - z_8970 >= 0
 c8972: y_1 + y_7 + y_23 + y_31 + y_51 + y_73 + y_89 + y_98 + y_99 - z_8971 >= 
        0
 c8973: y_16 + y_39 + y_50 + y_54 + y_56 + y_58 + y_66 + y_87 - z_8972 >= 0
 c8974: y_17 + y_53 + y_58 + y_91 - z_8973 >= 0
 c8975: y_11 + y_24 + y_52 + y_59 + y_67 + y_68 + y_69 + y_70 + y_97 - z_8974
         >= 0
 c8976: - z_8975 >= 0
 c8977: y_3 + y_15 + y_19 + y_20 + y_21 + y_33 + y_38 + y_41 + y_44 + y_47
        + y_48 + y_61 + y_79 + y_93 - z_8976 >= 0
 c8978: y_10 + y_12 + y_57 + y_72 + y_78 + y_88 - z_8977 >= 0
 c8979: y_16 + y_39 + y_40 + y_54 + y_55 + y_63 + y_64 + y_66 + y_87 - z_8978
         >= 0
 c8980: y_57 + y_65 + y_72 - z_8979 >= 0
 c8981: y_0 + y_27 + y_42 + y_55 + y_64 - z_8980 >= 0
 c8982: y_5 + y_34 - z_8981 >= 0
 c8983: y_5 + y_6 + y_58 + y_90 - z_8982 >= 0
 c8984: y_37 + y_45 - z_8983 >= 0
 c8985: y_83 + y_85 - z_8984 >= 0
 c8986: y_4 + y_6 + y_22 + y_32 + y_90 - z_8985 >= 0
 c8987: y_16 + y_25 + y_40 + y_50 + y_54 + y_66 + y_87 + y_92 - z_8986 >= 0
 c8988: y_57 + y_65 + y_72 - z_8987 >= 0
 c8989: y_15 + y_18 + y_20 + y_21 + y_33 + y_36 + y_41 + y_47 + y_48 + y_61
        + y_79 + y_80 + y_93 + y_95 - z_8988 >= 0
 c8990: y_8 + y_17 + y_96 - z_8989 >= 0
 c8991: y_46 + y_49 + y_74 + y_95 - z_8990 >= 0
 c8992: y_35 + y_40 + y_87 + y_92 - z_8991 >= 0
 c8993: y_1 + y_8 + y_46 + y_49 + y_73 + y_75 + y_99 - z_8992 >= 0
 c8994: y_6 + y_22 - z_8993 >= 0
 c8995: y_9 + y_26 + y_67 + y_69 + y_71 + y_97 - z_8994 >= 0
 c8996: y_15 + y_20 + y_46 + y_49 + y_74 + y_75 + y_80 + y_93 + y_95 - z_8995
         >= 0
 c8997: y_2 + y_14 + y_82 + y_83 + y_84 + y_85 - z_8996 >= 0
 c8998: y_58 + y_91 - z_8997 >= 0
 c8999: y_16 + y_17 + y_39 + y_53 + y_54 + y_58 + y_63 + y_91 - z_8998 >= 0
 c9000: y_27 - z_8999 >= 0
 c9001: y_22 + y_56 - z_9000 >= 0
 c9002: y_83 + y_84 + y_85 - z_9001 >= 0
 c9003: y_25 + y_29 + y_35 + y_50 + y_56 + y_66 + y_77 + y_87 - z_9002 >= 0
 c9004: y_13 - z_9003 >= 0
 c9005: y_7 + y_31 + y_51 + y_62 + y_89 + y_99 - z_9004 >= 0
 c9006: y_5 + y_8 + y_17 + y_34 + y_75 + y_80 + y_96 - z_9005 >= 0
 c9007: y_0 + y_2 + y_27 + y_42 + y_55 + y_64 - z_9006 >= 0
 c9008: y_8 + y_17 + y_96 - z_9007 >= 0
 c9009: y_13 + y_28 + y_60 + y_76 + y_78 + y_81 - z_9008 >= 0
 c9010: y_10 + y_13 + y_28 + y_60 + y_76 + y_78 + y_81 - z_9009 >= 0
 c9011: y_8 + y_17 + y_96 - z_9010 >= 0
 c9012: y_97 - z_9011 >= 0
 c9013: y_17 + y_53 + y_63 + y_91 + y_96 - z_9012 >= 0
 c9014: y_10 + y_57 + y_72 + y_78 + y_81 + y_88 - z_9013 >= 0
 c9015: y_83 + y_84 + y_85 - z_9014 >= 0
 c9016: y_0 + y_16 + y_39 + y_42 + y_54 + y_55 + y_63 + y_64 - z_9015 >= 0
 c9017: y_4 + y_5 + y_6 + y_33 + y_34 + y_44 + y_90 - z_9016 >= 0
 c9018: y_21 + y_30 + y_36 + y_41 + y_43 + y_47 + y_48 + y_94 - z_9017 >= 0
 c9019: y_96 - z_9018 >= 0
 c9020: y_31 + y_37 + y_73 + y_89 + y_99 - z_9019 >= 0
 c9021: y_5 + y_6 + y_90 - z_9020 >= 0
 c9022: y_22 + y_50 + y_56 + y_65 - z_9021 >= 0
 c9023: y_83 + y_85 + y_92 - z_9022 >= 0
 c9024: y_7 + y_23 + y_31 + y_51 + y_62 + y_89 + y_98 + y_99 - z_9023 >= 0
 c9025: y_11 + y_24 + y_30 + y_43 + y_52 + y_59 + y_68 + y_70 - z_9024 >= 0
 c9026: y_24 + y_52 + y_70 + y_86 - z_9025 >= 0
 c9027: y_25 + y_29 + y_35 + y_77 - z_9026 >= 0
 c9028: y_16 + y_50 + y_54 + y_56 + y_66 + y_87 - z_9027 >= 0
 c9029: y_5 + y_8 + y_17 + y_34 + y_80 + y_93 - z_9028 >= 0
 c9030: y_17 + y_39 + y_53 + y_58 + y_91 - z_9029 >= 0
 c9031: y_16 + y_39 + y_40 + y_54 + y_55 + y_63 + y_64 + y_66 + y_87 - z_9030
         >= 0
 c9032: y_40 + y_85 + y_92 - z_9031 >= 0
 c9033: y_2 + y_83 + y_84 + y_85 - z_9032 >= 0
 c9034: y_37 + y_45 - z_9033 >= 0
 c9035: y_46 + y_49 + y_74 + y_95 - z_9034 >= 0
 c9036: y_25 + y_29 + y_35 + y_50 + y_56 + y_77 - z_9035 >= 0
 c9037: y_3 + y_15 + y_20 + y_21 + y_33 + y_36 + y_41 + y_47 + y_48 + y_61
        + y_79 + y_93 + y_95 - z_9036 >= 0
 c9038: y_50 + y_56 + y_65 - z_9037 >= 0
 c9039: y_0 + y_2 + y_14 + y_27 + y_42 + y_82 - z_9038 >= 0
 c9040: y_13 + y_28 + y_60 + y_72 + y_76 + y_78 + y_81 - z_9039 >= 0
 c9041: y_13 + y_57 + y_60 + y_65 + y_72 + y_76 - z_9040 >= 0
 c9042: y_31 + y_37 + y_89 - z_9041 >= 0
 c9043: y_4 + y_9 + y_26 + y_32 + y_71 - z_9042 >= 0
 c9044: y_37 + y_45 + y_89 - z_9043 >= 0
 c9045: y_4 + y_9 + y_12 + y_32 + y_71 + y_88 - z_9044 >= 0
 c9046: y_11 + y_24 + y_43 + y_52 + y_59 + y_67 + y_68 + y_69 + y_70 - z_9045
         >= 0
 c9047: y_1 + y_23 + y_31 + y_49 + y_74 + y_98 + y_99 - z_9046 >= 0
 c9048: y_37 + y_45 + y_73 + y_89 - z_9047 >= 0
 c9049: y_24 + y_52 + y_70 + y_86 + y_97 - z_9048 >= 0
 c9050: y_3 + y_4 + y_5 + y_6 + y_19 + y_33 + y_38 + y_44 + y_90 - z_9049 >= 0
 c9051: y_1 + y_23 + y_31 + y_73 + y_89 + y_98 + y_99 - z_9050 >= 0
 c9052: y_40 + y_42 + y_55 + y_64 - z_9051 >= 0
 c9053: y_16 + y_40 + y_54 + y_66 + y_87 + y_92 - z_9052 >= 0
 c9054: y_5 + y_34 + y_90 - z_9053 >= 0
 c9055: y_5 + y_34 + y_44 + y_61 + y_90 - z_9054 >= 0
 c9056: y_1 + y_8 + y_73 + y_75 + y_80 + y_96 - z_9055 >= 0
 c9057: y_1 + y_73 + y_96 - z_9056 >= 0
 c9058: y_15 + y_18 + y_21 + y_36 + y_41 + y_47 - z_9057 >= 0
 c9059: y_4 + y_12 + y_22 + y_32 + y_88 - z_9058 >= 0
 c9060: y_16 + y_17 + y_39 + y_53 + y_58 + y_63 + y_64 + y_91 - z_9059 >= 0
 c9061: y_7 + y_31 + y_37 + y_51 + y_62 + y_89 + y_99 - z_9060 >= 0
 c9062: y_3 + y_11 + y_19 + y_26 + y_33 + y_38 + y_44 + y_67 + y_68 + y_69
        - z_9061 >= 0
 c9063: y_40 + y_83 + y_85 + y_92 - z_9062 >= 0
 c9064: y_3 + y_15 + y_20 + y_21 + y_33 + y_34 + y_41 + y_44 + y_48 + y_61
        + y_79 + y_80 + y_93 - z_9063 >= 0
 c9065: y_11 + y_52 + y_67 + y_68 + y_69 + y_86 + y_97 - z_9064 >= 0
 c9066: y_3 + y_15 + y_20 + y_21 + y_33 + y_36 + y_41 + y_47 + y_48 + y_61
        + y_79 + y_93 - z_9065 >= 0
 c9067: y_16 + y_25 + y_40 + y_50 + y_54 + y_66 + y_77 + y_87 + y_92 - z_9066
         >= 0
 c9068: y_10 + y_57 + y_60 + y_72 + y_76 + y_78 + y_81 - z_9067 >= 0
 c9069: y_4 + y_6 + y_32 + y_44 + y_90 - z_9068 >= 0
 c9070: y_1 + y_23 + y_31 + y_37 + y_73 + y_89 + y_98 + y_99 - z_9069 >= 0
 c9071: y_4 + y_9 + y_12 + y_26 + y_32 + y_71 - z_9070 >= 0
 c9072: y_15 + y_18 + y_36 + y_41 + y_47 + y_74 + y_95 - z_9071 >= 0
 c9073: y_30 + y_43 + y_52 + y_59 + y_94 - z_9072 >= 0
 c9074: y_0 + y_27 + y_45 - z_9073 >= 0
 c9075: y_5 + y_6 + y_34 + y_44 + y_90 - z_9074 >= 0
 c9076: y_0 + y_27 + y_42 + y_55 + y_64 - z_9075 >= 0
 c9077: y_25 + y_29 + y_35 + y_50 + y_56 + y_77 + y_87 - z_9076 >= 0
 c9078: y_10 + y_13 + y_57 + y_60 + y_72 + y_76 + y_78 + y_81 - z_9077 >= 0
 c9079: y_4 + y_6 + y_26 + y_32 + y_44 + y_90 - z_9078 >= 0
 c9080: y_10 + y_78 - z_9079 >= 0
 c9081: y_6 + y_22 + y_90 - z_9080 >= 0
 c9082: y_24 + y_30 + y_43 + y_52 + y_59 + y_70 + y_94 - z_9081 >= 0
 c9083: y_16 + y_39 + y_40 + y_54 + y_66 + y_87 - z_9082 >= 0
 c9084: y_30 + y_43 + y_59 + y_94 - z_9083 >= 0
 c9085: y_40 + y_83 + y_85 + y_92 - z_9084 >= 0
 c9086: y_85 - z_9085 >= 0
 c9087: y_16 + y_39 + y_53 + y_54 + y_58 + y_63 + y_64 + y_66 + y_91 - z_9086
         >= 0
 c9088: y_7 + y_31 + y_37 + y_51 + y_62 + y_89 + y_99 - z_9087 >= 0
 c9089: y_19 + y_21 + y_30 + y_36 + y_41 + y_43 + y_47 + y_48 + y_59 + y_94
        - z_9088 >= 0
 c9090: y_3 + y_19 + y_26 + y_33 + y_38 + y_44 + y_48 + y_67 + y_69 - z_9089
         >= 0
 c9091: y_25 + y_29 + y_35 + y_50 + y_56 + y_66 + y_77 + y_87 - z_9090 >= 0
 c9092: y_13 + y_28 + y_60 + y_76 - z_9091 >= 0
 c9093: y_22 + y_57 + y_65 + y_72 - z_9092 >= 0
 c9094: y_4 + y_6 + y_9 + y_26 + y_32 + y_90 - z_9093 >= 0
 c9095: y_0 + y_2 + y_27 + y_42 + y_55 + y_64 - z_9094 >= 0
 c9096: y_2 + y_14 + y_27 + y_42 + y_55 + y_82 + y_83 - z_9095 >= 0
 c9097: y_40 + y_85 + y_92 - z_9096 >= 0
 c9098: y_12 + y_22 + y_57 + y_88 - z_9097 >= 0
 c9099: y_4 + y_6 + y_32 + y_90 - z_9098 >= 0
 c9100: y_29 + y_65 - z_9099 >= 0
 c9101: y_25 + y_35 + y_40 + y_50 + y_66 + y_77 + y_87 + y_92 - z_9100 >= 0
 c9102: y_10 + y_13 + y_57 + y_60 + y_72 + y_76 + y_78 + y_81 - z_9101 >= 0
 c9103: y_25 + y_29 + y_35 + y_50 + y_56 + y_77 - z_9102 >= 0
 c9104: y_11 + y_67 + y_68 + y_69 + y_97 - z_9103 >= 0
 c9105: y_10 - z_9104 >= 0
 c9106: y_5 + y_6 + y_17 + y_34 + y_90 + y_91 - z_9105 >= 0
 c9107: y_5 + y_20 + y_34 + y_61 + y_80 + y_93 - z_9106 >= 0
 c9108: y_8 + y_15 + y_20 + y_34 + y_46 + y_61 + y_75 + y_79 + y_80 + y_93
        + y_95 - z_9107 >= 0
 c9109: y_1 + y_7 + y_23 + y_31 + y_37 + y_51 + y_62 + y_89 + y_98 + y_99
        - z_9108 >= 0
 c9110: y_3 + y_19 + y_21 + y_33 + y_38 + y_41 + y_44 + y_48 + y_61 + y_79
        - z_9109 >= 0
 c9111: y_10 + y_57 + y_60 + y_72 + y_76 + y_78 + y_81 - z_9110 >= 0
 c9112: y_11 + y_24 + y_52 + y_68 + y_70 + y_86 + y_97 - z_9111 >= 0
 c9113: y_22 + y_56 + y_57 + y_65 - z_9112 >= 0
 c9114: y_4 + y_9 + y_26 + y_32 + y_38 + y_67 + y_69 - z_9113 >= 0
 c9115: y_17 + y_96 - z_9114 >= 0
 c9116: y_0 + y_27 + y_39 + y_42 + y_55 + y_63 + y_64 - z_9115 >= 0
 c9117: y_1 + y_23 + y_46 + y_49 + y_74 + y_75 + y_95 - z_9116 >= 0
 c9118: y_25 + y_29 + y_35 + y_40 + y_50 + y_66 + y_77 + y_87 + y_92 - z_9117
         >= 0
 c9119: y_37 + y_45 - z_9118 >= 0
 c9120: y_83 + y_84 + y_85 - z_9119 >= 0
 c9121: y_27 - z_9120 >= 0
 c9122: y_5 + y_17 + y_53 + y_58 + y_91 - z_9121 >= 0
 c9123: y_10 + y_13 + y_28 + y_60 + y_76 + y_78 + y_81 - z_9122 >= 0
 c9124: y_21 + y_30 + y_36 + y_43 + y_47 + y_94 - z_9123 >= 0
 c9125: y_37 + y_45 - z_9124 >= 0
 c9126: y_40 + y_92 - z_9125 >= 0
 c9127: y_31 + y_37 + y_73 + y_89 + y_99 - z_9126 >= 0
 c9128: y_2 + y_14 + y_27 + y_42 + y_55 + y_82 + y_83 - z_9127 >= 0
 c9129: y_2 + y_14 + y_82 + y_83 + y_84 + y_85 - z_9128 >= 0
 c9130: y_1 + y_31 + y_37 + y_73 + y_89 + y_99 - z_9129 >= 0
 c9131: y_8 + y_17 + y_34 + y_75 + y_80 + y_96 - z_9130 >= 0
 c9132: y_10 + y_12 + y_57 + y_72 + y_78 + y_88 - z_9131 >= 0
 c9133: y_5 + y_8 + y_20 + y_34 + y_61 + y_75 + y_80 + y_93 - z_9132 >= 0
 c9134: y_5 + y_6 + y_90 - z_9133 >= 0
 c9135: y_22 + y_65 - z_9134 >= 0
 c9136: y_16 + y_39 + y_50 + y_54 + y_56 + y_58 + y_66 - z_9135 >= 0
 c9137: y_40 + y_83 + y_85 + y_92 - z_9136 >= 0
 c9138: y_1 + y_23 + y_31 + y_37 + y_73 + y_89 + y_98 + y_99 - z_9137 >= 0
 c9139: y_13 + y_57 + y_60 + y_65 + y_72 + y_76 - z_9138 >= 0
 c9140: y_40 + y_92 - z_9139 >= 0
 c9141: y_0 + y_27 + y_42 + y_55 + y_63 + y_64 - z_9140 >= 0
 c9142: y_9 + y_11 + y_19 + y_26 + y_38 + y_67 + y_68 + y_69 - z_9141 >= 0
 c9143: y_13 + y_28 + y_60 + y_76 - z_9142 >= 0
 c9144: y_2 + y_14 + y_82 + y_83 + y_84 + y_85 - z_9143 >= 0
 c9145: y_11 + y_24 + y_43 + y_52 + y_59 + y_67 + y_68 + y_69 + y_70 - z_9144
         >= 0
 c9146: y_1 + y_7 + y_31 + y_37 + y_73 + y_89 + y_99 - z_9145 >= 0
 c9147: y_18 + y_36 + y_41 + y_47 - z_9146 >= 0
 c9148: y_13 + y_28 + y_60 + y_76 + y_81 - z_9147 >= 0
 c9149: y_17 + y_53 + y_91 + y_96 - z_9148 >= 0
 c9150: y_18 + y_36 + y_47 + y_49 + y_74 + y_95 - z_9149 >= 0
 c9151: y_2 + y_82 + y_83 + y_84 + y_85 - z_9150 >= 0
 c9152: y_3 + y_4 + y_19 + y_26 + y_32 + y_33 + y_38 + y_44 + y_90 - z_9151 >= 
        0
 c9153: y_13 + y_60 + y_72 + y_76 - z_9152 >= 0
 c9154: y_58 + y_91 - z_9153 >= 0
 c9155: y_57 + y_65 + y_72 - z_9154 >= 0
 c9156: y_25 + y_29 + y_35 + y_77 + y_87 - z_9155 >= 0
 c9157: y_8 + y_20 + y_34 + y_75 + y_80 + y_93 + y_96 - z_9156 >= 0
 c9158: y_1 + y_23 + y_31 + y_73 + y_89 + y_98 + y_99 - z_9157 >= 0
 c9159: y_1 + y_8 + y_73 + y_75 + y_96 + y_99 - z_9158 >= 0
 c9160: y_7 + y_31 + y_51 + y_62 + y_89 + y_98 + y_99 - z_9159 >= 0
 c9161: y_15 + y_20 + y_46 + y_49 + y_74 + y_75 + y_80 + y_93 + y_95 - z_9160
         >= 0
 c9162: y_40 + y_87 + y_92 - z_9161 >= 0
 c9163: y_1 + y_23 + y_31 + y_37 + y_73 + y_89 + y_98 + y_99 - z_9162 >= 0
 c9164: y_9 + y_12 + y_32 + y_71 - z_9163 >= 0
 c9165: y_3 + y_5 + y_19 + y_33 + y_38 + y_44 + y_48 - z_9164 >= 0
 c9166: y_16 + y_50 + y_54 + y_56 + y_66 + y_87 - z_9165 >= 0
 c9167: y_1 + y_23 + y_31 + y_73 + y_89 + y_98 + y_99 - z_9166 >= 0
 c9168: y_7 + y_51 + y_62 + y_98 - z_9167 >= 0
 c9169: y_0 + y_27 + y_42 - z_9168 >= 0
 c9170: y_50 + y_56 + y_65 - z_9169 >= 0
 c9171: y_15 + y_18 + y_46 + y_49 + y_74 + y_95 - z_9170 >= 0
 c9172: y_22 + y_57 + y_65 + y_72 - z_9171 >= 0
 c9173: y_25 + y_35 + y_40 + y_77 + y_87 + y_92 - z_9172 >= 0
 c9174: y_10 + y_12 + y_88 - z_9173 >= 0
 c9175: y_23 + y_98 - z_9174 >= 0
 c9176: y_6 + y_22 + y_32 + y_88 - z_9175 >= 0
 c9177: y_83 + y_85 - z_9176 >= 0
 c9178: y_5 + y_8 + y_15 + y_20 + y_34 + y_61 + y_75 + y_79 + y_80 + y_93
        - z_9177 >= 0
 c9179: y_73 + y_96 - z_9178 >= 0
 c9180: y_13 + y_57 + y_60 + y_65 + y_72 - z_9179 >= 0
 c9181: y_3 + y_19 + y_33 + y_38 + y_44 + y_48 + y_79 - z_9180 >= 0
 c9182: y_25 + y_29 + y_35 + y_50 + y_56 + y_77 - z_9181 >= 0
 c9183: y_16 + y_39 + y_53 + y_54 + y_58 + y_63 + y_91 - z_9182 >= 0
 c9184: y_9 + y_12 + y_71 + y_88 - z_9183 >= 0
 c9185: y_0 + y_96 - z_9184 >= 0
 c9186: y_16 + y_17 + y_39 + y_53 + y_54 + y_55 + y_58 + y_63 + y_64 + y_91
        - z_9185 >= 0
 c9187: y_18 + y_21 + y_36 + y_41 + y_47 + y_48 + y_79 + y_94 - z_9186 >= 0
 c9188: y_25 + y_35 + y_77 + y_92 - z_9187 >= 0
 c9189: y_37 + y_45 - z_9188 >= 0
 c9190: y_3 + y_15 + y_19 + y_20 + y_21 + y_33 + y_36 + y_41 + y_44 + y_47
        + y_48 + y_61 + y_79 + y_93 - z_9189 >= 0
 c9191: y_8 + y_20 + y_34 + y_61 + y_75 + y_80 + y_93 - z_9190 >= 0
 c9192: y_4 + y_12 + y_22 + y_32 + y_88 - z_9191 >= 0
 c9193: y_1 + y_8 + y_46 + y_73 + y_75 + y_96 - z_9192 >= 0
 c9194: y_4 + y_9 + y_12 + y_26 + y_32 + y_71 + y_88 - z_9193 >= 0
 c9195: y_6 + y_22 - z_9194 >= 0
 c9196: y_1 + y_8 + y_73 + y_75 + y_80 + y_96 - z_9195 >= 0
 c9197: y_13 + y_57 + y_60 + y_72 + y_76 + y_78 + y_81 - z_9196 >= 0
 c9198: y_1 + y_37 + y_73 + y_89 + y_96 + y_99 - z_9197 >= 0
 c9199: y_18 + y_36 + y_47 + y_74 + y_95 - z_9198 >= 0
 c9200: y_12 + y_22 + y_57 + y_72 + y_88 - z_9199 >= 0
 c9201: y_15 + y_18 + y_20 + y_21 + y_36 + y_41 + y_47 + y_48 + y_61 + y_79
        + y_93 + y_95 - z_9200 >= 0
 c9202: y_1 + y_23 + y_46 + y_49 + y_74 + y_98 - z_9201 >= 0
 c9203: y_0 + y_27 + y_42 + y_55 + y_64 - z_9202 >= 0
 c9204: y_7 + y_31 + y_37 + y_51 + y_62 + y_89 + y_99 - z_9203 >= 0
 c9205: y_10 - z_9204 >= 0
 c9206: y_8 + y_17 + y_34 + y_75 + y_96 - z_9205 >= 0
 c9207: y_11 + y_24 + y_52 + y_59 + y_68 + y_70 + y_86 + y_97 - z_9206 >= 0
 c9208: y_11 + y_52 + y_59 + y_67 + y_68 + y_69 + y_97 - z_9207 >= 0
 c9209: y_16 + y_39 + y_40 + y_50 + y_54 + y_66 + y_87 - z_9208 >= 0
 c9210: y_21 + y_30 + y_36 + y_43 + y_47 + y_94 - z_9209 >= 0
 c9211: y_92 - z_9210 >= 0
 c9212: y_1 + y_8 + y_46 + y_49 + y_74 + y_75 + y_80 + y_95 - z_9211 >= 0
 c9213: y_4 + y_9 + y_26 + y_32 + y_71 - z_9212 >= 0
 c9214: y_5 + y_8 + y_15 + y_20 + y_34 + y_61 + y_75 + y_79 + y_80 + y_93
        - z_9213 >= 0
 c9215: y_5 + y_8 + y_15 + y_20 + y_34 + y_61 + y_75 + y_79 + y_80 + y_93
        - z_9214 >= 0
 c9216: y_13 + y_28 + y_60 + y_76 + y_81 - z_9215 >= 0
 c9217: y_8 + y_15 + y_20 + y_46 + y_49 + y_61 + y_75 + y_80 + y_93 + y_95
        - z_9216 >= 0
 c9218: y_0 + y_27 + y_45 - z_9217 >= 0
 c9219: y_11 + y_24 + y_30 + y_43 + y_52 + y_59 + y_68 + y_70 - z_9218 >= 0
 c9220: y_65 + y_72 - z_9219 >= 0
 c9221: y_19 + y_21 + y_30 + y_43 + y_52 + y_59 + y_94 - z_9220 >= 0
 c9222: y_0 + y_27 + y_42 + y_55 + y_63 + y_64 - z_9221 >= 0
 c9223: y_1 + y_23 + y_31 + y_46 + y_49 + y_74 + y_98 + y_99 - z_9222 >= 0
 c9224: y_12 + y_57 + y_72 + y_88 - z_9223 >= 0
 c9225: y_12 + y_32 + y_71 + y_88 - z_9224 >= 0
 c9226: y_3 + y_19 + y_21 + y_33 + y_38 + y_41 + y_43 + y_48 + y_79 - z_9225
         >= 0
 c9227: y_25 + y_29 + y_35 + y_77 - z_9226 >= 0
 c9228: y_8 + y_17 + y_75 + y_96 - z_9227 >= 0
 c9229: y_16 + y_25 + y_40 + y_50 + y_54 + y_56 + y_66 + y_77 + y_87 - z_9228
         >= 0
 c9230: y_29 - z_9229 >= 0
 c9231: y_0 + y_27 + y_42 - z_9230 >= 0
 c9232: y_4 + y_9 + y_26 + y_32 + y_71 - z_9231 >= 0
 c9233: y_13 + y_60 + y_76 - z_9232 >= 0
 c9234: y_10 - z_9233 >= 0
 c9235: y_10 + y_78 + y_81 - z_9234 >= 0
 c9236: y_16 + y_39 + y_50 + y_54 + y_56 + y_58 + y_66 + y_87 - z_9235 >= 0
 c9237: y_12 + y_22 + y_57 + y_72 + y_88 - z_9236 >= 0
 c9238: y_18 + y_46 + y_49 + y_74 + y_95 - z_9237 >= 0
 c9239: y_3 + y_11 + y_19 + y_26 + y_38 + y_43 + y_52 + y_67 + y_68 + y_69
        - z_9238 >= 0
 c9240: y_6 + y_22 - z_9239 >= 0
 c9241: y_4 + y_9 + y_19 + y_26 + y_32 + y_38 + y_44 + y_67 + y_69 - z_9240 >= 
        0
 c9242: y_3 + y_9 + y_11 + y_19 + y_26 + y_38 + y_44 + y_67 + y_68 + y_69
        - z_9241 >= 0
 c9243: y_46 + y_49 + y_74 + y_75 + y_95 - z_9242 >= 0
 c9244: y_50 + y_56 + y_65 - z_9243 >= 0
 c9245: y_9 + y_11 + y_26 + y_67 + y_68 + y_69 + y_97 - z_9244 >= 0
 c9246: y_29 - z_9245 >= 0
 c9247: y_12 + y_71 + y_88 - z_9246 >= 0
 c9248: y_16 + y_39 + y_53 + y_54 + y_58 + y_63 + y_66 + y_91 - z_9247 >= 0
 c9249: y_5 + y_17 + y_34 + y_91 - z_9248 >= 0
 c9250: y_17 + y_96 - z_9249 >= 0
 c9251: y_0 + y_2 + y_14 + y_27 + y_42 + y_55 - z_9250 >= 0
 c9252: y_83 + y_85 - z_9251 >= 0
 c9253: y_17 + y_39 + y_53 + y_58 + y_63 + y_91 - z_9252 >= 0
 c9254: y_11 + y_24 + y_52 + y_68 + y_70 + y_86 + y_97 - z_9253 >= 0
 c9255: y_12 + y_22 + y_57 + y_65 + y_72 + y_88 - z_9254 >= 0
 c9256: y_4 + y_12 + y_32 + y_88 - z_9255 >= 0
 c9257: y_71 - z_9256 >= 0
 c9258: y_4 + y_9 + y_19 + y_26 + y_38 + y_67 + y_69 - z_9257 >= 0
 c9259: y_4 + y_6 + y_32 + y_44 + y_90 - z_9258 >= 0
 c9260: y_0 + y_27 + y_42 - z_9259 >= 0
 c9261: y_22 + y_57 + y_65 + y_72 - z_9260 >= 0
 c9262: y_6 + y_58 - z_9261 >= 0
 c9263: y_92 - z_9262 >= 0
 c9264: y_16 + y_40 + y_42 + y_54 + y_55 + y_64 - z_9263 >= 0
 c9265: y_17 + y_39 + y_53 + y_58 + y_63 + y_91 - z_9264 >= 0
 c9266: y_0 + y_64 - z_9265 >= 0
 c9267: y_1 + y_8 + y_73 + y_96 - z_9266 >= 0
 c9268: y_16 + y_39 + y_53 + y_54 + y_58 + y_63 + y_66 + y_91 - z_9267 >= 0
 c9269: y_4 + y_9 + y_26 + y_32 + y_71 - z_9268 >= 0
 c9270: y_12 + y_22 + y_57 + y_88 - z_9269 >= 0
 c9271: y_0 + y_27 - z_9270 >= 0
 c9272: y_7 + y_23 + y_31 + y_51 + y_62 + y_89 + y_98 + y_99 - z_9271 >= 0
 c9273: y_2 + y_83 + y_84 + y_85 - z_9272 >= 0
 c9274: y_16 + y_25 + y_40 + y_50 + y_54 + y_66 + y_87 + y_92 - z_9273 >= 0
 c9275: y_17 + y_53 + y_58 + y_63 + y_91 - z_9274 >= 0
 c9276: y_15 + y_18 + y_46 + y_49 + y_74 + y_95 - z_9275 >= 0
 c9277: y_40 + y_85 + y_92 - z_9276 >= 0
 c9278: y_4 + y_6 + y_22 + y_32 + y_90 - z_9277 >= 0
 c9279: y_13 + y_28 + y_60 + y_76 + y_81 - z_9278 >= 0
 c9280: y_8 + y_73 + y_75 + y_80 + y_96 - z_9279 >= 0
 c9281: y_17 + y_53 + y_58 + y_91 - z_9280 >= 0
 c9282: y_12 + y_22 + y_57 + y_65 + y_72 + y_78 + y_88 - z_9281 >= 0
 c9283: y_9 + y_11 + y_19 + y_26 + y_38 + y_67 + y_68 + y_69 + y_97 - z_9282
         >= 0
 c9284: y_16 + y_39 + y_53 + y_54 + y_58 + y_63 + y_64 + y_66 + y_87 - z_9283
         >= 0
 c9285: y_3 + y_19 + y_21 + y_33 + y_38 + y_41 + y_43 + y_48 - z_9284 >= 0
 c9286: y_16 + y_39 + y_40 + y_42 + y_54 + y_55 + y_63 + y_64 + y_66 - z_9285
         >= 0
 c9287: y_4 + y_6 + y_9 + y_26 + y_32 + y_38 + y_44 + y_90 - z_9286 >= 0
 c9288: y_13 + y_57 + y_60 + y_65 + y_72 + y_76 - z_9287 >= 0
 c9289: y_1 + y_8 + y_46 + y_49 + y_73 + y_75 - z_9288 >= 0
 c9290: y_22 + y_65 - z_9289 >= 0
 c9291: y_21 + y_30 + y_36 + y_41 + y_43 + y_47 + y_94 - z_9290 >= 0
 c9292: - z_9291 >= 0
 c9293: y_45 - z_9292 >= 0
 c9294: y_25 + y_29 + y_35 + y_77 - z_9293 >= 0
 c9295: y_25 + y_35 + y_40 + y_54 + y_66 + y_77 + y_87 + y_92 - z_9294 >= 0
 c9296: y_40 + y_83 + y_85 + y_92 - z_9295 >= 0
 c9297: y_46 + y_49 + y_74 + y_95 - z_9296 >= 0
 c9298: y_3 + y_15 + y_19 + y_20 + y_21 + y_33 + y_41 + y_44 + y_47 + y_48
        + y_61 + y_79 + y_93 - z_9297 >= 0
 c9299: y_25 + y_35 + y_40 + y_77 + y_87 + y_92 - z_9298 >= 0
 c9300: y_24 + y_30 + y_52 + y_59 + y_70 + y_86 - z_9299 >= 0
 c9301: y_1 + y_7 + y_23 + y_31 + y_37 + y_51 + y_73 + y_89 + y_98 + y_99
        - z_9300 >= 0
 c9302: y_13 + y_57 + y_60 + y_65 + y_72 - z_9301 >= 0
 c9303: y_6 + y_58 - z_9302 >= 0
 c9304: y_65 - z_9303 >= 0
 c9305: y_4 + y_9 + y_26 + y_32 + y_38 + y_44 + y_67 + y_69 - z_9304 >= 0
 c9306: y_5 + y_6 + y_34 + y_90 + y_91 - z_9305 >= 0
 c9307: y_8 + y_15 + y_20 + y_34 + y_46 + y_61 + y_75 + y_79 + y_80 + y_93
        + y_95 - z_9306 >= 0
 c9308: y_5 + y_17 + y_34 + y_91 - z_9307 >= 0
 c9309: y_29 - z_9308 >= 0
 c9310: y_46 + y_49 + y_74 + y_95 - z_9309 >= 0
 c9311: y_12 + y_22 + y_57 + y_88 - z_9310 >= 0
 c9312: y_11 + y_24 + y_52 + y_59 + y_67 + y_68 + y_69 + y_70 + y_86 + y_97
        - z_9311 >= 0
 c9313: y_4 + y_6 + y_32 + y_90 - z_9312 >= 0
 c9314: y_18 + y_46 + y_49 + y_74 + y_95 - z_9313 >= 0
 c9315: y_5 + y_8 + y_15 + y_20 + y_34 + y_61 + y_75 + y_79 + y_80 + y_93
        - z_9314 >= 0
 c9316: y_0 + y_27 + y_45 - z_9315 >= 0
 c9317: y_16 + y_25 + y_35 + y_40 + y_50 + y_54 + y_56 + y_66 + y_77 + y_87
        - z_9316 >= 0
 c9318: y_46 + y_49 + y_74 + y_95 - z_9317 >= 0
 c9319: y_15 + y_18 + y_46 + y_49 + y_74 + y_95 - z_9318 >= 0
 c9320: y_11 + y_24 + y_43 + y_52 + y_59 + y_67 + y_68 + y_69 + y_70 + y_86
        + y_97 - z_9319 >= 0
 c9321: y_5 + y_8 + y_17 + y_34 - z_9320 >= 0
 c9322: y_29 + y_50 + y_56 + y_65 - z_9321 >= 0
 c9323: y_18 + y_21 + y_30 + y_36 + y_41 + y_47 + y_94 - z_9322 >= 0
 c9324: y_1 + y_8 + y_73 + y_75 + y_96 - z_9323 >= 0
 c9325: y_10 + y_12 + y_88 - z_9324 >= 0
 c9326: y_16 + y_39 + y_40 + y_54 + y_63 + y_66 + y_87 - z_9325 >= 0
 c9327: y_1 + y_8 + y_73 + y_75 + y_96 - z_9326 >= 0
 c9328: y_13 + y_28 + y_60 + y_76 + y_81 - z_9327 >= 0
 c9329: y_3 + y_9 + y_11 + y_19 + y_26 + y_38 + y_67 + y_68 + y_69 - z_9328 >= 
        0
 c9330: y_11 + y_68 + y_97 - z_9329 >= 0
 c9331: y_15 + y_18 + y_21 + y_36 + y_41 + y_47 + y_79 + y_95 - z_9330 >= 0
 c9332: - z_9331 >= 0
 c9333: y_11 + y_24 + y_43 + y_52 + y_59 + y_67 + y_68 + y_69 + y_70 + y_86
        - z_9332 >= 0
 c9334: y_37 + y_89 - z_9333 >= 0
 c9335: y_2 + y_40 + y_83 + y_85 + y_92 - z_9334 >= 0
 c9336: y_16 + y_39 + y_53 + y_54 + y_58 + y_63 + y_91 - z_9335 >= 0
 c9337: y_23 + y_46 + y_49 + y_74 + y_98 - z_9336 >= 0
 c9338: y_25 + y_29 + y_35 + y_77 + y_87 - z_9337 >= 0
 c9339: y_2 + y_14 + y_27 + y_82 - z_9338 >= 0
 c9340: y_85 + y_92 - z_9339 >= 0
 c9341: y_16 + y_17 + y_39 + y_53 + y_54 + y_58 + y_63 + y_64 + y_91 - z_9340
         >= 0
 c9342: y_12 + y_22 + y_57 + y_65 + y_88 - z_9341 >= 0
 c9343: y_12 + y_88 - z_9342 >= 0
 c9344: y_22 + y_50 + y_56 + y_65 - z_9343 >= 0
 c9345: y_12 + y_57 + y_71 + y_88 - z_9344 >= 0
 c9346: y_9 + y_71 - z_9345 >= 0
 c9347: y_22 + y_56 + y_65 - z_9346 >= 0
 c9348: y_17 + y_39 + y_53 + y_58 + y_63 + y_91 - z_9347 >= 0
 c9349: y_4 + y_9 + y_26 + y_32 + y_71 - z_9348 >= 0
 c9350: y_24 + y_30 + y_43 + y_52 + y_59 + y_70 + y_94 - z_9349 >= 0
 c9351: y_1 + y_8 + y_46 + y_49 + y_73 + y_75 + y_80 + y_95 - z_9350 >= 0
 c9352: y_6 + y_22 - z_9351 >= 0
 c9353: y_1 + y_23 + y_46 + y_49 + y_74 + y_98 - z_9352 >= 0
 c9354: y_5 + y_15 + y_20 + y_33 + y_34 + y_44 + y_48 + y_61 + y_79 + y_80
        + y_93 - z_9353 >= 0
 c9355: y_57 + y_65 + y_72 + y_78 + y_88 - z_9354 >= 0
 c9356: y_1 + y_8 + y_46 + y_49 + y_73 + y_75 - z_9355 >= 0
 c9357: y_35 + y_92 - z_9356 >= 0
 c9358: y_9 + y_11 + y_26 + y_38 + y_52 + y_67 + y_68 + y_69 + y_97 - z_9357
         >= 0
 c9359: y_4 + y_5 + y_6 + y_32 + y_90 - z_9358 >= 0
 c9360: y_9 + y_71 - z_9359 >= 0
 c9361: y_2 + y_14 + y_82 + y_83 + y_84 + y_85 - z_9360 >= 0
 c9362: y_10 + y_12 + y_57 + y_72 + y_78 + y_81 + y_88 - z_9361 >= 0
 c9363: y_3 + y_5 + y_33 + y_34 + y_44 + y_61 + y_90 + y_93 - z_9362 >= 0
 c9364: y_17 + y_96 - z_9363 >= 0
 c9365: y_30 + y_43 + y_52 + y_59 + y_94 - z_9364 >= 0
 c9366: y_15 + y_18 + y_46 + y_49 + y_74 + y_95 - z_9365 >= 0
 c9367: y_23 + y_46 + y_49 + y_74 + y_98 - z_9366 >= 0
 c9368: y_4 + y_6 + y_22 + y_32 + y_90 - z_9367 >= 0
 c9369: y_1 + y_7 + y_23 + y_31 + y_37 + y_73 + y_89 + y_98 + y_99 - z_9368 >= 
        0
 c9370: y_13 + y_28 + y_60 + y_76 - z_9369 >= 0
 c9371: y_11 + y_24 + y_52 + y_59 + y_70 + y_86 - z_9370 >= 0
 c9372: y_1 + y_37 + y_73 + y_89 + y_96 + y_99 - z_9371 >= 0
 c9373: y_83 + y_84 + y_85 - z_9372 >= 0
 c9374: y_50 + y_56 - z_9373 >= 0
 c9375: y_17 + y_53 + y_58 + y_91 - z_9374 >= 0
 c9376: y_0 + y_64 - z_9375 >= 0
 c9377: y_15 + y_18 + y_46 + y_49 + y_74 + y_95 - z_9376 >= 0
 c9378: y_85 + y_92 - z_9377 >= 0
 c9379: y_17 + y_53 + y_58 + y_91 - z_9378 >= 0
 c9380: y_8 + y_15 + y_20 + y_46 + y_49 + y_61 + y_75 + y_80 + y_93 + y_95
        - z_9379 >= 0
 c9381: y_25 + y_29 + y_50 + y_56 + y_66 + y_77 + y_87 - z_9380 >= 0
 c9382: y_40 + y_42 + y_54 + y_55 + y_92 - z_9381 >= 0
 c9383: y_13 + y_28 + y_60 + y_76 + y_81 - z_9382 >= 0
 c9384: y_40 + y_92 - z_9383 >= 0
 c9385: y_1 + y_7 + y_23 + y_31 + y_51 + y_62 + y_89 + y_98 + y_99 - z_9384 >= 
        0
 c9386: y_11 + y_24 + y_52 + y_59 + y_68 + y_70 + y_86 - z_9385 >= 0
 c9387: y_7 + y_23 + y_31 + y_49 + y_51 + y_98 + y_99 - z_9386 >= 0
 c9388: y_8 + y_15 + y_20 + y_34 + y_46 + y_61 + y_75 + y_80 + y_93 - z_9387
         >= 0
 c9389: y_83 + y_84 + y_85 - z_9388 >= 0
 c9390: y_71 - z_9389 >= 0
 c9391: y_15 + y_18 + y_20 + y_21 + y_36 + y_41 + y_46 + y_47 + y_48 + y_61
        + y_79 + y_80 + y_93 + y_95 - z_9390 >= 0
 c9392: y_2 + y_14 + y_82 + y_83 + y_84 + y_85 - z_9391 >= 0
 c9393: y_1 + y_8 + y_73 + y_75 + y_96 + y_99 - z_9392 >= 0
 c9394: y_12 + y_57 + y_72 + y_88 - z_9393 >= 0
 c9395: y_3 + y_19 + y_26 + y_33 + y_38 + y_44 + y_67 + y_69 - z_9394 >= 0
 c9396: y_11 + y_19 + y_26 + y_38 + y_52 + y_67 + y_68 + y_69 + y_97 - z_9395
         >= 0
 c9397: y_7 + y_23 + y_31 + y_51 + y_62 + y_89 + y_98 + y_99 - z_9396 >= 0
 c9398: y_2 + y_82 + y_83 + y_84 + y_85 - z_9397 >= 0
 c9399: y_37 + y_45 - z_9398 >= 0
 c9400: y_11 + y_24 + y_52 + y_59 + y_67 + y_68 + y_69 + y_70 + y_86 + y_97
        - z_9399 >= 0
 c9401: y_16 + y_25 + y_40 + y_50 + y_54 + y_56 + y_66 + y_77 + y_87 + y_92
        - z_9400 >= 0
 c9402: y_0 + y_39 + y_42 + y_53 + y_55 + y_63 + y_64 - z_9401 >= 0
 c9403: y_12 + y_57 + y_72 + y_88 - z_9402 >= 0
 c9404: y_13 + y_28 + y_60 + y_76 + y_81 - z_9403 >= 0
 c9405: y_29 + y_50 + y_56 + y_65 - z_9404 >= 0
 c9406: y_15 + y_18 + y_20 + y_36 + y_41 + y_46 + y_47 + y_49 + y_74 + y_79
        + y_95 - z_9405 >= 0
 c9407: y_9 + y_71 - z_9406 >= 0
 c9408: y_11 + y_68 + y_86 + y_97 - z_9407 >= 0
 c9409: y_65 - z_9408 >= 0
 c9410: y_4 + y_9 + y_26 + y_32 + y_71 - z_9409 >= 0
 c9411: y_0 + y_27 + y_42 + y_55 + y_64 - z_9410 >= 0
 c9412: y_3 + y_19 + y_33 + y_38 + y_43 + y_44 + y_48 - z_9411 >= 0
 c9413: y_22 + y_57 + y_65 + y_72 - z_9412 >= 0
 c9414: y_2 + y_27 + y_42 + y_55 + y_83 - z_9413 >= 0
 c9415: y_7 + y_31 + y_51 + y_62 + y_89 + y_98 + y_99 - z_9414 >= 0
 c9416: y_9 + y_71 - z_9415 >= 0
 c9417: y_11 + y_43 + y_52 + y_59 + y_67 + y_68 + y_69 + y_97 - z_9416 >= 0
 c9418: y_2 + y_14 + y_27 + y_42 + y_82 + y_83 - z_9417 >= 0
 c9419: y_13 + y_28 + y_60 + y_76 + y_81 - z_9418 >= 0
 c9420: y_4 + y_6 + y_32 + y_90 - z_9419 >= 0
 c9421: y_11 + y_19 + y_30 + y_43 + y_52 + y_59 + y_68 + y_94 - z_9420 >= 0
 c9422: y_50 + y_56 + y_65 - z_9421 >= 0
 c9423: y_6 + y_58 - z_9422 >= 0
 c9424: y_9 + y_11 + y_26 + y_67 + y_68 + y_69 + y_97 - z_9423 >= 0
 c9425: y_16 + y_39 + y_50 + y_54 + y_56 + y_66 + y_87 - z_9424 >= 0
 c9426: y_6 + y_12 + y_22 + y_32 + y_88 - z_9425 >= 0
 c9427: y_5 + y_8 + y_17 + y_34 + y_91 - z_9426 >= 0
 c9428: y_11 + y_19 + y_30 + y_43 + y_52 + y_59 + y_67 + y_68 + y_69 - z_9427
         >= 0
 c9429: y_83 + y_85 - z_9428 >= 0
 c9430: y_11 + y_52 + y_59 + y_67 + y_68 + y_69 + y_86 + y_97 - z_9429 >= 0
 c9431: y_2 + y_14 + y_82 + y_83 + y_84 + y_85 - z_9430 >= 0
 c9432: y_29 + y_65 - z_9431 >= 0
 c9433: y_2 + y_14 + y_27 + y_42 + y_82 + y_83 - z_9432 >= 0
 c9434: y_29 - z_9433 >= 0
 c9435: y_3 + y_4 + y_19 + y_26 + y_33 + y_38 + y_44 - z_9434 >= 0
 c9436: y_17 + y_53 + y_58 + y_91 - z_9435 >= 0
 c9437: y_18 + y_49 + y_74 + y_95 - z_9436 >= 0
 c9438: y_85 + y_92 - z_9437 >= 0
 c9439: y_3 + y_15 + y_18 + y_21 + y_33 + y_36 + y_41 + y_47 + y_48 + y_79
        - z_9438 >= 0
 c9440: y_23 + y_46 + y_49 + y_74 + y_98 - z_9439 >= 0
 c9441: y_13 + y_28 + y_60 + y_76 - z_9440 >= 0
 c9442: y_3 + y_19 + y_33 + y_38 + y_44 + y_48 - z_9441 >= 0
 c9443: y_17 + y_53 + y_58 + y_91 - z_9442 >= 0
 c9444: y_17 + y_39 + y_53 + y_58 + y_63 + y_91 - z_9443 >= 0
 c9445: y_5 + y_8 + y_20 + y_34 + y_61 + y_75 + y_80 + y_93 - z_9444 >= 0
 c9446: y_4 + y_6 + y_26 + y_32 + y_90 - z_9445 >= 0
 c9447: y_73 + y_96 - z_9446 >= 0
 c9448: y_8 + y_20 + y_46 + y_75 + y_80 + y_93 + y_96 - z_9447 >= 0
 c9449: y_83 + y_85 - z_9448 >= 0
 c9450: y_2 + y_40 + y_83 + y_85 + y_92 - z_9449 >= 0
 c9451: y_16 + y_39 + y_42 + y_53 + y_54 + y_55 + y_63 + y_64 - z_9450 >= 0
 c9452: y_16 + y_39 + y_40 + y_54 + y_55 + y_63 + y_64 + y_66 + y_87 - z_9451
         >= 0
 c9453: y_4 + y_6 + y_22 + y_32 + y_90 - z_9452 >= 0
 c9454: y_3 + y_19 + y_26 + y_33 + y_38 + y_44 + y_48 + y_69 - z_9453 >= 0
 c9455: y_29 - z_9454 >= 0
 c9456: y_17 + y_39 + y_53 + y_63 + y_64 + y_91 - z_9455 >= 0
 c9457: y_13 + y_28 + y_60 + y_76 + y_78 + y_81 - z_9456 >= 0
 c9458: y_9 + y_11 + y_26 + y_38 + y_67 + y_68 + y_69 - z_9457 >= 0
 c9459: y_8 + y_15 + y_20 + y_34 + y_46 + y_61 + y_75 + y_80 + y_93 + y_95
        - z_9458 >= 0
 c9460: y_10 + y_13 + y_57 + y_60 + y_72 + y_76 + y_78 + y_81 - z_9459 >= 0
 c9461: y_6 + y_22 - z_9460 >= 0
 c9462: y_40 + y_55 + y_87 + y_92 - z_9461 >= 0
 c9463: y_10 - z_9462 >= 0
 c9464: y_7 + y_23 + y_31 + y_51 + y_62 + y_89 + y_98 + y_99 - z_9463 >= 0
 c9465: y_3 + y_5 + y_19 + y_33 + y_34 + y_38 + y_44 + y_48 + y_61 + y_79
        - z_9464 >= 0
 c9466: y_13 + y_28 + y_60 + y_76 + y_78 + y_81 - z_9465 >= 0
 c9467: y_9 + y_11 + y_26 + y_67 + y_68 + y_69 + y_97 - z_9466 >= 0
 c9468: y_6 + y_22 + y_90 - z_9467 >= 0
 c9469: y_9 + y_11 + y_26 + y_38 + y_67 + y_68 + y_69 - z_9468 >= 0
 c9470: y_4 + y_9 + y_12 + y_32 + y_71 + y_88 - z_9469 >= 0
 c9471: y_1 + y_23 + y_46 + y_49 + y_74 + y_75 + y_95 + y_98 - z_9470 >= 0
 c9472: y_7 + y_31 + y_37 + y_89 + y_99 - z_9471 >= 0
 c9473: y_2 + y_14 + y_82 + y_83 + y_84 + y_85 - z_9472 >= 0
 c9474: y_5 + y_6 + y_34 + y_90 - z_9473 >= 0
 c9475: y_45 + y_96 - z_9474 >= 0
 c9476: y_16 + y_39 + y_40 + y_42 + y_54 + y_55 + y_63 + y_64 - z_9475 >= 0
 c9477: y_45 - z_9476 >= 0
 c9478: y_25 + y_29 + y_35 + y_77 - z_9477 >= 0
 c9479: y_0 + y_27 + y_42 + y_55 + y_64 - z_9478 >= 0
 c9480: y_2 + y_14 + y_27 + y_42 + y_55 + y_82 + y_83 - z_9479 >= 0
 c9481: y_11 + y_24 + y_43 + y_52 + y_59 + y_68 + y_70 + y_86 - z_9480 >= 0
 c9482: y_29 + y_56 + y_65 - z_9481 >= 0
 c9483: y_8 + y_20 + y_34 + y_61 + y_75 + y_80 + y_93 - z_9482 >= 0
 c9484: y_8 + y_15 + y_20 + y_34 + y_46 + y_61 + y_75 + y_79 + y_80 + y_93
        + y_95 - z_9483 >= 0
 c9485: y_3 + y_5 + y_19 + y_20 + y_33 + y_34 + y_38 + y_44 + y_48 + y_61 + y_79
        + y_93 - z_9484 >= 0
 c9486: y_13 + y_65 - z_9485 >= 0
 c9487: y_16 + y_40 + y_50 + y_54 + y_66 + y_87 + y_92 - z_9486 >= 0
 c9488: y_45 - z_9487 >= 0
 c9489: y_22 + y_65 - z_9488 >= 0
 c9490: y_10 + y_13 + y_57 + y_60 + y_72 + y_76 + y_78 + y_81 - z_9489 >= 0
 c9491: y_7 + y_23 + y_31 + y_37 + y_51 + y_62 + y_89 + y_98 + y_99 - z_9490
         >= 0
 c9492: y_15 + y_18 + y_21 + y_36 + y_41 + y_47 + y_48 + y_79 + y_95 - z_9491
         >= 0
 c9493: y_21 + y_30 + y_36 + y_41 + y_43 + y_47 + y_94 - z_9492 >= 0
 c9494: y_2 + y_14 + y_82 + y_83 + y_85 - z_9493 >= 0
 c9495: y_3 + y_19 + y_21 + y_33 + y_38 + y_41 + y_44 + y_48 + y_61 + y_79
        - z_9494 >= 0
 c9496: y_6 + y_58 + y_90 + y_91 - z_9495 >= 0
 c9497: y_1 + y_8 + y_46 + y_49 + y_73 + y_75 + y_80 + y_95 - z_9496 >= 0
 c9498: y_16 + y_39 + y_50 + y_54 + y_58 + y_63 + y_66 + y_87 - z_9497 >= 0
 c9499: y_25 + y_29 + y_35 + y_50 + y_56 + y_66 + y_77 + y_87 - z_9498 >= 0
 c9500: y_24 + y_52 + y_59 + y_70 + y_86 - z_9499 >= 0
 c9501: y_0 + y_2 + y_27 + y_42 + y_55 - z_9500 >= 0
 c9502: y_71 - z_9501 >= 0
 c9503: y_15 + y_18 + y_21 + y_36 + y_41 + y_47 + y_79 + y_95 - z_9502 >= 0
 c9504: y_11 + y_24 + y_52 + y_59 + y_68 + y_70 + y_86 + y_97 - z_9503 >= 0
 c9505: y_13 + y_57 + y_65 + y_72 - z_9504 >= 0
 c9506: y_10 + y_13 + y_60 + y_72 + y_76 + y_78 + y_81 - z_9505 >= 0
 c9507: y_9 + y_71 - z_9506 >= 0
 c9508: y_10 + y_12 + y_57 + y_72 + y_88 - z_9507 >= 0
 c9509: y_25 + y_29 + y_35 + y_77 - z_9508 >= 0
 c9510: y_15 + y_18 + y_20 + y_21 + y_36 + y_41 + y_46 + y_47 + y_61 + y_79
        + y_80 + y_93 + y_95 - z_9509 >= 0
 c9511: y_23 + y_49 + y_74 + y_98 - z_9510 >= 0
 c9512: y_4 + y_6 + y_22 + y_32 + y_90 - z_9511 >= 0
 c9513: y_1 + y_23 + y_31 + y_46 + y_49 + y_74 + y_98 + y_99 - z_9512 >= 0
 c9514: y_0 + y_27 + y_39 + y_42 + y_55 + y_63 + y_64 - z_9513 >= 0
 c9515: y_11 + y_24 + y_52 + y_59 + y_67 + y_68 + y_69 + y_70 + y_86 + y_97
        - z_9514 >= 0
 c9516: y_30 + y_43 + y_52 + y_59 + y_70 + y_94 - z_9515 >= 0
 c9517: y_10 + y_13 + y_57 + y_60 + y_72 + y_76 + y_78 + y_81 - z_9516 >= 0
 c9518: y_5 + y_6 + y_34 + y_44 + y_90 - z_9517 >= 0
 c9519: y_4 + y_9 + y_12 + y_32 + y_71 + y_88 - z_9518 >= 0
 c9520: y_6 + y_58 + y_91 - z_9519 >= 0
 c9521: y_17 + y_53 + y_91 - z_9520 >= 0
 c9522: y_5 + y_8 + y_20 + y_34 + y_61 + y_75 + y_80 + y_93 - z_9521 >= 0
 c9523: y_9 + y_11 + y_26 + y_67 + y_68 + y_69 + y_97 - z_9522 >= 0
 c9524: y_9 + y_71 - z_9523 >= 0
 c9525: y_17 + y_53 + y_96 - z_9524 >= 0
 c9526: y_6 + y_58 + y_90 + y_91 - z_9525 >= 0
 c9527: y_8 + y_15 + y_20 + y_34 + y_41 + y_48 + y_61 + y_75 + y_79 + y_80
        + y_93 + y_95 - z_9526 >= 0
 c9528: y_2 + y_14 + y_27 + y_42 + y_82 - z_9527 >= 0
 c9529: y_1 + y_8 + y_46 + y_73 + y_75 + y_80 + y_96 - z_9528 >= 0
 c9530: y_8 + y_15 + y_20 + y_34 + y_46 + y_61 + y_75 + y_80 + y_93 + y_95
        - z_9529 >= 0
 c9531: y_8 + y_15 + y_20 + y_41 + y_46 + y_61 + y_75 + y_79 + y_80 + y_93
        + y_95 - z_9530 >= 0
 c9532: y_8 + y_73 + y_75 + y_96 - z_9531 >= 0
 c9533: y_10 + y_13 + y_28 + y_60 + y_76 + y_78 + y_81 - z_9532 >= 0
 c9534: y_22 + y_57 + y_65 + y_72 - z_9533 >= 0
 c9535: y_8 + y_20 + y_46 + y_75 + y_80 + y_93 + y_95 - z_9534 >= 0
 c9536: y_16 + y_39 + y_40 + y_54 + y_63 + y_64 + y_66 + y_87 - z_9535 >= 0
 c9537: y_22 + y_57 + y_65 + y_72 - z_9536 >= 0
 c9538: y_0 + y_27 + y_42 - z_9537 >= 0
 c9539: y_7 + y_23 + y_31 + y_51 + y_62 + y_98 - z_9538 >= 0
 c9540: y_37 + y_45 - z_9539 >= 0
 c9541: y_39 + y_53 + y_58 + y_91 - z_9540 >= 0
 c9542: y_13 + y_28 + y_60 + y_76 + y_81 - z_9541 >= 0
 c9543: y_13 + y_28 + y_60 + y_76 - z_9542 >= 0
 c9544: y_3 + y_19 + y_21 + y_33 + y_36 + y_41 + y_43 + y_47 + y_48 + y_79
        + y_94 - z_9543 >= 0
 c9545: y_23 + y_49 + y_74 + y_98 - z_9544 >= 0
 c9546: y_16 + y_39 + y_53 + y_54 + y_58 + y_63 + y_64 + y_66 + y_91 - z_9545
         >= 0
 c9547: y_0 + y_27 + y_39 + y_42 + y_55 + y_63 + y_64 - z_9546 >= 0
 c9548: y_11 + y_24 + y_68 + y_70 + y_86 + y_97 - z_9547 >= 0
 c9549: y_16 + y_50 + y_54 + y_56 + y_58 + y_66 - z_9548 >= 0
 c9550: y_10 + y_13 + y_28 + y_60 + y_76 + y_78 + y_81 - z_9549 >= 0
 c9551: y_9 + y_11 + y_26 + y_67 + y_68 + y_69 + y_97 - z_9550 >= 0
 c9552: y_56 + y_58 - z_9551 >= 0
 c9553: y_0 + y_27 + y_42 - z_9552 >= 0
 c9554: y_1 + y_23 + y_46 + y_49 + y_74 + y_75 + y_98 - z_9553 >= 0
 c9555: y_3 + y_4 + y_5 + y_19 + y_33 + y_38 + y_44 + y_90 - z_9554 >= 0
 c9556: y_15 + y_18 + y_20 + y_21 + y_36 + y_41 + y_47 + y_48 + y_61 + y_79
        + y_93 + y_95 - z_9555 >= 0
 c9557: y_9 + y_26 + y_71 - z_9556 >= 0
 c9558: y_0 + y_2 + y_14 + y_27 + y_42 + y_55 + y_82 - z_9557 >= 0
 c9559: y_16 + y_39 + y_40 + y_54 + y_63 + y_66 + y_87 - z_9558 >= 0
 c9560: y_12 + y_22 + y_88 - z_9559 >= 0
 c9561: y_3 + y_11 + y_19 + y_33 + y_38 + y_43 + y_52 + y_59 + y_67 + y_68
        + y_69 - z_9560 >= 0
 c9562: y_85 + y_92 - z_9561 >= 0
 c9563: y_11 + y_19 + y_26 + y_38 + y_43 + y_52 + y_59 + y_67 + y_68 + y_69
        + y_97 - z_9562 >= 0
 c9564: y_37 + y_45 + y_73 + y_96 - z_9563 >= 0
 c9565: y_11 + y_24 + y_52 + y_59 + y_68 + y_70 + y_86 - z_9564 >= 0
 c9566: y_2 + y_40 + y_83 + y_85 + y_92 - z_9565 >= 0
 c9567: y_16 + y_39 + y_40 + y_50 + y_54 + y_66 + y_87 - z_9566 >= 0
 c9568: y_5 + y_6 + y_34 + y_90 + y_91 - z_9567 >= 0
 c9569: y_16 + y_40 + y_54 + y_66 + y_87 + y_92 - z_9568 >= 0
 c9570: y_18 + y_21 + y_36 + y_41 + y_47 + y_94 - z_9569 >= 0
 c9571: y_1 + y_7 + y_23 + y_31 + y_51 + y_62 + y_89 + y_98 + y_99 - z_9570 >= 
        0
 c9572: y_7 + y_23 + y_31 + y_51 + y_62 + y_98 + y_99 - z_9571 >= 0
 c9573: y_3 + y_15 + y_20 + y_21 + y_33 + y_34 + y_41 + y_48 + y_61 + y_79
        + y_80 + y_93 - z_9572 >= 0
 c9574: y_13 - z_9573 >= 0
 c9575: y_12 + y_71 + y_88 - z_9574 >= 0
 c9576: y_16 + y_39 + y_50 + y_54 + y_56 + y_58 + y_66 - z_9575 >= 0
 c9577: y_12 + y_22 + y_57 + y_65 + y_72 + y_88 - z_9576 >= 0
 c9578: y_6 + y_22 - z_9577 >= 0
 c9579: y_10 + y_13 + y_60 + y_76 + y_78 + y_81 - z_9578 >= 0
 c9580: y_10 + y_13 + y_28 + y_60 + y_76 + y_78 + y_81 - z_9579 >= 0
 c9581: y_11 + y_24 + y_43 + y_52 + y_59 + y_68 + y_70 + y_86 + y_97 - z_9580
         >= 0
 c9582: y_3 + y_9 + y_19 + y_26 + y_38 + y_44 + y_67 + y_69 - z_9581 >= 0
 c9583: y_9 + y_11 + y_26 + y_67 + y_68 + y_69 + y_97 - z_9582 >= 0
 c9584: y_3 + y_11 + y_19 + y_26 + y_33 + y_38 + y_44 + y_67 + y_68 + y_69
        - z_9583 >= 0
 c9585: y_37 + y_45 - z_9584 >= 0
 c9586: y_1 + y_8 + y_23 + y_46 + y_49 + y_73 + y_75 - z_9585 >= 0
 c9587: y_5 + y_17 + y_34 + y_91 - z_9586 >= 0
 c9588: y_85 + y_92 - z_9587 >= 0
 c9589: y_29 - z_9588 >= 0
 c9590: y_12 + y_71 + y_88 - z_9589 >= 0
 c9591: y_5 + y_6 + y_34 + y_44 + y_90 - z_9590 >= 0
 c9592: y_8 + y_73 + y_75 + y_96 - z_9591 >= 0
 c9593: y_83 + y_84 + y_85 - z_9592 >= 0
 c9594: y_24 + y_52 + y_59 + y_70 + y_86 - z_9593 >= 0
 c9595: y_13 + y_60 + y_65 + y_72 + y_76 - z_9594 >= 0
 c9596: y_10 + y_57 + y_72 + y_78 + y_81 + y_88 - z_9595 >= 0
 c9597: y_10 + y_78 - z_9596 >= 0
 c9598: y_2 + y_14 + y_82 + y_83 + y_84 + y_85 - z_9597 >= 0
 c9599: y_10 + y_60 + y_72 + y_76 + y_78 + y_81 - z_9598 >= 0
 c9600: y_7 + y_23 + y_51 + y_98 - z_9599 >= 0
 c9601: y_45 - z_9600 >= 0
 c9602: y_0 + y_27 + y_42 + y_55 + y_63 + y_64 - z_9601 >= 0
 c9603: y_9 + y_26 + y_67 + y_71 - z_9602 >= 0
 c9604: y_6 + y_58 + y_90 + y_91 - z_9603 >= 0
 c9605: y_17 + y_53 + y_91 - z_9604 >= 0
 c9606: y_2 + y_83 + y_84 + y_85 - z_9605 >= 0
 c9607: y_4 + y_9 + y_26 + y_32 + y_71 - z_9606 >= 0
 c9608: y_40 + y_85 + y_92 - z_9607 >= 0
 c9609: y_8 + y_15 + y_20 + y_46 + y_49 + y_61 + y_75 + y_79 + y_80 + y_93
        + y_95 - z_9608 >= 0
 c9610: y_11 + y_68 + y_86 + y_97 - z_9609 >= 0
 c9611: y_2 + y_82 + y_83 + y_84 + y_85 - z_9610 >= 0
 c9612: y_24 + y_52 + y_59 + y_70 + y_86 - z_9611 >= 0
 c9613: y_29 + y_77 - z_9612 >= 0
 c9614: y_12 + y_71 + y_88 - z_9613 >= 0
 c9615: y_21 + y_30 + y_36 + y_41 + y_43 + y_47 + y_48 + y_94 - z_9614 >= 0
 c9616: y_50 + y_56 + y_65 - z_9615 >= 0
 c9617: y_25 + y_50 + y_56 + y_66 + y_87 - z_9616 >= 0
 c9618: y_8 + y_17 + y_96 - z_9617 >= 0
 c9619: y_2 + y_40 + y_83 + y_85 + y_92 - z_9618 >= 0
 c9620: y_12 + y_71 + y_88 - z_9619 >= 0
 c9621: y_46 + y_49 + y_74 + y_95 - z_9620 >= 0
 c9622: y_15 + y_18 + y_20 + y_21 + y_36 + y_41 + y_47 + y_48 + y_61 + y_79
        + y_80 + y_93 + y_95 - z_9621 >= 0
 c9623: y_16 + y_50 + y_54 + y_56 + y_66 + y_87 - z_9622 >= 0
 c9624: y_2 + y_83 + y_84 + y_85 - z_9623 >= 0
 c9625: y_11 + y_24 + y_52 + y_59 + y_68 + y_70 + y_86 - z_9624 >= 0
 c9626: y_83 + y_84 + y_85 - z_9625 >= 0
 c9627: y_7 + y_51 + y_62 - z_9626 >= 0
 c9628: y_27 - z_9627 >= 0
 c9629: y_13 + y_28 + y_60 + y_76 + y_81 - z_9628 >= 0
 c9630: y_0 + y_27 + y_42 + y_55 + y_63 + y_64 - z_9629 >= 0
 c9631: y_2 + y_14 + y_82 + y_83 - z_9630 >= 0
 c9632: y_17 + y_39 + y_53 + y_58 + y_63 + y_91 - z_9631 >= 0
 c9633: y_50 + y_56 - z_9632 >= 0
 c9634: y_10 + y_13 + y_57 + y_60 + y_72 + y_76 + y_78 + y_81 - z_9633 >= 0
 c9635: y_50 + y_56 + y_65 - z_9634 >= 0
 c9636: y_40 + y_92 - z_9635 >= 0
 c9637: y_10 + y_13 + y_57 + y_60 + y_72 + y_76 + y_78 + y_81 - z_9636 >= 0
 c9638: y_37 + y_45 + y_73 + y_96 - z_9637 >= 0
 c9639: y_3 + y_15 + y_20 + y_21 + y_33 + y_34 + y_41 + y_44 + y_48 + y_61
        + y_79 + y_80 + y_93 - z_9638 >= 0
 c9640: y_17 + y_53 + y_96 - z_9639 >= 0
 c9641: y_8 + y_17 + y_96 - z_9640 >= 0
 c9642: y_5 + y_8 + y_20 + y_34 + y_61 + y_75 + y_80 + y_93 - z_9641 >= 0
 c9643: y_5 + y_17 + y_34 + y_53 + y_91 - z_9642 >= 0
 c9644: y_9 + y_26 + y_67 + y_69 + y_71 + y_97 - z_9643 >= 0
 c9645: y_15 + y_46 + y_49 + y_74 + y_75 + y_80 + y_95 - z_9644 >= 0
 c9646: y_9 + y_71 + y_97 - z_9645 >= 0
 c9647: y_9 + y_26 + y_67 + y_71 + y_97 - z_9646 >= 0
 c9648: y_9 + y_12 + y_71 - z_9647 >= 0
 c9649: y_2 + y_14 + y_82 + y_83 + y_85 - z_9648 >= 0
 c9650: y_40 + y_42 + y_55 + y_64 - z_9649 >= 0
 c9651: y_4 + y_6 + y_22 + y_32 + y_90 - z_9650 >= 0
 c9652: y_4 + y_6 + y_32 + y_90 - z_9651 >= 0
 c9653: y_16 + y_40 + y_54 + y_66 + y_87 + y_92 - z_9652 >= 0
 c9654: y_13 + y_28 + y_60 + y_76 + y_78 + y_81 - z_9653 >= 0
 c9655: y_7 + y_31 + y_51 + y_62 + y_89 + y_98 + y_99 - z_9654 >= 0
 c9656: y_8 + y_17 + y_34 + y_75 + y_80 + y_96 - z_9655 >= 0
 c9657: y_25 + y_50 + y_56 + y_66 + y_77 + y_87 - z_9656 >= 0
 c9658: y_29 - z_9657 >= 0
 c9659: y_0 + y_27 + y_42 + y_53 + y_55 + y_63 + y_64 - z_9658 >= 0
 c9660: y_0 + y_39 + y_42 + y_53 + y_55 + y_63 + y_64 - z_9659 >= 0
 c9661: y_3 + y_19 + y_26 + y_33 + y_38 + y_44 + y_48 + y_69 - z_9660 >= 0
 c9662: y_12 + y_71 - z_9661 >= 0
 c9663: y_29 + y_56 - z_9662 >= 0
 c9664: y_2 + y_14 + y_27 + y_42 + y_55 + y_82 + y_83 - z_9663 >= 0
 c9665: y_3 + y_4 + y_19 + y_26 + y_33 + y_38 + y_44 - z_9664 >= 0
 c9666: y_5 + y_8 + y_20 + y_34 + y_61 + y_80 + y_93 - z_9665 >= 0
 c9667: y_11 + y_43 + y_52 + y_59 + y_67 + y_68 + y_69 + y_97 - z_9666 >= 0
 c9668: y_11 + y_19 + y_26 + y_38 + y_43 + y_52 + y_59 + y_67 + y_68 + y_69
        + y_97 - z_9667 >= 0
 c9669: y_2 + y_14 + y_27 + y_82 - z_9668 >= 0
 c9670: y_7 + y_23 + y_31 + y_51 + y_62 + y_89 + y_98 + y_99 - z_9669 >= 0
 c9671: y_4 + y_9 + y_12 + y_26 + y_32 + y_71 + y_88 - z_9670 >= 0
 c9672: y_5 + y_8 + y_17 + y_20 + y_34 + y_75 + y_80 + y_93 - z_9671 >= 0
 c9673: y_23 + y_46 + y_49 + y_74 + y_98 - z_9672 >= 0
 c9674: y_17 + y_53 + y_96 - z_9673 >= 0
 c9675: y_4 + y_6 + y_22 + y_32 + y_90 - z_9674 >= 0
 c9676: y_37 + y_45 - z_9675 >= 0
 c9677: y_24 + y_30 + y_43 + y_52 + y_59 + y_70 + y_94 - z_9676 >= 0
 c9678: y_9 + y_71 - z_9677 >= 0
 c9679: y_24 + y_52 + y_59 + y_70 + y_86 - z_9678 >= 0
 c9680: y_0 + y_27 + y_42 + y_55 + y_64 - z_9679 >= 0
 c9681: y_16 + y_39 + y_53 + y_54 + y_58 + y_63 + y_64 + y_66 + y_91 - z_9680
         >= 0
 c9682: y_11 + y_68 + y_86 + y_97 - z_9681 >= 0
 c9683: y_10 + y_13 + y_57 + y_60 + y_72 + y_76 + y_78 + y_81 - z_9682 >= 0
 c9684: y_25 + y_29 + y_35 + y_40 + y_50 + y_66 + y_77 + y_87 + y_92 - z_9683
         >= 0
 c9685: y_6 + y_58 + y_91 - z_9684 >= 0
 c9686: y_9 + y_26 + y_67 + y_68 + y_69 + y_97 - z_9685 >= 0
 c9687: y_37 + y_45 - z_9686 >= 0
 c9688: y_3 + y_19 + y_33 + y_38 + y_44 + y_48 - z_9687 >= 0
 c9689: y_25 + y_35 + y_40 + y_77 + y_87 + y_92 - z_9688 >= 0
 c9690: y_30 + y_43 + y_59 + y_94 - z_9689 >= 0
 c9691: y_25 + y_29 + y_50 + y_54 + y_56 + y_66 + y_77 + y_87 - z_9690 >= 0
 c9692: y_8 + y_20 + y_34 + y_46 + y_61 + y_75 + y_80 + y_93 - z_9691 >= 0
 c9693: y_9 + y_11 + y_26 + y_67 + y_68 + y_69 + y_97 - z_9692 >= 0
 c9694: y_65 - z_9693 >= 0
 c9695: y_25 + y_35 + y_40 + y_66 + y_77 + y_87 + y_92 - z_9694 >= 0
 c9696: y_16 + y_50 + y_54 + y_56 + y_66 + y_87 - z_9695 >= 0
 c9697: y_5 + y_6 + y_90 + y_91 - z_9696 >= 0
 c9698: y_9 + y_26 + y_71 - z_9697 >= 0
 c9699: y_8 + y_17 + y_73 + y_75 + y_96 - z_9698 >= 0
 c9700: y_40 + y_54 + y_55 + y_92 - z_9699 >= 0
 c9701: y_11 + y_24 + y_52 + y_59 + y_67 + y_68 + y_69 + y_70 + y_97 - z_9700
         >= 0
 c9702: y_2 + y_83 + y_84 + y_85 - z_9701 >= 0
 c9703: y_25 + y_29 + y_50 + y_56 + y_66 + y_77 + y_87 - z_9702 >= 0
 c9704: y_2 + y_83 + y_85 - z_9703 >= 0
 c9705: y_13 + y_65 - z_9704 >= 0
 c9706: y_11 + y_52 + y_67 + y_68 + y_69 + y_97 - z_9705 >= 0
 c9707: y_3 + y_19 + y_26 + y_33 + y_38 + y_44 + y_69 - z_9706 >= 0
 c9708: y_53 + y_58 + y_91 - z_9707 >= 0
 c9709: y_3 + y_15 + y_19 + y_21 + y_33 + y_36 + y_38 + y_41 + y_44 + y_47
        + y_48 + y_61 + y_79 - z_9708 >= 0
 c9710: y_25 + y_29 + y_35 + y_77 + y_92 - z_9709 >= 0
 c9711: y_2 + y_14 + y_82 + y_83 + y_84 + y_85 - z_9710 >= 0
 c9712: y_6 + y_12 + y_22 + y_88 - z_9711 >= 0
 c9713: y_16 + y_39 + y_53 + y_54 + y_58 + y_63 + y_64 + y_66 + y_91 - z_9712
         >= 0
 c9714: y_10 - z_9713 >= 0
 c9715: y_37 + y_89 - z_9714 >= 0
 c9716: y_25 + y_29 + y_35 + y_50 + y_77 + y_87 - z_9715 >= 0
 c9717: y_16 + y_17 + y_39 + y_53 + y_58 + y_63 + y_91 - z_9716 >= 0
 c9718: y_13 + y_60 - z_9717 >= 0
 c9719: y_25 + y_35 + y_40 + y_77 + y_87 + y_92 - z_9718 >= 0
 c9720: y_11 + y_24 + y_30 + y_43 + y_52 + y_59 + y_68 + y_69 + y_70 + y_86
        - z_9719 >= 0
 c9721: y_13 + y_57 + y_60 + y_65 + y_72 + y_76 + y_78 + y_81 - z_9720 >= 0
 c9722: y_17 + y_39 + y_53 + y_58 + y_63 + y_64 + y_91 - z_9721 >= 0
 c9723: y_2 + y_14 + y_82 + y_83 + y_85 - z_9722 >= 0
 c9724: y_0 + y_2 + y_14 + y_27 + y_42 + y_55 + y_82 - z_9723 >= 0
 c9725: y_45 - z_9724 >= 0
 c9726: y_21 + y_30 + y_43 + y_59 + y_94 - z_9725 >= 0
 c9727: y_5 + y_17 + y_34 + y_91 - z_9726 >= 0
 c9728: y_56 + y_65 - z_9727 >= 0
 c9729: y_0 + y_2 + y_14 + y_27 + y_42 + y_82 - z_9728 >= 0
 c9730: y_15 + y_18 + y_21 + y_36 + y_41 + y_47 + y_79 + y_95 - z_9729 >= 0
 c9731: y_13 + y_28 + y_60 + y_76 + y_81 - z_9730 >= 0
 c9732: y_9 + y_71 + y_97 - z_9731 >= 0
 c9733: y_50 + y_56 + y_66 + y_87 - z_9732 >= 0
 c9734: y_40 + y_87 + y_92 - z_9733 >= 0
 c9735: y_3 + y_19 + y_21 + y_33 + y_38 + y_43 + y_44 + y_48 - z_9734 >= 0
 c9736: y_45 - z_9735 >= 0
 c9737: y_9 + y_71 + y_97 - z_9736 >= 0
 c9738: y_7 + y_31 + y_51 + y_62 + y_89 + y_98 + y_99 - z_9737 >= 0
 c9739: y_1 + y_23 + y_31 + y_73 + y_89 + y_98 + y_99 - z_9738 >= 0
 c9740: y_11 + y_19 + y_38 + y_43 + y_52 + y_59 + y_67 + y_68 + y_69 - z_9739
         >= 0
 c9741: y_4 + y_6 + y_22 + y_32 + y_90 - z_9740 >= 0
 c9742: y_1 + y_23 + y_46 + y_49 + y_74 + y_75 + y_98 + y_99 - z_9741 >= 0
 c9743: y_13 + y_28 + y_60 + y_76 + y_81 - z_9742 >= 0
 c9744: y_24 + y_70 + y_86 - z_9743 >= 0
 c9745: y_4 + y_5 + y_6 + y_32 + y_90 - z_9744 >= 0
 c9746: y_0 + y_27 + y_45 - z_9745 >= 0
 c9747: y_18 + y_46 + y_49 + y_74 + y_95 - z_9746 >= 0
 c9748: y_13 + y_28 + y_60 + y_76 + y_78 + y_81 - z_9747 >= 0
 c9749: y_3 + y_11 + y_19 + y_26 + y_38 + y_43 + y_67 + y_68 + y_69 - z_9748
         >= 0
 c9750: y_4 + y_9 + y_12 + y_26 + y_32 + y_71 - z_9749 >= 0
 c9751: y_25 + y_29 + y_35 + y_40 + y_50 + y_54 + y_56 + y_66 + y_77 + y_87
        + y_92 - z_9750 >= 0
 c9752: y_9 + y_71 - z_9751 >= 0
 c9753: y_23 + y_98 - z_9752 >= 0
 c9754: y_5 + y_34 + y_44 + y_61 + y_90 - z_9753 >= 0
 c9755: y_37 + y_73 + y_96 - z_9754 >= 0
 c9756: y_25 + y_29 + y_35 + y_50 + y_56 + y_77 - z_9755 >= 0
 c9757: y_10 + y_13 + y_57 + y_60 + y_72 + y_76 + y_78 + y_81 - z_9756 >= 0
 c9758: y_10 + y_60 + y_76 + y_78 + y_81 - z_9757 >= 0
 c9759: y_13 - z_9758 >= 0
 c9760: y_4 + y_9 + y_26 + y_32 + y_67 + y_69 - z_9759 >= 0
 c9761: y_25 + y_29 + y_35 + y_40 + y_77 + y_87 + y_92 - z_9760 >= 0
 c9762: y_10 + y_13 + y_57 + y_60 + y_72 + y_76 + y_78 + y_81 - z_9761 >= 0
 c9763: y_10 + y_13 + y_60 + y_72 + y_76 + y_78 + y_81 - z_9762 >= 0
 c9764: y_22 + y_57 + y_65 + y_72 - z_9763 >= 0
 c9765: y_0 + y_27 - z_9764 >= 0
 c9766: y_0 - z_9765 >= 0
 c9767: y_15 + y_20 + y_46 + y_49 + y_74 + y_75 + y_80 + y_93 + y_95 - z_9766
         >= 0
 c9768: y_12 + y_71 + y_88 - z_9767 >= 0
 c9769: y_0 + y_45 + y_96 - z_9768 >= 0
 c9770: y_9 + y_67 + y_97 - z_9769 >= 0
 c9771: y_4 + y_12 + y_32 + y_88 - z_9770 >= 0
 c9772: y_0 + y_27 + y_42 + y_55 + y_64 - z_9771 >= 0
 c9773: y_1 + y_8 + y_15 + y_20 + y_46 + y_49 + y_75 + y_80 + y_93 + y_95
        - z_9772 >= 0
 c9774: y_15 + y_18 + y_20 + y_21 + y_36 + y_41 + y_47 + y_48 + y_61 + y_79
        + y_80 + y_93 + y_95 - z_9773 >= 0
 c9775: y_1 + y_37 + y_45 + y_73 + y_96 - z_9774 >= 0
 c9776: y_58 + y_91 - z_9775 >= 0
 c9777: y_96 - z_9776 >= 0
 c9778: y_8 + y_15 + y_20 + y_46 + y_49 + y_74 + y_75 + y_80 + y_93 + y_95
        - z_9777 >= 0
 c9779: y_1 + y_23 + y_46 + y_49 + y_74 + y_98 + y_99 - z_9778 >= 0
 c9780: y_9 + y_11 + y_26 + y_67 + y_68 + y_69 + y_97 - z_9779 >= 0
 c9781: y_21 + y_30 + y_36 + y_41 + y_43 + y_47 + y_94 - z_9780 >= 0
 c9782: y_11 + y_24 + y_30 + y_43 + y_52 + y_59 + y_70 - z_9781 >= 0
 c9783: y_2 + y_40 + y_42 + y_55 + y_83 - z_9782 >= 0
 c9784: y_3 + y_4 + y_5 + y_19 + y_33 + y_38 + y_44 + y_90 - z_9783 >= 0
 c9785: y_0 + y_27 + y_39 + y_42 + y_53 + y_55 + y_63 + y_64 - z_9784 >= 0
 c9786: y_21 + y_30 + y_36 + y_41 + y_43 + y_47 + y_94 - z_9785 >= 0
 c9787: y_2 + y_83 + y_85 - z_9786 >= 0
 c9788: y_4 + y_6 + y_32 + y_90 - z_9787 >= 0
 c9789: y_7 + y_31 + y_37 + y_89 + y_99 - z_9788 >= 0
 c9790: y_3 + y_15 + y_19 + y_21 + y_33 + y_36 + y_38 + y_41 + y_47 + y_48
        + y_61 + y_79 - z_9789 >= 0
 c9791: y_15 + y_18 + y_20 + y_21 + y_33 + y_36 + y_41 + y_47 + y_48 + y_61
        + y_79 + y_93 + y_95 - z_9790 >= 0
 c9792: y_22 + y_57 + y_65 + y_72 - z_9791 >= 0
 c9793: y_15 + y_18 + y_21 + y_36 + y_41 + y_47 + y_48 + y_79 + y_95 - z_9792
         >= 0
 c9794: y_10 + y_13 + y_57 + y_60 + y_72 + y_76 + y_78 + y_81 - z_9793 >= 0
 c9795: y_2 + y_40 + y_42 + y_55 + y_83 - z_9794 >= 0
 c9796: y_2 + y_14 + y_82 + y_83 + y_84 + y_85 - z_9795 >= 0
 c9797: y_13 + y_28 + y_60 + y_76 - z_9796 >= 0
 c9798: y_24 + y_52 + y_59 + y_70 + y_86 - z_9797 >= 0
 c9799: y_4 + y_6 + y_12 + y_22 + y_32 + y_88 - z_9798 >= 0
 c9800: y_25 + y_35 + y_40 + y_77 + y_92 - z_9799 >= 0
 c9801: y_23 + y_98 - z_9800 >= 0
 c9802: y_37 + y_45 - z_9801 >= 0
 c9803: y_10 + y_13 + y_57 + y_60 + y_72 + y_76 + y_78 + y_81 - z_9802 >= 0
 c9804: y_13 + y_28 + y_60 + y_72 + y_76 + y_78 + y_81 - z_9803 >= 0
 c9805: y_71 - z_9804 >= 0
 c9806: y_0 + y_27 + y_45 - z_9805 >= 0
 c9807: y_50 + y_56 + y_65 - z_9806 >= 0
 c9808: y_1 + y_23 + y_46 + y_49 + y_74 + y_75 + y_98 - z_9807 >= 0
 c9809: y_11 + y_52 + y_59 + y_67 + y_68 + y_69 + y_97 - z_9808 >= 0
 c9810: y_11 + y_24 + y_52 + y_59 + y_68 + y_70 + y_86 - z_9809 >= 0
 c9811: y_24 + y_52 + y_70 + y_86 - z_9810 >= 0
 c9812: y_10 + y_13 + y_60 + y_76 + y_78 + y_81 - z_9811 >= 0
 c9813: y_2 + y_14 + y_82 + y_83 + y_84 + y_85 - z_9812 >= 0
 c9814: y_12 + y_22 + y_57 + y_65 + y_72 + y_78 + y_88 - z_9813 >= 0
 c9815: y_15 + y_18 + y_20 + y_36 + y_41 + y_46 + y_47 + y_61 + y_75 + y_79
        + y_80 + y_93 + y_95 - z_9814 >= 0
 c9816: y_22 + y_57 + y_65 - z_9815 >= 0
 c9817: y_0 + y_2 + y_27 + y_42 + y_55 + y_64 - z_9816 >= 0
 c9818: y_24 + y_70 + y_86 - z_9817 >= 0
 c9819: y_25 + y_29 + y_35 + y_50 + y_56 + y_66 + y_77 + y_87 - z_9818 >= 0
 c9820: y_9 + y_71 - z_9819 >= 0
 c9821: y_40 + y_92 - z_9820 >= 0
 c9822: y_13 + y_28 + y_60 + y_76 + y_78 + y_81 - z_9821 >= 0
 c9823: y_3 + y_11 + y_19 + y_26 + y_33 + y_38 + y_44 + y_67 + y_68 + y_69
        - z_9822 >= 0
 c9824: y_0 + y_27 + y_42 - z_9823 >= 0
 c9825: y_18 + y_36 + y_47 + y_74 + y_95 - z_9824 >= 0
 c9826: y_4 + y_6 + y_9 + y_26 + y_32 + y_90 - z_9825 >= 0
 c9827: y_0 + y_2 + y_14 + y_27 + y_42 + y_82 - z_9826 >= 0
 c9828: y_1 + y_23 + y_46 + y_49 + y_74 + y_98 - z_9827 >= 0
 c9829: y_18 + y_21 + y_36 + y_41 + y_47 + y_48 + y_79 + y_94 - z_9828 >= 0
 c9830: y_24 + y_30 + y_43 + y_52 + y_59 + y_70 + y_94 - z_9829 >= 0
 c9831: y_0 + y_96 - z_9830 >= 0
 c9832: y_4 + y_6 + y_26 + y_32 + y_38 + y_44 + y_90 - z_9831 >= 0
 c9833: y_0 + y_27 + y_42 + y_55 + y_63 + y_64 - z_9832 >= 0
 c9834: y_16 + y_39 + y_53 + y_54 + y_58 + y_63 + y_66 + y_87 - z_9833 >= 0
 c9835: y_5 + y_20 + y_33 + y_34 + y_44 + y_61 + y_93 - z_9834 >= 0
 c9836: y_2 + y_83 + y_85 - z_9835 >= 0
 c9837: y_1 + y_23 + y_46 + y_49 + y_74 + y_75 + y_95 + y_98 - z_9836 >= 0
 c9838: y_24 + y_30 + y_43 + y_52 + y_59 + y_70 + y_94 - z_9837 >= 0
 c9839: y_25 + y_35 + y_40 + y_54 + y_66 + y_77 + y_87 + y_92 - z_9838 >= 0
 c9840: y_65 - z_9839 >= 0
 c9841: y_9 + y_26 + y_71 - z_9840 >= 0
 c9842: y_40 + y_92 - z_9841 >= 0
 c9843: y_0 + y_27 + y_45 - z_9842 >= 0
 c9844: y_2 + y_14 + y_27 + y_82 - z_9843 >= 0
 c9845: y_29 + y_50 + y_56 + y_65 - z_9844 >= 0
 c9846: y_57 + y_65 + y_72 - z_9845 >= 0
 c9847: y_17 + y_53 + y_96 - z_9846 >= 0
 c9848: y_0 + y_64 - z_9847 >= 0
 c9849: y_0 + y_27 + y_42 + y_55 + y_64 - z_9848 >= 0
 c9850: y_0 + y_27 + y_42 + y_55 + y_64 - z_9849 >= 0
 c9851: y_9 + y_26 + y_67 + y_69 + y_71 + y_97 - z_9850 >= 0
 c9852: y_3 + y_15 + y_19 + y_20 + y_21 + y_33 + y_36 + y_41 + y_44 + y_47
        + y_48 + y_61 + y_79 + y_93 - z_9851 >= 0
 c9853: y_5 + y_34 + y_61 + y_93 - z_9852 >= 0
 c9854: y_40 + y_83 + y_85 + y_92 - z_9853 >= 0
 c9855: y_40 + y_83 + y_85 + y_92 - z_9854 >= 0
 c9856: y_19 + y_21 + y_30 + y_43 + y_52 + y_59 + y_94 - z_9855 >= 0
 c9857: y_46 + y_49 + y_74 + y_95 - z_9856 >= 0
 c9858: y_45 - z_9857 >= 0
 c9859: y_15 + y_18 + y_21 + y_36 + y_41 + y_47 + y_48 + y_79 - z_9858 >= 0
 c9860: y_1 + y_23 + y_31 + y_49 + y_73 + y_89 + y_98 + y_99 - z_9859 >= 0
 c9861: y_13 + y_28 + y_60 + y_76 + y_81 - z_9860 >= 0
 c9862: y_11 + y_24 + y_52 + y_59 + y_67 + y_68 + y_69 + y_70 + y_86 + y_97
        - z_9861 >= 0
 c9863: y_15 + y_18 + y_46 + y_49 + y_74 + y_95 - z_9862 >= 0
 c9864: y_4 + y_6 + y_22 + y_32 + y_90 - z_9863 >= 0
 c9865: y_29 - z_9864 >= 0
 c9866: y_0 + y_17 + y_39 + y_53 + y_55 + y_63 + y_64 - z_9865 >= 0
 c9867: y_40 + y_92 - z_9866 >= 0
 c9868: y_22 + y_57 + y_65 + y_72 - z_9867 >= 0
 c9869: y_23 + y_49 + y_74 + y_98 - z_9868 >= 0
 c9870: y_4 + y_6 + y_32 + y_90 - z_9869 >= 0
 c9871: y_9 + y_26 + y_67 + y_71 + y_97 - z_9870 >= 0
 c9872: y_3 + y_5 + y_20 + y_33 + y_34 + y_44 + y_48 + y_61 + y_79 + y_93
        - z_9871 >= 0
 c9873: y_16 + y_39 + y_53 + y_54 + y_58 + y_63 + y_66 + y_91 - z_9872 >= 0
 c9874: y_13 - z_9873 >= 0
 c9875: y_29 - z_9874 >= 0
 c9876: y_0 + y_27 - z_9875 >= 0
 c9877: y_24 + y_30 + y_52 + y_59 + y_70 + y_86 - z_9876 >= 0
 c9878: y_3 + y_19 + y_26 + y_33 + y_38 + y_44 + y_67 + y_69 - z_9877 >= 0
 c9879: y_45 - z_9878 >= 0
 c9880: y_10 + y_13 + y_57 + y_60 + y_72 + y_76 + y_78 + y_81 - z_9879 >= 0
 c9881: y_1 + y_46 + y_49 + y_74 + y_75 + y_80 + y_95 - z_9880 >= 0
 c9882: y_16 + y_17 + y_39 + y_53 + y_54 + y_55 + y_58 + y_63 + y_64 + y_91
        - z_9881 >= 0
 c9883: y_24 + y_70 + y_86 - z_9882 >= 0
 c9884: y_8 + y_15 + y_20 + y_46 + y_61 + y_75 + y_80 + y_93 + y_95 - z_9883
         >= 0
 c9885: y_7 + y_23 + y_31 + y_51 + y_62 + y_98 - z_9884 >= 0
 c9886: y_21 + y_30 + y_43 + y_94 - z_9885 >= 0
 c9887: y_8 + y_20 + y_34 + y_46 + y_61 + y_75 + y_80 + y_93 - z_9886 >= 0
 c9888: y_16 + y_40 + y_54 + y_55 + y_66 + y_87 + y_92 - z_9887 >= 0
 c9889: y_11 + y_24 + y_30 + y_43 + y_52 + y_59 + y_70 + y_86 - z_9888 >= 0
 c9890: y_4 + y_6 + y_12 + y_22 + y_32 + y_88 - z_9889 >= 0
 c9891: y_2 + y_14 + y_82 + y_83 + y_84 - z_9890 >= 0
 c9892: y_2 + y_83 + y_84 + y_85 - z_9891 >= 0
 c9893: y_13 + y_57 + y_60 + y_72 + y_76 + y_78 + y_81 - z_9892 >= 0
 c9894: y_83 + y_85 + y_92 - z_9893 >= 0
 c9895: y_23 + y_46 + y_49 + y_74 + y_98 - z_9894 >= 0
 c9896: y_22 + y_88 - z_9895 >= 0
 c9897: y_23 + y_51 + y_98 - z_9896 >= 0
 c9898: y_1 + y_23 + y_31 + y_46 + y_49 + y_73 + y_89 + y_98 + y_99 - z_9897
         >= 0
 c9899: y_0 + y_27 + y_42 + y_55 - z_9898 >= 0
 c9900: y_8 + y_15 + y_20 + y_46 + y_61 + y_75 + y_79 + y_80 + y_93 + y_95
        - z_9899 >= 0
 c9901: y_3 + y_15 + y_18 + y_21 + y_33 + y_36 + y_41 + y_47 + y_48 + y_79
        + y_94 - z_9900 >= 0
 c9902: y_85 + y_92 - z_9901 >= 0
 c9903: y_17 + y_39 + y_53 + y_58 + y_63 + y_91 - z_9902 >= 0
 c9904: y_3 + y_11 + y_19 + y_26 + y_38 + y_67 + y_68 + y_69 - z_9903 >= 0
 c9905: y_6 + y_58 + y_90 - z_9904 >= 0
 c9906: y_12 + y_22 + y_88 - z_9905 >= 0
 c9907: y_25 + y_35 + y_40 + y_77 + y_87 + y_92 - z_9906 >= 0
 c9908: y_5 + y_8 + y_15 + y_20 + y_34 + y_61 + y_75 + y_79 + y_80 + y_93 + y_95
        - z_9907 >= 0
 c9909: y_12 + y_22 + y_57 + y_65 + y_72 + y_88 - z_9908 >= 0
 c9910: y_23 + y_31 + y_49 + y_51 + y_98 + y_99 - z_9909 >= 0
 c9911: y_65 - z_9910 >= 0
 c9912: y_29 + y_65 - z_9911 >= 0
 c9913: y_13 + y_28 + y_60 + y_76 + y_78 + y_81 - z_9912 >= 0
 c9914: y_7 + y_31 + y_51 + y_62 + y_98 - z_9913 >= 0
 c9915: y_5 + y_17 + y_34 + y_58 + y_91 - z_9914 >= 0
 c9916: y_1 + y_23 + y_46 + y_49 + y_74 + y_98 + y_99 - z_9915 >= 0
 c9917: y_5 + y_6 + y_34 + y_90 - z_9916 >= 0
 c9918: y_83 + y_84 + y_85 - z_9917 >= 0
 c9919: y_10 + y_13 + y_28 + y_60 + y_76 + y_78 + y_81 - z_9918 >= 0
 c9920: y_0 + y_42 + y_63 + y_64 - z_9919 >= 0
 c9921: y_18 + y_46 + y_49 + y_74 + y_95 - z_9920 >= 0
 c9922: y_2 + y_14 + y_42 + y_55 + y_82 + y_83 + y_85 - z_9921 >= 0
 c9923: y_12 + y_71 + y_88 - z_9922 >= 0
 c9924: y_2 + y_14 + y_27 + y_82 - z_9923 >= 0
 c9925: y_1 + y_8 + y_46 + y_73 + y_75 + y_99 - z_9924 >= 0
 c9926: y_13 + y_60 + y_76 - z_9925 >= 0
 c9927: y_45 - z_9926 >= 0
 c9928: y_24 + y_30 + y_43 + y_52 + y_59 + y_70 + y_94 - z_9927 >= 0
 c9929: y_16 + y_40 + y_54 + y_66 + y_87 + y_92 - z_9928 >= 0
 c9930: y_2 + y_14 + y_82 + y_83 + y_84 + y_85 - z_9929 >= 0
 c9931: y_1 + y_8 + y_73 + y_75 + y_80 + y_96 - z_9930 >= 0
 c9932: y_10 + y_13 + y_28 + y_60 + y_72 + y_76 + y_78 + y_81 - z_9931 >= 0
 c9933: - z_9932 >= 0
 c9934: y_12 + y_22 + y_57 + y_65 + y_72 + y_88 - z_9933 >= 0
 c9935: y_24 + y_30 + y_43 + y_52 + y_59 + y_70 - z_9934 >= 0
 c9936: y_1 + y_8 + y_73 + y_75 + y_96 - z_9935 >= 0
 c9937: y_37 + y_45 - z_9936 >= 0
 c9938: y_7 + y_23 + y_31 + y_51 + y_62 + y_98 - z_9937 >= 0
 c9939: y_11 + y_24 + y_52 + y_59 + y_68 + y_70 + y_86 - z_9938 >= 0
 c9940: y_3 + y_11 + y_19 + y_38 + y_43 + y_52 + y_59 + y_67 + y_68 + y_69
        - z_9939 >= 0
 c9941: y_16 + y_17 + y_39 + y_53 + y_58 + y_63 + y_64 + y_91 - z_9940 >= 0
 c9942: y_45 - z_9941 >= 0
 c9943: y_2 + y_14 + y_82 + y_83 + y_84 + y_85 - z_9942 >= 0
 c9944: y_5 + y_17 + y_34 - z_9943 >= 0
 c9945: y_4 + y_6 + y_12 + y_32 + y_88 + y_90 - z_9944 >= 0
 c9946: y_23 + y_49 + y_74 + y_98 - z_9945 >= 0
 c9947: y_11 + y_19 + y_30 + y_38 + y_43 + y_52 + y_59 + y_68 + y_69 - z_9946
         >= 0
 c9948: y_9 + y_12 + y_71 + y_88 - z_9947 >= 0
 c9949: y_0 + y_2 + y_27 + y_42 + y_55 + y_64 - z_9948 >= 0
 c9950: y_85 - z_9949 >= 0
 c9951: y_4 + y_6 + y_26 + y_32 + y_90 - z_9950 >= 0
 c9952: y_40 + y_42 + y_54 + y_55 + y_92 - z_9951 >= 0
 c9953: y_9 + y_11 + y_19 + y_26 + y_38 + y_67 + y_68 + y_69 - z_9952 >= 0
 c9954: y_57 + y_65 + y_72 + y_78 - z_9953 >= 0
 c9955: y_16 + y_17 + y_39 + y_53 + y_54 + y_58 + y_63 + y_91 - z_9954 >= 0
 c9956: y_10 + y_57 + y_60 + y_72 + y_76 + y_78 + y_81 - z_9955 >= 0
 c9957: y_1 + y_7 + y_23 + y_31 + y_49 + y_51 + y_98 + y_99 - z_9956 >= 0
 c9958: y_1 + y_31 + y_37 + y_73 + y_89 + y_99 - z_9957 >= 0
 c9959: y_10 - z_9958 >= 0
 c9960: y_22 + y_50 + y_56 + y_65 - z_9959 >= 0
 c9961: y_2 + y_83 + y_85 - z_9960 >= 0
 c9962: y_13 + y_60 - z_9961 >= 0
 c9963: y_10 + y_78 - z_9962 >= 0
 c9964: y_15 + y_18 + y_20 + y_36 + y_41 + y_46 + y_47 + y_49 + y_61 + y_79
        + y_80 + y_93 + y_95 - z_9963 >= 0
 c9965: y_16 + y_39 + y_53 + y_54 + y_58 + y_63 + y_64 + y_66 + y_91 - z_9964
         >= 0
 c9966: y_7 + y_23 + y_31 + y_51 + y_62 + y_89 + y_98 + y_99 - z_9965 >= 0
 c9967: y_37 + y_45 - z_9966 >= 0
 c9968: y_13 + y_28 + y_60 + y_72 + y_76 + y_78 + y_81 - z_9967 >= 0
 c9969: y_22 + y_57 + y_65 - z_9968 >= 0
 c9970: y_3 + y_19 + y_21 + y_33 + y_36 + y_41 + y_43 + y_47 + y_48 + y_79
        + y_94 - z_9969 >= 0
 c9971: y_0 + y_17 + y_39 + y_53 + y_55 + y_63 + y_64 + y_91 - z_9970 >= 0
 c9972: y_9 + y_12 + y_71 + y_88 - z_9971 >= 0
 c9973: y_21 + y_30 + y_36 + y_41 + y_43 + y_47 + y_48 + y_94 - z_9972 >= 0
 c9974: y_12 + y_22 + y_57 + y_65 + y_88 - z_9973 >= 0
 c9975: y_3 + y_4 + y_19 + y_26 + y_32 + y_33 + y_38 + y_44 + y_90 - z_9974 >= 
        0
 c9976: y_25 + y_35 + y_40 + y_66 + y_77 + y_87 + y_92 - z_9975 >= 0
 c9977: y_1 + y_23 + y_31 + y_49 + y_73 + y_89 + y_98 + y_99 - z_9976 >= 0
 c9978: y_11 + y_19 + y_38 + y_43 + y_52 + y_59 + y_67 + y_68 + y_69 - z_9977
         >= 0
 c9979: y_9 + y_11 + y_19 + y_26 + y_38 + y_67 + y_68 + y_69 + y_97 - z_9978
         >= 0
 c9980: y_1 + y_8 + y_46 + y_49 + y_73 + y_75 + y_80 + y_95 - z_9979 >= 0
 c9981: y_9 + y_71 - z_9980 >= 0
 c9982: y_23 + y_46 + y_49 + y_74 - z_9981 >= 0
 c9983: y_11 + y_19 + y_38 + y_43 + y_52 + y_59 + y_67 + y_68 + y_69 - z_9982
         >= 0
 c9984: y_9 + y_12 + y_71 + y_88 - z_9983 >= 0
 c9985: y_12 + y_71 + y_88 - z_9984 >= 0
 c9986: y_3 + y_15 + y_19 + y_21 + y_33 + y_36 + y_38 + y_41 + y_47 + y_48
        + y_61 + y_79 - z_9985 >= 0
 c9987: y_0 + y_45 - z_9986 >= 0
 c9988: y_50 + y_56 + y_65 - z_9987 >= 0
 c9989: y_5 + y_33 + y_34 + y_44 + y_61 + y_90 - z_9988 >= 0
 c9990: y_5 + y_8 + y_15 + y_20 + y_34 + y_61 + y_75 + y_80 + y_93 - z_9989 >= 
        0
 c9991: y_56 + y_65 + y_72 - z_9990 >= 0
 c9992: y_2 + y_83 + y_85 - z_9991 >= 0
 c9993: y_13 + y_28 + y_60 + y_76 - z_9992 >= 0
 c9994: y_2 + y_14 + y_27 + y_82 + y_83 - z_9993 >= 0
 c9995: y_8 + y_17 + y_73 + y_96 - z_9994 >= 0
 c9996: y_11 + y_68 + y_86 + y_97 - z_9995 >= 0
 c9997: y_9 + y_11 + y_19 + y_26 + y_38 + y_67 + y_68 + y_69 - z_9996 >= 0
 c9998: y_0 + y_27 + y_39 + y_42 + y_55 + y_63 + y_64 - z_9997 >= 0
 c9999: y_15 + y_18 + y_20 + y_21 + y_36 + y_41 + y_46 + y_47 + y_61 + y_79
        + y_80 + y_93 + y_95 - z_9998 >= 0
 c10000: y_37 + y_45 + y_73 + y_96 - z_9999 >= 0
 c10001: 69 z_0 + 60 z_1 + 43 z_2 + 60 z_3 + 100 z_4 + 16 z_5 + 98 z_6 + 49 z_7
         + 70 z_8 + 46 z_9 + 24 z_10 + 54 z_11 + 32 z_12 + 50 z_13 + 25 z_14
         + 53 z_15 + 68 z_16 + 57 z_17 + 50 z_18 + 87 z_19 + 64 z_20 + 77 z_21
         + 7 z_22 + 40 z_23 + 60 z_24 + 57 z_25 + 85 z_26 + 21 z_27 + 47 z_28
         + 85 z_29 + 6 z_30 + 67 z_31 + 96 z_32 + z_33 + 26 z_34 + 48 z_35
         + 68 z_36 + 75 z_37 + 48 z_38 + 37 z_39 + 20 z_40 + 71 z_41 + 42 z_42
         + 51 z_43 + 21 z_44 + 66 z_45 + 3 z_46 + 40 z_47 + 23 z_48 + 5 z_49
         + 26 z_50 + 38 z_51 + 81 z_52 + 32 z_53 + 77 z_54 + 92 z_55 + 88 z_56
         + 14 z_57 + 12 z_58 + 87 z_59 + 50 z_60 + 18 z_61 + 5 z_62 + 46 z_63
         + 18 z_64 + 31 z_65 + 45 z_66 + 37 z_67 + 57 z_68 + 92 z_69 + 74 z_70
         + 77 z_71 + 62 z_72 + 15 z_73 + 27 z_74 + 34 z_75 + 81 z_76 + 82 z_77
         + 25 z_78 + 55 z_79 + 86 z_80 + 50 z_81 + 92 z_82 + 18 z_83 + 33 z_84
         + 20 z_85 + 61 z_86 + 73 z_87 + 85 z_88 + 73 z_89 + 59 z_90 + 35 z_91
         + 42 z_92 + 15 z_93 + 32 z_94 + 11 z_95 + 97 z_96 + 76 z_97 + 47 z_98
         + 54 z_99 + 67 z_100 + 72 z_101 + 30 z_102 + 80 z_103 + 87 z_104
         + 8 z_105 + 66 z_106 + 19 z_107 + 89 z_108 + 90 z_109 + 25 z_110
         + 26 z_111 + 40 z_112 + 68 z_113 + 43 z_114 + 24 z_115 + 87 z_116
         + 56 z_117 + 96 z_118 + 72 z_119 + 28 z_120 + 6 z_121 + 6 z_122
         + 21 z_123 + 21 z_124 + 89 z_125 + 31 z_126 + 17 z_127 + 64 z_128
         + 29 z_129 + 70 z_130 + 82 z_131 + z_132 + 99 z_133 + 13 z_134
         + 39 z_135 + 59 z_136 + 78 z_137 + 57 z_138 + 47 z_139 + 68 z_140
         + 33 z_141 + 25 z_142 + 59 z_143 + 100 z_144 + 19 z_145 + 82 z_146
         + 86 z_147 + 74 z_148 + 30 z_149 + 9 z_150 + z_151 + 35 z_152
         + 66 z_153 + 73 z_154 + 55 z_155 + 54 z_156 + 3 z_157 + 24 z_158
         + 17 z_159 + 84 z_160 + 93 z_161 + 50 z_162 + 84 z_163 + 44 z_164
         + 63 z_165 + 22 z_166 + 2 z_167 + 40 z_168 + 30 z_169 + 100 z_170
         + 59 z_171 + 62 z_172 + 24 z_173 + 69 z_174 + 61 z_175 + 43 z_176
         + 3 z_177 + 98 z_178 + 16 z_179 + 32 z_180 + 7 z_181 + 69 z_182
         + 66 z_183 + 72 z_184 + 41 z_185 + 73 z_186 + 26 z_187 + 96 z_188
         + 96 z_189 + 94 z_190 + 79 z_191 + 88 z_192 + 96 z_193 + 14 z_194
         + 83 z_195 + 58 z_196 + 35 z_197 + 84 z_198 + 49 z_199 + 64 z_200
         + 84 z_201 + 60 z_202 + 77 z_203 + 7 z_204 + 28 z_205 + 37 z_206
         + z_207 + 30 z_208 + 34 z_209 + 17 z_210 + 61 z_211 + 92 z_212
         + 85 z_213 + 27 z_214 + 64 z_215 + 77 z_216 + 51 z_217 + 41 z_218
         + 72 z_219 + 46 z_220 + 34 z_221 + 50 z_222 + 85 z_223 + 29 z_224
         + 63 z_225 + 68 z_226 + 38 z_227 + 49 z_228 + 3 z_229 + 87 z_230
         + 64 z_231 + 38 z_232 + 46 z_233 + 40 z_234 + 97 z_235 + 25 z_236
         + 28 z_237 + 97 z_238 + 55 z_239 + 14 z_240 + 13 z_241 + 15 z_242
         + 5 z_243 + 49 z_244 + 93 z_245 + 20 z_246 + 26 z_247 + 43 z_248
         + 60 z_249 + 97 z_250 + 40 z_251 + 94 z_252 + 99 z_253 + 25 z_254
         + 74 z_255 + 13 z_256 + 44 z_257 + 12 z_258 + 62 z_259 + 46 z_260
         + 50 z_261 + 77 z_262 + 84 z_263 + 47 z_264 + 69 z_265 + 80 z_266
         + 71 z_267 + 96 z_268 + 28 z_269 + 25 z_270 + 61 z_271 + 41 z_272
         + 92 z_273 + 66 z_274 + 41 z_275 + 36 z_276 + 85 z_277 + 66 z_278
         + 79 z_279 + 45 z_280 + 63 z_281 + 70 z_282 + 90 z_283 + 13 z_284
         + 94 z_285 + 15 z_286 + 25 z_287 + 89 z_288 + 26 z_289 + 38 z_290
         + 35 z_291 + 27 z_292 + 15 z_293 + 70 z_294 + 73 z_295 + 83 z_296
         + z_297 + 44 z_298 + 30 z_299 + 28 z_300 + 68 z_301 + 91 z_302
         + 20 z_303 + 11 z_304 + 8 z_305 + 61 z_306 + 47 z_307 + 44 z_308
         + 26 z_309 + 77 z_310 + 40 z_311 + 40 z_312 + 46 z_313 + 29 z_314
         + 52 z_315 + 92 z_316 + 96 z_317 + 29 z_318 + 80 z_319 + 21 z_320
         + 66 z_321 + 14 z_322 + 48 z_323 + 32 z_324 + 35 z_325 + 72 z_326
         + 14 z_327 + 35 z_328 + 15 z_329 + 96 z_330 + 15 z_331 + 35 z_332
         + 86 z_333 + 34 z_334 + 45 z_335 + 45 z_336 + 94 z_337 + 43 z_338
         + 88 z_339 + 20 z_340 + 19 z_341 + 28 z_342 + 11 z_343 + 65 z_344
         + 8 z_345 + 63 z_346 + 8 z_347 + 3 z_348 + 43 z_349 + 87 z_350
         + 76 z_351 + 8 z_352 + 53 z_353 + 75 z_354 + 40 z_355 + 87 z_356
         + 46 z_357 + 5 z_358 + 74 z_359 + 13 z_360 + 52 z_361 + 88 z_362
         + 47 z_363 + 37 z_364 + 21 z_365 + 43 z_366 + 33 z_367 + 67 z_368
         + 38 z_369 + 21 z_370 + 38 z_371 + 56 z_372 + 100 z_373 + 48 z_374
         + 72 z_375 + 7 z_376 + 62 z_377 + 79 z_378 + 62 z_379 + 4 z_380
         + 18 z_381 + 37 z_382 + 64 z_383 + 70 z_384 + 63 z_385 + 3 z_386
         + 8 z_387 + 8 z_388 + 59 z_389 + 33 z_390 + 72 z_391 + 11 z_392
         + 20 z_393 + 70 z_394 + 99 z_395 + 93 z_396 + 13 z_397 + 32 z_398
         + 59 z_399 + 2 z_400 + 4 z_401 + 48 z_402 + 57 z_403 + 3 z_404
         + 95 z_405 + 81 z_406 + 61 z_407 + 9 z_408 + 11 z_409 + 74 z_410
         + 12 z_411 + 28 z_412 + 62 z_413 + 75 z_414 + 49 z_415 + 24 z_416
         + 29 z_417 + 9 z_418 + 84 z_419 + 40 z_420 + 41 z_421 + 55 z_422
         + 50 z_423 + 13 z_424 + 25 z_425 + 100 z_426 + 5 z_427 + 89 z_428
         + 83 z_429 + 15 z_430 + 90 z_431 + 86 z_432 + 62 z_433 + 98 z_434
         + 40 z_435 + 8 z_436 + 78 z_437 + 53 z_438 + 16 z_439 + 89 z_440
         + 26 z_441 + 80 z_442 + 68 z_443 + 88 z_444 + 6 z_445 + 17 z_446
         + 63 z_447 + 87 z_448 + 25 z_449 + 46 z_450 + 26 z_451 + 17 z_452
         + 53 z_453 + 27 z_454 + 29 z_455 + 77 z_456 + 26 z_457 + 33 z_458
         + 17 z_459 + 9 z_460 + 99 z_461 + 6 z_462 + 46 z_463 + 12 z_464
         + 3 z_465 + 86 z_466 + 20 z_467 + 33 z_468 + 90 z_469 + 87 z_470
         + 21 z_471 + 15 z_472 + 18 z_473 + 40 z_474 + 54 z_475 + 24 z_476
         + 8 z_477 + 69 z_478 + 10 z_479 + 32 z_480 + 66 z_481 + 87 z_482
         + 49 z_483 + 18 z_484 + 13 z_485 + 29 z_486 + 46 z_487 + 38 z_488
         + 62 z_489 + 62 z_490 + 98 z_491 + 12 z_492 + 19 z_493 + 44 z_494
         + 24 z_495 + 22 z_496 + 81 z_497 + 95 z_498 + 6 z_499 + 70 z_500
         + 33 z_501 + 78 z_502 + 36 z_503 + 51 z_504 + 17 z_505 + 42 z_506
         + 26 z_507 + 25 z_508 + 10 z_509 + 87 z_510 + 8 z_511 + 75 z_512
         + 73 z_513 + 8 z_514 + 45 z_515 + 85 z_516 + 37 z_517 + 90 z_518
         + 74 z_519 + 50 z_520 + 4 z_521 + 72 z_522 + 61 z_523 + 22 z_524
         + 67 z_525 + 36 z_526 + 95 z_527 + 99 z_528 + 82 z_529 + 100 z_530
         + 20 z_531 + 15 z_532 + 77 z_533 + 7 z_534 + 17 z_535 + 94 z_536
         + 48 z_537 + 94 z_538 + 70 z_539 + 9 z_540 + 80 z_541 + 77 z_542
         + 36 z_543 + 52 z_544 + 85 z_545 + 32 z_546 + 88 z_547 + 73 z_548
         + 21 z_549 + 61 z_550 + 22 z_551 + 24 z_552 + 84 z_553 + 34 z_554
         + 98 z_555 + 2 z_556 + 70 z_557 + 92 z_558 + 100 z_559 + 51 z_560
         + 92 z_561 + 19 z_562 + 17 z_563 + 68 z_564 + 26 z_565 + 85 z_566
         + 13 z_567 + 25 z_568 + 78 z_569 + 82 z_570 + 86 z_571 + 57 z_572
         + 59 z_573 + 21 z_574 + 60 z_575 + 95 z_576 + 52 z_577 + 47 z_578
         + 67 z_579 + 24 z_580 + 60 z_581 + 40 z_582 + 100 z_583 + 95 z_584
         + 73 z_585 + 97 z_586 + 97 z_587 + 94 z_588 + 40 z_589 + 48 z_590
         + 97 z_591 + 31 z_592 + 67 z_593 + 13 z_594 + 51 z_595 + 44 z_596
         + 98 z_597 + 15 z_598 + 20 z_599 + 27 z_600 + 97 z_601 + 5 z_602
         + 84 z_603 + 7 z_604 + 77 z_605 + 95 z_606 + 53 z_607 + 80 z_608
         + 94 z_609 + 71 z_610 + 56 z_611 + 5 z_612 + 10 z_613 + 7 z_614
         + 99 z_615 + 82 z_616 + 3 z_617 + 95 z_618 + 28 z_619 + 94 z_620
         + 43 z_621 + 24 z_622 + 25 z_623 + 61 z_624 + 36 z_625 + 27 z_626
         + 56 z_627 + 85 z_628 + 41 z_629 + 27 z_630 + 12 z_631 + 89 z_632
         + 84 z_633 + 47 z_634 + 47 z_635 + 12 z_636 + 41 z_637 + 99 z_638
         + 92 z_639 + 86 z_640 + 69 z_641 + 99 z_642 + 90 z_643 + 78 z_644
         + 5 z_645 + 89 z_646 + 12 z_647 + 59 z_648 + 35 z_649 + 39 z_650
         + 52 z_651 + 29 z_652 + 62 z_653 + 28 z_654 + 89 z_655 + 49 z_656
         + 54 z_657 + 96 z_658 + 86 z_659 + 47 z_660 + 75 z_661 + 97 z_662
         + 87 z_663 + 58 z_664 + 43 z_665 + 34 z_666 + 69 z_667 + 35 z_668
         + 32 z_669 + 12 z_670 + 21 z_671 + 53 z_672 + 10 z_673 + 10 z_674
         + 30 z_675 + 66 z_676 + 50 z_677 + 93 z_678 + 24 z_679 + 85 z_680
         + 83 z_681 + 28 z_682 + 13 z_683 + 96 z_684 + 55 z_685 + 54 z_686
         + 45 z_687 + 61 z_688 + z_689 + 82 z_690 + 59 z_691 + 75 z_692
         + 78 z_693 + 45 z_694 + 32 z_695 + 72 z_696 + 78 z_697 + z_698
         + 58 z_699 + 62 z_700 + 64 z_701 + 78 z_702 + 14 z_703 + 74 z_704
         + 40 z_705 + 95 z_706 + 91 z_707 + 89 z_708 + 40 z_709 + 15 z_710
         + 25 z_711 + 22 z_712 + 42 z_713 + 38 z_714 + 18 z_715 + 48 z_716
         + 43 z_717 + 14 z_718 + 8 z_719 + 43 z_720 + 95 z_721 + 18 z_722
         + 18 z_723 + 24 z_724 + 63 z_725 + z_726 + 47 z_727 + 92 z_728
         + 53 z_729 + 4 z_730 + 53 z_731 + 17 z_732 + 34 z_733 + 66 z_734
         + 42 z_735 + 73 z_736 + 13 z_737 + 32 z_738 + 13 z_739 + 52 z_740
         + 98 z_741 + 38 z_742 + 25 z_743 + 91 z_744 + 75 z_745 + 94 z_746
         + 39 z_747 + 69 z_748 + 7 z_749 + 98 z_750 + 11 z_751 + 53 z_752
         + 16 z_753 + 80 z_754 + 28 z_755 + 30 z_756 + 81 z_757 + 74 z_758
         + 21 z_759 + 85 z_760 + 78 z_761 + 74 z_762 + z_763 + 11 z_764
         + 91 z_765 + 94 z_766 + 35 z_767 + 55 z_768 + 26 z_769 + 47 z_770
         + 6 z_771 + 23 z_772 + 84 z_773 + 31 z_774 + 14 z_775 + 10 z_776
         + 76 z_777 + 4 z_778 + 78 z_779 + 83 z_780 + z_781 + 41 z_782
         + 87 z_783 + 68 z_784 + 20 z_785 + 15 z_786 + 97 z_787 + 52 z_788
         + 40 z_789 + 18 z_790 + 37 z_791 + 17 z_792 + 43 z_793 + 89 z_794
         + 79 z_795 + 85 z_796 + 83 z_797 + 13 z_798 + 40 z_799 + 8 z_800
         + 60 z_801 + 97 z_802 + 82 z_803 + 95 z_804 + 79 z_805 + 47 z_806
         + 5 z_807 + 55 z_808 + 2 z_809 + 34 z_810 + 89 z_811 + 3 z_812
         + 74 z_813 + 75 z_814 + 22 z_815 + 46 z_816 + 41 z_817 + 19 z_818
         + 97 z_819 + 81 z_820 + 88 z_821 + 33 z_822 + 49 z_823 + 30 z_824
         + 74 z_825 + 80 z_826 + 66 z_827 + 56 z_828 + 92 z_829 + 5 z_830
         + 15 z_831 + 3 z_832 + 54 z_833 + 48 z_834 + 50 z_835 + 32 z_836
         + 47 z_837 + 6 z_838 + 86 z_839 + 48 z_840 + 39 z_841 + 26 z_842
         + 50 z_843 + 65 z_844 + 53 z_845 + 24 z_846 + 10 z_847 + 93 z_848
         + 42 z_849 + 6 z_850 + 25 z_851 + 81 z_852 + 91 z_853 + 26 z_854
         + 62 z_855 + 64 z_856 + 5 z_857 + 27 z_858 + 71 z_859 + 48 z_860
         + 84 z_861 + 85 z_862 + 3 z_863 + 37 z_864 + 84 z_865 + 52 z_866
         + 20 z_867 + 30 z_868 + 57 z_869 + 58 z_870 + 78 z_871 + 47 z_872
         + 83 z_873 + 79 z_874 + 11 z_875 + 35 z_876 + 2 z_877 + 20 z_878
         + 28 z_879 + 95 z_880 + 26 z_881 + 4 z_882 + 75 z_883 + 68 z_884
         + 29 z_885 + 36 z_886 + 83 z_887 + 85 z_888 + 15 z_889 + 53 z_890
         + 85 z_891 + 98 z_892 + 89 z_893 + 87 z_894 + 86 z_895 + 24 z_896
         + 90 z_897 + 5 z_898 + 54 z_899 + 46 z_900 + 62 z_901 + 83 z_902
         + 44 z_903 + 45 z_904 + 61 z_905 + 55 z_906 + 79 z_907 + 15 z_908
         + 26 z_909 + 58 z_910 + 61 z_911 + 3 z_912 + 14 z_913 + 36 z_914
         + 70 z_915 + 94 z_916 + 23 z_917 + 52 z_918 + 79 z_919 + 37 z_920
         + 56 z_921 + 15 z_922 + 86 z_923 + 96 z_924 + z_925 + 71 z_926
         + 20 z_927 + 90 z_928 + 76 z_929 + 73 z_930 + 87 z_931 + 89 z_932
         + 55 z_933 + 30 z_934 + 33 z_935 + 67 z_936 + 36 z_937 + 64 z_938
         + 33 z_939 + 62 z_940 + 73 z_941 + 94 z_942 + 64 z_943 + 38 z_944
         + 81 z_945 + 34 z_946 + 32 z_947 + 55 z_948 + 37 z_949 + 62 z_950
         + 44 z_951 + 45 z_952 + 76 z_953 + 29 z_954 + 40 z_955 + 76 z_956
         + 52 z_957 + 59 z_958 + 17 z_959 + 79 z_960 + 83 z_961 + 3 z_962
         + 67 z_963 + 37 z_964 + 84 z_965 + 52 z_966 + 56 z_967 + 20 z_968
         + 67 z_969 + 40 z_970 + 81 z_971 + 91 z_972 + 85 z_973 + 44 z_974
         + 29 z_975 + 17 z_976 + 77 z_977 + 12 z_978 + 72 z_979 + 66 z_980
         + 25 z_981 + 67 z_982 + 10 z_983 + 100 z_984 + 95 z_985 + 49 z_986
         + 27 z_987 + 98 z_988 + 8 z_989 + 43 z_990 + 28 z_991 + 90 z_992
         + 97 z_993 + 47 z_994 + 79 z_995 + 80 z_996 + 50 z_997 + 86 z_998
         + 99 z_999 + 68 z_1000 + 77 z_1001 + 79 z_1002 + 58 z_1003 + 62 z_1004
         + 23 z_1005 + 38 z_1006 + 78 z_1007 + 51 z_1008 + 49 z_1009 + z_1010
         + 68 z_1011 + 73 z_1012 + 67 z_1013 + 77 z_1014 + 24 z_1015 + 14 z_1016
         + 78 z_1017 + 50 z_1018 + 11 z_1019 + 37 z_1020 + 44 z_1021 + 91 z_1022
         + 78 z_1023 + 92 z_1024 + 37 z_1025 + 8 z_1026 + 24 z_1027 + 86 z_1028
         + 93 z_1029 + 22 z_1030 + 53 z_1031 + 22 z_1032 + 53 z_1033 + 62 z_1034
         + 83 z_1035 + 27 z_1036 + 100 z_1037 + 12 z_1038 + 29 z_1039
         + 100 z_1040 + 13 z_1041 + 97 z_1042 + 25 z_1043 + 31 z_1044
         + 73 z_1045 + 48 z_1046 + 44 z_1047 + 2 z_1048 + 50 z_1049 + 7 z_1050
         + 38 z_1051 + 45 z_1052 + 97 z_1053 + 16 z_1054 + 37 z_1055 + 33 z_1056
         + 23 z_1057 + 60 z_1058 + 70 z_1059 + 68 z_1060 + 33 z_1061 + 74 z_1062
         + 89 z_1063 + 85 z_1064 + 35 z_1065 + 23 z_1066 + 63 z_1067 + 34 z_1068
         + 34 z_1069 + 92 z_1070 + 86 z_1071 + 98 z_1072 + 88 z_1073 + 10 z_1074
         + 29 z_1075 + 12 z_1076 + 57 z_1077 + 72 z_1078 + 66 z_1079 + 6 z_1080
         + 78 z_1081 + 3 z_1082 + 51 z_1083 + 26 z_1084 + 18 z_1085 + 39 z_1086
         + 58 z_1087 + 41 z_1088 + 50 z_1089 + 79 z_1090 + 60 z_1091 + 34 z_1092
         + 52 z_1093 + 48 z_1094 + 19 z_1095 + 87 z_1096 + 70 z_1097 + 33 z_1098
         + 72 z_1099 + 3 z_1100 + 24 z_1101 + 57 z_1102 + 53 z_1103 + 63 z_1104
         + 66 z_1105 + 81 z_1106 + 27 z_1107 + 23 z_1108 + 52 z_1109 + 92 z_1110
         + 80 z_1111 + 82 z_1112 + 94 z_1113 + 82 z_1114 + 7 z_1115 + 64 z_1116
         + 72 z_1117 + 17 z_1118 + 56 z_1119 + 21 z_1120 + 47 z_1121 + 15 z_1122
         + 55 z_1123 + 99 z_1124 + 62 z_1125 + 25 z_1126 + 37 z_1127 + 83 z_1128
         + 9 z_1129 + 8 z_1130 + 37 z_1131 + 85 z_1132 + 17 z_1133 + 89 z_1134
         + 47 z_1135 + 82 z_1136 + 21 z_1137 + 25 z_1138 + 56 z_1139 + 25 z_1140
         + 68 z_1141 + 88 z_1142 + 6 z_1143 + 14 z_1144 + 69 z_1145 + 64 z_1146
         + 77 z_1147 + 93 z_1148 + 32 z_1149 + 84 z_1150 + 65 z_1151 + 79 z_1152
         + 98 z_1153 + 19 z_1154 + 29 z_1155 + 11 z_1156 + 95 z_1157 + 65 z_1158
         + 45 z_1159 + 4 z_1160 + 72 z_1161 + 81 z_1162 + 88 z_1163 + 88 z_1164
         + 22 z_1165 + 86 z_1166 + 22 z_1167 + 42 z_1168 + 63 z_1169 + 29 z_1170
         + 66 z_1171 + 30 z_1172 + 16 z_1173 + 23 z_1174 + 95 z_1175 + 37 z_1176
         + 87 z_1177 + 71 z_1178 + 29 z_1179 + 70 z_1180 + 6 z_1181 + 93 z_1182
         + 48 z_1183 + 3 z_1184 + 64 z_1185 + 28 z_1186 + 65 z_1187 + 10 z_1188
         + 92 z_1189 + 61 z_1190 + 65 z_1191 + 16 z_1192 + 42 z_1193 + 52 z_1194
         + 55 z_1195 + 63 z_1196 + 90 z_1197 + 76 z_1198 + 56 z_1199 + 4 z_1200
         + 5 z_1201 + 22 z_1202 + 33 z_1203 + 72 z_1204 + 44 z_1205 + 28 z_1206
         + 8 z_1207 + 82 z_1208 + 50 z_1209 + 36 z_1210 + 52 z_1211 + 56 z_1212
         + 81 z_1213 + 51 z_1214 + 10 z_1215 + 96 z_1216 + 79 z_1217 + 27 z_1218
         + 5 z_1219 + 22 z_1220 + 87 z_1221 + 70 z_1222 + 37 z_1223 + 80 z_1224
         + 73 z_1225 + 44 z_1226 + 94 z_1227 + 62 z_1228 + 19 z_1229 + 50 z_1230
         + 17 z_1231 + 75 z_1232 + 71 z_1233 + 50 z_1234 + 99 z_1235 + 66 z_1236
         + 29 z_1237 + 6 z_1238 + 48 z_1239 + 30 z_1240 + 94 z_1241 + 99 z_1242
         + 37 z_1243 + 74 z_1244 + z_1245 + 99 z_1246 + 69 z_1247 + 79 z_1248
         + 77 z_1249 + 25 z_1250 + 53 z_1251 + 15 z_1252 + 94 z_1253 + 89 z_1254
         + 95 z_1255 + 67 z_1256 + 32 z_1257 + 88 z_1258 + 80 z_1259 + 3 z_1260
         + 89 z_1261 + 97 z_1262 + 29 z_1263 + 11 z_1264 + 98 z_1265 + 27 z_1266
         + 77 z_1267 + 78 z_1268 + 85 z_1269 + 76 z_1270 + 59 z_1271 + 78 z_1272
         + 26 z_1273 + 48 z_1274 + 3 z_1275 + 26 z_1276 + 46 z_1277 + 23 z_1278
         + 57 z_1279 + 74 z_1280 + 47 z_1281 + 9 z_1282 + 88 z_1283 + 93 z_1284
         + 49 z_1285 + 34 z_1286 + 59 z_1287 + 33 z_1288 + 22 z_1289 + 90 z_1290
         + 35 z_1291 + 62 z_1292 + 38 z_1293 + 15 z_1294 + 73 z_1295 + 87 z_1296
         + 42 z_1297 + z_1298 + 64 z_1299 + 26 z_1300 + 76 z_1301 + 75 z_1302
         + 55 z_1303 + z_1304 + 22 z_1305 + 57 z_1306 + 78 z_1307 + 19 z_1308
         + 31 z_1309 + 34 z_1310 + 92 z_1311 + 77 z_1312 + 94 z_1313 + 79 z_1314
         + 69 z_1315 + 43 z_1316 + 65 z_1317 + 79 z_1318 + 75 z_1319 + 86 z_1320
         + 21 z_1321 + 61 z_1322 + 99 z_1323 + 58 z_1324 + 75 z_1325 + 23 z_1326
         + 45 z_1327 + 68 z_1328 + 23 z_1329 + 60 z_1330 + 45 z_1331 + 98 z_1332
         + 34 z_1333 + 99 z_1334 + 50 z_1335 + 7 z_1336 + 7 z_1337 + 28 z_1338
         + 25 z_1339 + 37 z_1340 + 13 z_1341 + 16 z_1342 + 66 z_1343 + 59 z_1344
         + 47 z_1345 + 86 z_1346 + z_1347 + 11 z_1348 + 17 z_1349 + 27 z_1350
         + 48 z_1351 + 37 z_1352 + 87 z_1353 + 98 z_1354 + 94 z_1355 + 13 z_1356
         + 21 z_1357 + 90 z_1358 + 81 z_1359 + 43 z_1360 + 50 z_1361 + 77 z_1362
         + 93 z_1363 + 35 z_1364 + 28 z_1365 + 94 z_1366 + 42 z_1367 + 86 z_1368
         + 73 z_1369 + 18 z_1370 + 23 z_1371 + 86 z_1372 + 86 z_1373 + 40 z_1374
         + 96 z_1375 + 32 z_1376 + 25 z_1377 + 96 z_1378 + 94 z_1379 + 41 z_1380
         + 22 z_1381 + 93 z_1382 + 29 z_1383 + 60 z_1384 + 90 z_1385 + 23 z_1386
         + 72 z_1387 + 62 z_1388 + 64 z_1389 + 4 z_1390 + 5 z_1391 + 65 z_1392
         + 81 z_1393 + 49 z_1394 + 100 z_1395 + 60 z_1396 + 42 z_1397
         + 93 z_1398 + 45 z_1399 + 15 z_1400 + 10 z_1401 + 19 z_1402 + 52 z_1403
         + 95 z_1404 + 10 z_1405 + 47 z_1406 + 78 z_1407 + 35 z_1408 + 94 z_1409
         + 23 z_1410 + 27 z_1411 + 67 z_1412 + 15 z_1413 + 8 z_1414 + 26 z_1415
         + 57 z_1416 + 82 z_1417 + 49 z_1418 + 18 z_1419 + 45 z_1420 + 53 z_1421
         + 74 z_1422 + 10 z_1423 + 85 z_1424 + 74 z_1425 + 61 z_1426 + 96 z_1427
         + 16 z_1428 + 53 z_1429 + 40 z_1430 + 82 z_1431 + 62 z_1432 + 59 z_1433
         + 85 z_1434 + 9 z_1435 + 68 z_1436 + 83 z_1437 + 86 z_1438 + 54 z_1439
         + 28 z_1440 + 9 z_1441 + 33 z_1442 + 94 z_1443 + 75 z_1444 + 40 z_1445
         + 71 z_1446 + 83 z_1447 + 21 z_1448 + 19 z_1449 + 53 z_1450 + 17 z_1451
         + 23 z_1452 + 78 z_1453 + 26 z_1454 + 7 z_1455 + 52 z_1456 + 86 z_1457
         + 2 z_1458 + 19 z_1459 + 90 z_1460 + 94 z_1461 + 52 z_1462 + 52 z_1463
         + 4 z_1464 + 36 z_1465 + 12 z_1466 + 23 z_1467 + 70 z_1468 + 97 z_1469
         + 29 z_1470 + 49 z_1471 + 57 z_1472 + 13 z_1473 + 42 z_1474 + 84 z_1475
         + 52 z_1476 + 12 z_1477 + 66 z_1478 + 24 z_1479 + 82 z_1480 + 18 z_1481
         + 92 z_1482 + 5 z_1483 + 96 z_1484 + 18 z_1485 + 63 z_1486 + 47 z_1487
         + 55 z_1488 + 17 z_1489 + 17 z_1490 + 45 z_1491 + 10 z_1492 + 68 z_1493
         + 48 z_1494 + 65 z_1495 + 55 z_1496 + 59 z_1497 + 87 z_1498 + 24 z_1499
         + 7 z_1500 + 15 z_1501 + 72 z_1502 + 16 z_1503 + 27 z_1504 + 65 z_1505
         + 99 z_1506 + 30 z_1507 + 28 z_1508 + 64 z_1509 + 5 z_1510 + 9 z_1511
         + 34 z_1512 + 97 z_1513 + 65 z_1514 + 81 z_1515 + 66 z_1516 + 80 z_1517
         + 27 z_1518 + 72 z_1519 + 96 z_1520 + 95 z_1521 + 16 z_1522 + 57 z_1523
         + 62 z_1524 + 15 z_1525 + 73 z_1526 + 16 z_1527 + 25 z_1528 + 59 z_1529
         + 91 z_1530 + 84 z_1531 + 26 z_1532 + 62 z_1533 + 99 z_1534 + 4 z_1535
         + 78 z_1536 + 49 z_1537 + 86 z_1538 + 5 z_1539 + 12 z_1540 + 42 z_1541
         + 65 z_1542 + 97 z_1543 + 90 z_1544 + 82 z_1545 + 77 z_1546 + 55 z_1547
         + 61 z_1548 + 55 z_1549 + 79 z_1550 + 8 z_1551 + 49 z_1552 + 46 z_1553
         + 16 z_1554 + 10 z_1555 + 61 z_1556 + 88 z_1557 + 25 z_1558 + 37 z_1559
         + 98 z_1560 + 15 z_1561 + 20 z_1562 + 23 z_1563 + 28 z_1564 + 70 z_1565
         + 79 z_1566 + 5 z_1567 + 18 z_1568 + 16 z_1569 + 61 z_1570 + 82 z_1571
         + 57 z_1572 + 78 z_1573 + 30 z_1574 + 47 z_1575 + 59 z_1576 + 7 z_1577
         + 53 z_1578 + 71 z_1579 + 61 z_1580 + 31 z_1581 + 78 z_1582 + 10 z_1583
         + 77 z_1584 + 93 z_1585 + 71 z_1586 + 89 z_1587 + 32 z_1588 + 48 z_1589
         + 25 z_1590 + 29 z_1591 + 62 z_1592 + 97 z_1593 + 4 z_1594 + 42 z_1595
         + 66 z_1596 + 82 z_1597 + 98 z_1598 + 36 z_1599 + 49 z_1600 + 59 z_1601
         + 69 z_1602 + 5 z_1603 + 36 z_1604 + 98 z_1605 + 3 z_1606 + 46 z_1607
         + 4 z_1608 + 56 z_1609 + 16 z_1610 + 17 z_1611 + 38 z_1612 + 93 z_1613
         + 78 z_1614 + 14 z_1615 + 37 z_1616 + 100 z_1617 + 54 z_1618
         + 68 z_1619 + 47 z_1620 + 79 z_1621 + 48 z_1622 + 61 z_1623 + 27 z_1624
         + 51 z_1625 + 2 z_1626 + 44 z_1627 + 84 z_1628 + 99 z_1629 + 79 z_1630
         + 32 z_1631 + 9 z_1632 + 99 z_1633 + 37 z_1634 + 96 z_1635 + 97 z_1636
         + 91 z_1637 + 93 z_1638 + 52 z_1639 + 46 z_1640 + 8 z_1641 + 20 z_1642
         + 36 z_1643 + 52 z_1644 + 97 z_1645 + z_1646 + 40 z_1647 + 97 z_1648
         + 55 z_1649 + 59 z_1650 + 43 z_1651 + 85 z_1652 + 7 z_1653 + 55 z_1654
         + 11 z_1655 + 57 z_1656 + 56 z_1657 + 54 z_1658 + 93 z_1659 + 7 z_1660
         + 85 z_1661 + 24 z_1662 + 67 z_1663 + 83 z_1664 + 12 z_1665 + 15 z_1666
         + 31 z_1667 + 3 z_1668 + 7 z_1669 + 83 z_1670 + 100 z_1671 + 15 z_1672
         + 54 z_1673 + 35 z_1674 + 18 z_1675 + 51 z_1676 + 36 z_1677 + 58 z_1678
         + 99 z_1679 + 42 z_1680 + 16 z_1681 + 93 z_1682 + 26 z_1683 + 22 z_1684
         + 48 z_1685 + 88 z_1686 + 31 z_1687 + 3 z_1688 + 41 z_1689 + 23 z_1690
         + 61 z_1691 + 77 z_1692 + 46 z_1693 + 28 z_1694 + 12 z_1695 + 10 z_1696
         + 94 z_1697 + 42 z_1698 + 12 z_1699 + 100 z_1700 + 76 z_1701
         + 11 z_1702 + 14 z_1703 + 82 z_1704 + 98 z_1705 + 84 z_1706 + 32 z_1707
         + 33 z_1708 + 41 z_1709 + 82 z_1710 + 74 z_1711 + 8 z_1712 + 74 z_1713
         + 51 z_1714 + 82 z_1715 + 21 z_1716 + 38 z_1717 + 12 z_1718 + 76 z_1719
         + 30 z_1720 + 86 z_1721 + 88 z_1722 + 59 z_1723 + 83 z_1724 + 67 z_1725
         + 70 z_1726 + 92 z_1727 + 60 z_1728 + 63 z_1729 + 3 z_1730 + 60 z_1731
         + 91 z_1732 + 66 z_1733 + 25 z_1734 + 72 z_1735 + 63 z_1736 + 8 z_1737
         + 55 z_1738 + 47 z_1739 + 100 z_1740 + 36 z_1741 + 20 z_1742 + 8 z_1743
         + 9 z_1744 + 22 z_1745 + 89 z_1746 + 82 z_1747 + 59 z_1748 + 100 z_1749
         + 9 z_1750 + 40 z_1751 + 37 z_1752 + 96 z_1753 + 98 z_1754 + 19 z_1755
         + 63 z_1756 + 67 z_1757 + 11 z_1758 + 74 z_1759 + 82 z_1760 + 65 z_1761
         + 33 z_1762 + 24 z_1763 + 30 z_1764 + 10 z_1765 + 95 z_1766 + 44 z_1767
         + 17 z_1768 + z_1769 + 90 z_1770 + 17 z_1771 + 36 z_1772 + 61 z_1773
         + 76 z_1774 + 96 z_1775 + 82 z_1776 + 64 z_1777 + 29 z_1778 + 92 z_1779
         + 15 z_1780 + 37 z_1781 + 32 z_1782 + 51 z_1783 + 85 z_1784 + 29 z_1785
         + 69 z_1786 + 99 z_1787 + 48 z_1788 + 31 z_1789 + 72 z_1790 + 81 z_1791
         + 96 z_1792 + 57 z_1793 + 4 z_1794 + 77 z_1795 + 66 z_1796 + 50 z_1797
         + 21 z_1798 + 34 z_1799 + 50 z_1800 + 10 z_1801 + 50 z_1802 + 85 z_1803
         + 23 z_1804 + 77 z_1805 + 32 z_1806 + 4 z_1807 + 40 z_1808 + 61 z_1809
         + 48 z_1810 + 6 z_1811 + 49 z_1812 + 79 z_1813 + 56 z_1814 + 33 z_1815
         + 59 z_1816 + 77 z_1817 + 83 z_1818 + 58 z_1819 + 59 z_1820 + 55 z_1821
         + 38 z_1822 + 54 z_1823 + 63 z_1824 + 41 z_1825 + 83 z_1826 + 28 z_1827
         + 90 z_1828 + 55 z_1829 + 61 z_1830 + 39 z_1831 + 16 z_1832 + 63 z_1833
         + 75 z_1834 + 38 z_1835 + 39 z_1836 + 59 z_1837 + 94 z_1838 + 31 z_1839
         + 71 z_1840 + 41 z_1841 + 36 z_1842 + 19 z_1843 + 71 z_1844 + 44 z_1845
         + 4 z_1846 + 29 z_1847 + 72 z_1848 + 86 z_1849 + 87 z_1850 + 30 z_1851
         + 92 z_1852 + 24 z_1853 + 36 z_1854 + 54 z_1855 + 17 z_1856 + 18 z_1857
         + 33 z_1858 + 6 z_1859 + 72 z_1860 + 94 z_1861 + 97 z_1862 + 87 z_1863
         + 8 z_1864 + 23 z_1865 + 77 z_1866 + 46 z_1867 + 81 z_1868 + 70 z_1869
         + 76 z_1870 + 51 z_1871 + 10 z_1872 + 64 z_1873 + 22 z_1874 + 80 z_1875
         + 7 z_1876 + 25 z_1877 + 60 z_1878 + 78 z_1879 + 62 z_1880 + 46 z_1881
         + 59 z_1882 + 6 z_1883 + 22 z_1884 + 94 z_1885 + 11 z_1886 + 38 z_1887
         + 63 z_1888 + 44 z_1889 + 95 z_1890 + 34 z_1891 + 89 z_1892 + 43 z_1893
         + 73 z_1894 + 96 z_1895 + 66 z_1896 + 49 z_1897 + 41 z_1898 + 46 z_1899
         + 70 z_1900 + 69 z_1901 + 49 z_1902 + 79 z_1903 + 84 z_1904 + 70 z_1905
         + 10 z_1906 + 42 z_1907 + 94 z_1908 + 21 z_1909 + 71 z_1910 + 7 z_1911
         + 19 z_1912 + 29 z_1913 + 12 z_1914 + 40 z_1915 + 23 z_1916 + 23 z_1917
         + 29 z_1918 + 85 z_1919 + 66 z_1920 + 75 z_1921 + 71 z_1922 + 54 z_1923
         + 18 z_1924 + 95 z_1925 + z_1926 + 83 z_1927 + 95 z_1928 + 93 z_1929
         + 80 z_1930 + 64 z_1931 + 13 z_1932 + 28 z_1933 + 94 z_1934 + 96 z_1935
         + 97 z_1936 + 55 z_1937 + 37 z_1938 + 42 z_1939 + 75 z_1940 + 7 z_1941
         + 49 z_1942 + 93 z_1943 + 88 z_1944 + 60 z_1945 + 84 z_1946 + 10 z_1947
         + 34 z_1948 + 12 z_1949 + 46 z_1950 + 51 z_1951 + 87 z_1952 + 68 z_1953
         + 56 z_1954 + 56 z_1955 + 62 z_1956 + 56 z_1957 + 38 z_1958 + 56 z_1959
         + 49 z_1960 + 17 z_1961 + 71 z_1962 + 61 z_1963 + 45 z_1964 + 64 z_1965
         + 57 z_1966 + 93 z_1967 + 18 z_1968 + 45 z_1969 + 35 z_1970 + 45 z_1971
         + 4 z_1972 + 83 z_1973 + 37 z_1974 + 91 z_1975 + 94 z_1976 + 73 z_1977
         + 52 z_1978 + 80 z_1979 + 84 z_1980 + 97 z_1981 + 30 z_1982 + 22 z_1983
         + 17 z_1984 + 38 z_1985 + 77 z_1986 + 30 z_1987 + 93 z_1988 + 66 z_1989
         + 38 z_1990 + 41 z_1991 + 35 z_1992 + 8 z_1993 + 54 z_1994 + 31 z_1995
         + 24 z_1996 + 62 z_1997 + 23 z_1998 + 93 z_1999 + 6 z_2000 + 57 z_2001
         + 37 z_2002 + 9 z_2003 + 91 z_2004 + 26 z_2005 + 51 z_2006 + 37 z_2007
         + 98 z_2008 + 2 z_2009 + 68 z_2010 + 33 z_2011 + 51 z_2012 + 49 z_2013
         + 7 z_2014 + 67 z_2015 + 86 z_2016 + 35 z_2017 + 96 z_2018 + 79 z_2019
         + z_2020 + 33 z_2021 + 71 z_2022 + 35 z_2023 + 93 z_2024 + 24 z_2025
         + 65 z_2026 + 16 z_2027 + 85 z_2028 + 39 z_2029 + 8 z_2030 + 43 z_2031
         + 48 z_2032 + 97 z_2033 + 3 z_2034 + 90 z_2035 + 22 z_2036 + 54 z_2037
         + 78 z_2038 + 19 z_2039 + 55 z_2040 + 45 z_2041 + 51 z_2042 + 57 z_2043
         + 94 z_2044 + 57 z_2045 + 23 z_2046 + 31 z_2047 + 92 z_2048 + 71 z_2049
         + 61 z_2050 + 44 z_2051 + 55 z_2052 + 32 z_2053 + 30 z_2054 + 99 z_2055
         + 7 z_2056 + 46 z_2057 + 14 z_2058 + 44 z_2059 + 84 z_2060 + 74 z_2061
         + 86 z_2062 + 31 z_2063 + 70 z_2064 + 88 z_2065 + 21 z_2066 + 91 z_2067
         + 93 z_2068 + 50 z_2069 + 61 z_2070 + 48 z_2071 + 95 z_2072 + 11 z_2073
         + 56 z_2074 + 40 z_2075 + 20 z_2076 + 31 z_2077 + 70 z_2078 + 63 z_2079
         + z_2080 + 31 z_2081 + 58 z_2082 + 7 z_2083 + 14 z_2084 + 87 z_2085
         + 6 z_2086 + 20 z_2087 + 32 z_2088 + 71 z_2089 + 63 z_2090 + 67 z_2091
         + 44 z_2092 + 100 z_2093 + 98 z_2094 + 13 z_2095 + 88 z_2096
         + 70 z_2097 + 55 z_2098 + 80 z_2099 + 19 z_2100 + 15 z_2101 + 79 z_2102
         + 65 z_2103 + 26 z_2104 + 87 z_2105 + 4 z_2106 + 97 z_2107 + 17 z_2108
         + 26 z_2109 + 11 z_2110 + 69 z_2111 + 8 z_2112 + 68 z_2113 + 75 z_2114
         + 21 z_2115 + 6 z_2116 + 32 z_2117 + 92 z_2118 + 37 z_2119 + 3 z_2120
         + 7 z_2121 + 55 z_2122 + 98 z_2123 + 6 z_2124 + 4 z_2125 + 11 z_2126
         + 45 z_2127 + 73 z_2128 + 65 z_2129 + 77 z_2130 + 44 z_2131 + 80 z_2132
         + 7 z_2133 + 8 z_2134 + 57 z_2135 + 93 z_2136 + 64 z_2137 + 5 z_2138
         + 9 z_2139 + 41 z_2140 + 15 z_2141 + 29 z_2142 + 48 z_2143 + 34 z_2144
         + 56 z_2145 + 20 z_2146 + 39 z_2147 + 87 z_2148 + 11 z_2149 + 27 z_2150
         + 41 z_2151 + 69 z_2152 + 81 z_2153 + 39 z_2154 + 75 z_2155 + 85 z_2156
         + z_2157 + 71 z_2158 + 9 z_2159 + 17 z_2160 + 99 z_2161 + 4 z_2162
         + 48 z_2163 + 6 z_2164 + 12 z_2165 + 4 z_2166 + 50 z_2167 + 27 z_2168
         + 60 z_2169 + 11 z_2170 + 67 z_2171 + 26 z_2172 + 39 z_2173 + 66 z_2174
         + 59 z_2175 + 94 z_2176 + 85 z_2177 + 49 z_2178 + 33 z_2179 + 47 z_2180
         + 75 z_2181 + 25 z_2182 + 16 z_2183 + 8 z_2184 + 63 z_2185 + 42 z_2186
         + 44 z_2187 + 15 z_2188 + 64 z_2189 + 4 z_2190 + 32 z_2191 + 63 z_2192
         + 8 z_2193 + 79 z_2194 + 20 z_2195 + 71 z_2196 + 35 z_2197 + 21 z_2198
         + 97 z_2199 + 94 z_2200 + 31 z_2201 + 15 z_2202 + 72 z_2203 + 22 z_2204
         + 80 z_2205 + 30 z_2206 + 67 z_2207 + 16 z_2208 + 79 z_2209 + 51 z_2210
         + 62 z_2211 + 5 z_2212 + 76 z_2213 + 77 z_2214 + 64 z_2215 + 90 z_2216
         + 70 z_2217 + 7 z_2218 + 5 z_2219 + 34 z_2220 + 11 z_2221 + 88 z_2222
         + 48 z_2223 + 18 z_2224 + 18 z_2225 + 67 z_2226 + 40 z_2227 + 52 z_2228
         + 39 z_2229 + 36 z_2230 + 98 z_2231 + 70 z_2232 + 2 z_2233 + 69 z_2234
         + 43 z_2235 + 81 z_2236 + 50 z_2237 + 61 z_2238 + 96 z_2239 + 80 z_2240
         + 12 z_2241 + 9 z_2242 + 85 z_2243 + 39 z_2244 + 38 z_2245 + 100 z_2246
         + 28 z_2247 + 7 z_2248 + 59 z_2249 + 84 z_2250 + 92 z_2251 + 69 z_2252
         + 71 z_2253 + 91 z_2254 + 38 z_2255 + 89 z_2256 + 57 z_2257 + 77 z_2258
         + 92 z_2259 + 48 z_2260 + 64 z_2261 + 89 z_2262 + 69 z_2263 + 65 z_2264
         + 9 z_2265 + 11 z_2266 + 97 z_2267 + 59 z_2268 + 23 z_2269 + 44 z_2270
         + 90 z_2271 + 34 z_2272 + 4 z_2273 + 74 z_2274 + 72 z_2275 + 41 z_2276
         + 26 z_2277 + 52 z_2278 + 100 z_2279 + 84 z_2280 + 35 z_2281
         + 43 z_2282 + 4 z_2283 + 6 z_2284 + 34 z_2285 + 93 z_2286 + 46 z_2287
         + 42 z_2288 + 21 z_2289 + 37 z_2290 + 89 z_2291 + 84 z_2292 + 78 z_2293
         + 57 z_2294 + 100 z_2295 + 86 z_2296 + 19 z_2297 + 48 z_2298
         + 96 z_2299 + 42 z_2300 + 91 z_2301 + 86 z_2302 + 75 z_2303 + 94 z_2304
         + 11 z_2305 + 99 z_2306 + 87 z_2307 + 36 z_2308 + 2 z_2309 + 86 z_2310
         + 19 z_2311 + 36 z_2312 + 28 z_2313 + 22 z_2314 + 93 z_2315 + 13 z_2316
         + 14 z_2317 + 90 z_2318 + 55 z_2319 + 34 z_2320 + 27 z_2321 + 43 z_2322
         + 69 z_2323 + 4 z_2324 + 100 z_2325 + 20 z_2326 + 41 z_2327 + 18 z_2328
         + 67 z_2329 + 89 z_2330 + 11 z_2331 + 57 z_2332 + 74 z_2333 + 86 z_2334
         + 3 z_2335 + 36 z_2336 + 36 z_2337 + 89 z_2338 + 72 z_2339 + 89 z_2340
         + 26 z_2341 + 42 z_2342 + 76 z_2343 + 5 z_2344 + 16 z_2345 + 69 z_2346
         + 18 z_2347 + 81 z_2348 + 10 z_2349 + 72 z_2350 + 67 z_2351 + 36 z_2352
         + 66 z_2353 + 87 z_2354 + 91 z_2355 + 65 z_2356 + 7 z_2357 + 32 z_2358
         + 35 z_2359 + 73 z_2360 + 72 z_2361 + 45 z_2362 + 82 z_2363 + 45 z_2364
         + 82 z_2365 + 84 z_2366 + 32 z_2367 + 69 z_2368 + 24 z_2369 + 3 z_2370
         + 9 z_2371 + z_2372 + 97 z_2373 + 85 z_2374 + 5 z_2375 + 64 z_2376
         + 5 z_2377 + 22 z_2378 + 44 z_2379 + 14 z_2380 + 45 z_2381 + 10 z_2382
         + 2 z_2383 + 11 z_2384 + 97 z_2385 + 92 z_2386 + 27 z_2387 + 3 z_2388
         + 75 z_2389 + 13 z_2390 + 27 z_2391 + 46 z_2392 + 10 z_2393 + 8 z_2394
         + 42 z_2395 + 43 z_2396 + 43 z_2397 + 74 z_2398 + 64 z_2399 + 18 z_2400
         + 28 z_2401 + 72 z_2402 + 18 z_2403 + 24 z_2404 + 56 z_2405 + 23 z_2406
         + 87 z_2407 + 60 z_2408 + 96 z_2409 + 83 z_2410 + 74 z_2411 + 93 z_2412
         + 92 z_2413 + 75 z_2414 + 3 z_2415 + 40 z_2416 + 18 z_2417 + 81 z_2418
         + 94 z_2419 + 93 z_2420 + 46 z_2421 + 73 z_2422 + 90 z_2423 + 55 z_2424
         + 32 z_2425 + 32 z_2426 + 49 z_2427 + 75 z_2428 + 5 z_2429 + 12 z_2430
         + 44 z_2431 + 32 z_2432 + 84 z_2433 + 62 z_2434 + 8 z_2435 + 39 z_2436
         + 36 z_2437 + 46 z_2438 + 51 z_2439 + 31 z_2440 + 28 z_2441 + 76 z_2442
         + 75 z_2443 + 72 z_2444 + 2 z_2445 + 29 z_2446 + 63 z_2447 + 19 z_2448
         + 10 z_2449 + 9 z_2450 + 63 z_2451 + 7 z_2452 + 81 z_2453 + 53 z_2454
         + 61 z_2455 + 12 z_2456 + 84 z_2457 + 9 z_2458 + 38 z_2459 + 40 z_2460
         + 73 z_2461 + 82 z_2462 + 23 z_2463 + 56 z_2464 + 43 z_2465 + 30 z_2466
         + 46 z_2467 + 30 z_2468 + 28 z_2469 + 48 z_2470 + 60 z_2471 + 7 z_2472
         + 23 z_2473 + 87 z_2474 + 30 z_2475 + 24 z_2476 + 15 z_2477 + 93 z_2478
         + 95 z_2479 + 24 z_2480 + 53 z_2481 + 57 z_2482 + 30 z_2483 + 33 z_2484
         + 9 z_2485 + 42 z_2486 + 96 z_2487 + 44 z_2488 + 3 z_2489 + 34 z_2490
         + 83 z_2491 + 75 z_2492 + 15 z_2493 + 6 z_2494 + 82 z_2495 + 9 z_2496
         + 87 z_2497 + 79 z_2498 + 38 z_2499 + 14 z_2500 + 27 z_2501 + 49 z_2502
         + 21 z_2503 + z_2504 + 35 z_2505 + 50 z_2506 + 77 z_2507 + 50 z_2508
         + 94 z_2509 + 71 z_2510 + 25 z_2511 + 46 z_2512 + 27 z_2513 + 7 z_2514
         + 30 z_2515 + 36 z_2516 + 100 z_2517 + 26 z_2518 + 79 z_2519 + 2 z_2520
         + 59 z_2521 + 14 z_2522 + 28 z_2523 + 25 z_2524 + 19 z_2525 + 61 z_2526
         + 85 z_2527 + 5 z_2528 + 92 z_2529 + 74 z_2530 + 19 z_2531 + 70 z_2532
         + 74 z_2533 + 91 z_2534 + 70 z_2535 + 61 z_2536 + 92 z_2537 + 46 z_2538
         + 10 z_2539 + 38 z_2540 + 16 z_2541 + 86 z_2542 + 83 z_2543 + 95 z_2544
         + 92 z_2545 + 13 z_2546 + 82 z_2547 + 44 z_2548 + 90 z_2549 + 12 z_2550
         + 45 z_2551 + 100 z_2552 + 25 z_2553 + 25 z_2554 + 76 z_2555
         + 43 z_2556 + 85 z_2557 + 60 z_2558 + 48 z_2559 + 28 z_2560 + 85 z_2561
         + 18 z_2562 + 97 z_2563 + 58 z_2564 + 60 z_2565 + 67 z_2566 + 18 z_2567
         + 51 z_2568 + 64 z_2569 + 79 z_2570 + 88 z_2571 + 32 z_2572 + 17 z_2573
         + 23 z_2574 + 26 z_2575 + 60 z_2576 + 87 z_2577 + 7 z_2578 + 3 z_2579
         + 76 z_2580 + 18 z_2581 + 48 z_2582 + 75 z_2583 + 43 z_2584 + 24 z_2585
         + 50 z_2586 + 37 z_2587 + 60 z_2588 + 61 z_2589 + 36 z_2590 + 88 z_2591
         + 45 z_2592 + 53 z_2593 + 84 z_2594 + 54 z_2595 + 64 z_2596 + 2 z_2597
         + 72 z_2598 + 67 z_2599 + 66 z_2600 + 2 z_2601 + 6 z_2602 + 97 z_2603
         + 18 z_2604 + 28 z_2605 + 74 z_2606 + 78 z_2607 + 66 z_2608 + 80 z_2609
         + 80 z_2610 + 41 z_2611 + 49 z_2612 + 79 z_2613 + 67 z_2614 + 43 z_2615
         + 2 z_2616 + 68 z_2617 + 80 z_2618 + 62 z_2619 + 28 z_2620 + 15 z_2621
         + 49 z_2622 + 24 z_2623 + 20 z_2624 + 84 z_2625 + 30 z_2626 + 83 z_2627
         + 86 z_2628 + z_2629 + 49 z_2630 + 51 z_2631 + 54 z_2632 + 55 z_2633
         + 99 z_2634 + 72 z_2635 + 34 z_2636 + 72 z_2637 + z_2638 + 100 z_2639
         + 51 z_2640 + 80 z_2641 + 92 z_2642 + 51 z_2643 + 59 z_2644 + 59 z_2645
         + 94 z_2646 + 12 z_2647 + 26 z_2648 + 73 z_2649 + 73 z_2650 + 6 z_2651
         + 87 z_2652 + 73 z_2653 + 81 z_2654 + 6 z_2655 + 57 z_2656 + 10 z_2657
         + 89 z_2658 + 42 z_2659 + 62 z_2660 + 89 z_2661 + 44 z_2662 + 68 z_2663
         + 43 z_2664 + 42 z_2665 + 39 z_2666 + 29 z_2667 + 13 z_2668 + 39 z_2669
         + 28 z_2670 + 15 z_2671 + 70 z_2672 + 19 z_2673 + 65 z_2674 + 80 z_2675
         + 77 z_2676 + 58 z_2677 + 92 z_2678 + 55 z_2679 + 82 z_2680 + 16 z_2681
         + 12 z_2682 + 69 z_2683 + 89 z_2684 + 44 z_2685 + 26 z_2686 + 97 z_2687
         + 6 z_2688 + 66 z_2689 + 90 z_2690 + 19 z_2691 + 55 z_2692 + 33 z_2693
         + 86 z_2694 + 49 z_2695 + 26 z_2696 + 24 z_2697 + 77 z_2698 + 90 z_2699
         + 14 z_2700 + 56 z_2701 + 56 z_2702 + 84 z_2703 + 75 z_2704 + 20 z_2705
         + 63 z_2706 + 3 z_2707 + 30 z_2708 + 54 z_2709 + 9 z_2710 + 11 z_2711
         + 22 z_2712 + 72 z_2713 + 31 z_2714 + 10 z_2715 + 16 z_2716 + 57 z_2717
         + 58 z_2718 + 73 z_2719 + 74 z_2720 + 47 z_2721 + 91 z_2722 + 28 z_2723
         + 31 z_2724 + 77 z_2725 + 29 z_2726 + 8 z_2727 + 100 z_2728 + 57 z_2729
         + 97 z_2730 + 66 z_2731 + 13 z_2732 + 52 z_2733 + z_2734 + 39 z_2735
         + 23 z_2736 + 63 z_2737 + 93 z_2738 + 4 z_2739 + 69 z_2740 + 2 z_2741
         + 15 z_2742 + 90 z_2743 + 25 z_2744 + 97 z_2745 + 51 z_2746 + 92 z_2747
         + 5 z_2748 + 60 z_2749 + 64 z_2750 + 79 z_2751 + 58 z_2752 + 55 z_2753
         + 58 z_2754 + 88 z_2755 + 83 z_2756 + 86 z_2757 + 47 z_2758 + 34 z_2759
         + 95 z_2760 + 95 z_2761 + 99 z_2762 + 7 z_2763 + 98 z_2764 + 99 z_2765
         + 97 z_2766 + 20 z_2767 + 14 z_2768 + 89 z_2769 + 24 z_2770 + 34 z_2771
         + 42 z_2772 + 90 z_2773 + 75 z_2774 + 67 z_2775 + 86 z_2776 + 25 z_2777
         + 10 z_2778 + 91 z_2779 + 36 z_2780 + 74 z_2781 + 21 z_2782 + 93 z_2783
         + 80 z_2784 + 78 z_2785 + 32 z_2786 + 62 z_2787 + 16 z_2788 + 78 z_2789
         + 95 z_2790 + 10 z_2791 + 72 z_2792 + 46 z_2793 + 68 z_2794 + 69 z_2795
         + 44 z_2796 + 64 z_2797 + 40 z_2798 + 9 z_2799 + 4 z_2800 + 15 z_2801
         + 42 z_2802 + 98 z_2803 + 56 z_2804 + 16 z_2805 + 16 z_2806 + 42 z_2807
         + 92 z_2808 + 25 z_2809 + 84 z_2810 + 27 z_2811 + 50 z_2812 + 56 z_2813
         + 19 z_2814 + 29 z_2815 + 33 z_2816 + 50 z_2817 + 42 z_2818 + 48 z_2819
         + 79 z_2820 + 89 z_2821 + 9 z_2822 + 2 z_2823 + 34 z_2824 + 76 z_2825
         + 22 z_2826 + 29 z_2827 + 91 z_2828 + 62 z_2829 + 38 z_2830 + 47 z_2831
         + 28 z_2832 + 79 z_2833 + 44 z_2834 + 84 z_2835 + 47 z_2836 + 59 z_2837
         + 77 z_2838 + 38 z_2839 + 35 z_2840 + 12 z_2841 + 65 z_2842 + 85 z_2843
         + 67 z_2844 + 35 z_2845 + 65 z_2846 + 99 z_2847 + 85 z_2848 + 59 z_2849
         + 99 z_2850 + 15 z_2851 + 47 z_2852 + 7 z_2853 + 17 z_2854 + 32 z_2855
         + 35 z_2856 + 38 z_2857 + 60 z_2858 + 25 z_2859 + 51 z_2860 + 97 z_2861
         + 23 z_2862 + 31 z_2863 + 28 z_2864 + 66 z_2865 + 14 z_2866 + 74 z_2867
         + 76 z_2868 + 90 z_2869 + 11 z_2870 + 63 z_2871 + z_2872 + 27 z_2873
         + 99 z_2874 + 67 z_2875 + 62 z_2876 + 63 z_2877 + 17 z_2878 + 98 z_2879
         + 73 z_2880 + 15 z_2881 + 12 z_2882 + 71 z_2883 + 22 z_2884 + 80 z_2885
         + 2 z_2886 + 56 z_2887 + 70 z_2888 + 62 z_2889 + 32 z_2890 + 20 z_2891
         + 10 z_2892 + 55 z_2893 + 50 z_2894 + 89 z_2895 + 72 z_2896 + 15 z_2897
         + 62 z_2898 + 48 z_2899 + 4 z_2900 + 25 z_2901 + 10 z_2902 + 56 z_2903
         + 51 z_2904 + 8 z_2905 + 74 z_2906 + 64 z_2907 + 22 z_2908 + 91 z_2909
         + 13 z_2910 + 47 z_2911 + 5 z_2912 + 77 z_2913 + 17 z_2914 + 78 z_2915
         + 56 z_2916 + 19 z_2917 + 33 z_2918 + 25 z_2919 + 32 z_2920 + 17 z_2921
         + 97 z_2922 + 93 z_2923 + 71 z_2924 + 98 z_2925 + 82 z_2926 + 42 z_2927
         + 13 z_2928 + 95 z_2929 + 41 z_2930 + 68 z_2931 + 19 z_2932 + 2 z_2933
         + 76 z_2934 + 22 z_2935 + 61 z_2936 + 49 z_2937 + 37 z_2938 + 83 z_2939
         + 39 z_2940 + 50 z_2941 + 81 z_2942 + 44 z_2943 + 26 z_2944 + 97 z_2945
         + 21 z_2946 + 33 z_2947 + 67 z_2948 + 6 z_2949 + 10 z_2950 + 50 z_2951
         + 22 z_2952 + 58 z_2953 + 43 z_2954 + 44 z_2955 + 55 z_2956 + 76 z_2957
         + 37 z_2958 + 19 z_2959 + 70 z_2960 + 30 z_2961 + 39 z_2962 + 41 z_2963
         + 31 z_2964 + 14 z_2965 + 14 z_2966 + 92 z_2967 + 62 z_2968 + 50 z_2969
         + 26 z_2970 + z_2971 + 51 z_2972 + 6 z_2973 + 96 z_2974 + 28 z_2975
         + 54 z_2976 + 68 z_2977 + 13 z_2978 + 21 z_2979 + 25 z_2980 + 22 z_2981
         + 70 z_2982 + 98 z_2983 + 79 z_2984 + 64 z_2985 + 41 z_2986 + 85 z_2987
         + 39 z_2988 + 30 z_2989 + 56 z_2990 + 61 z_2991 + 59 z_2992 + 94 z_2993
         + z_2994 + 41 z_2995 + 59 z_2996 + 66 z_2997 + 32 z_2998 + 20 z_2999
         + 67 z_3000 + 9 z_3001 + 72 z_3002 + 70 z_3003 + 66 z_3004 + 19 z_3005
         + 97 z_3006 + 20 z_3007 + 39 z_3008 + 61 z_3009 + 40 z_3010 + 63 z_3011
         + 34 z_3012 + 61 z_3013 + 61 z_3014 + 12 z_3015 + 25 z_3016 + 53 z_3017
         + 49 z_3018 + 63 z_3019 + 82 z_3020 + 4 z_3021 + 75 z_3022 + 40 z_3023
         + 49 z_3024 + 27 z_3025 + 81 z_3026 + 7 z_3027 + 92 z_3028 + 64 z_3029
         + 78 z_3030 + 59 z_3031 + 25 z_3032 + 2 z_3033 + 80 z_3034 + 90 z_3035
         + 72 z_3036 + 28 z_3037 + 9 z_3038 + 10 z_3039 + 89 z_3040 + 48 z_3041
         + 73 z_3042 + 22 z_3043 + 9 z_3044 + 33 z_3045 + 86 z_3046 + 85 z_3047
         + 85 z_3048 + 34 z_3049 + 47 z_3050 + 19 z_3051 + 89 z_3052 + 74 z_3053
         + 10 z_3054 + 89 z_3055 + 100 z_3056 + 42 z_3057 + 47 z_3058
         + 92 z_3059 + 6 z_3060 + 76 z_3061 + 2 z_3062 + 82 z_3063 + 29 z_3064
         + 81 z_3065 + 71 z_3066 + z_3067 + 8 z_3068 + 80 z_3069 + 62 z_3070
         + 48 z_3071 + 79 z_3072 + 34 z_3073 + 70 z_3074 + 39 z_3075 + 18 z_3076
         + 55 z_3077 + 23 z_3078 + 55 z_3079 + 40 z_3080 + 22 z_3081 + 25 z_3082
         + 80 z_3083 + 95 z_3084 + 34 z_3085 + 20 z_3086 + 46 z_3087 + 76 z_3088
         + 66 z_3089 + 37 z_3090 + 33 z_3091 + 93 z_3092 + 90 z_3093 + 14 z_3094
         + 22 z_3095 + 22 z_3096 + 84 z_3097 + 74 z_3098 + 82 z_3099 + 15 z_3100
         + 35 z_3101 + 29 z_3102 + 46 z_3103 + 69 z_3104 + 98 z_3105 + 36 z_3106
         + 38 z_3107 + 4 z_3108 + 59 z_3109 + 44 z_3110 + 95 z_3111 + 32 z_3112
         + 68 z_3113 + 26 z_3114 + 78 z_3115 + 2 z_3116 + 45 z_3117 + 23 z_3118
         + 77 z_3119 + 62 z_3120 + 12 z_3121 + 61 z_3122 + 7 z_3123 + 53 z_3124
         + 74 z_3125 + 28 z_3126 + 75 z_3127 + 9 z_3128 + z_3129 + 56 z_3130
         + 76 z_3131 + 35 z_3132 + 84 z_3133 + 21 z_3134 + 55 z_3135 + 34 z_3136
         + 56 z_3137 + 45 z_3138 + 89 z_3139 + 66 z_3140 + 88 z_3141 + 36 z_3142
         + 49 z_3143 + 8 z_3144 + 61 z_3145 + 78 z_3146 + 9 z_3147 + 58 z_3148
         + 53 z_3149 + 37 z_3150 + 71 z_3151 + 64 z_3152 + 97 z_3153 + 77 z_3154
         + 16 z_3155 + 22 z_3156 + 56 z_3157 + 42 z_3158 + 82 z_3159 + 56 z_3160
         + 97 z_3161 + 57 z_3162 + 43 z_3163 + 33 z_3164 + 77 z_3165 + 49 z_3166
         + 18 z_3167 + 85 z_3168 + 93 z_3169 + 58 z_3170 + 2 z_3171 + 81 z_3172
         + 93 z_3173 + 51 z_3174 + 40 z_3175 + 6 z_3176 + 80 z_3177 + 48 z_3178
         + 15 z_3179 + 32 z_3180 + 36 z_3181 + 37 z_3182 + 47 z_3183 + 84 z_3184
         + 14 z_3185 + 63 z_3186 + 5 z_3187 + 21 z_3188 + 56 z_3189 + 38 z_3190
         + 29 z_3191 + 53 z_3192 + 95 z_3193 + 71 z_3194 + 37 z_3195 + 23 z_3196
         + 19 z_3197 + 6 z_3198 + 59 z_3199 + 12 z_3200 + 63 z_3201 + 61 z_3202
         + 44 z_3203 + 56 z_3204 + 63 z_3205 + 83 z_3206 + 13 z_3207 + 42 z_3208
         + 82 z_3209 + 27 z_3210 + 74 z_3211 + 17 z_3212 + 15 z_3213 + 20 z_3214
         + 100 z_3215 + 80 z_3216 + 34 z_3217 + 56 z_3218 + z_3219 + 90 z_3220
         + 93 z_3221 + 29 z_3222 + 94 z_3223 + 39 z_3224 + 99 z_3225 + 82 z_3226
         + 62 z_3227 + 69 z_3228 + 87 z_3229 + 20 z_3230 + 32 z_3231 + 49 z_3232
         + 80 z_3233 + 27 z_3234 + 56 z_3235 + 94 z_3236 + 9 z_3237 + 20 z_3238
         + 36 z_3239 + 42 z_3240 + 98 z_3241 + 61 z_3242 + 10 z_3243 + 13 z_3244
         + 32 z_3245 + 61 z_3246 + 92 z_3247 + 18 z_3248 + 16 z_3249 + 44 z_3250
         + 7 z_3251 + 61 z_3252 + 72 z_3253 + 52 z_3254 + 99 z_3255 + 22 z_3256
         + 85 z_3257 + 12 z_3258 + 91 z_3259 + 71 z_3260 + 32 z_3261 + 74 z_3262
         + 71 z_3263 + 63 z_3264 + z_3265 + 79 z_3266 + 9 z_3267 + 61 z_3268
         + 98 z_3269 + 44 z_3270 + 3 z_3271 + 96 z_3272 + 56 z_3273 + 12 z_3274
         + 8 z_3275 + 87 z_3276 + 73 z_3277 + 51 z_3278 + 4 z_3279 + 40 z_3280
         + 95 z_3281 + 62 z_3282 + 52 z_3283 + 66 z_3284 + 65 z_3285 + 3 z_3286
         + 40 z_3287 + 49 z_3288 + 14 z_3289 + 82 z_3290 + 71 z_3291 + 97 z_3292
         + 55 z_3293 + 94 z_3294 + 12 z_3295 + 55 z_3296 + 72 z_3297 + 20 z_3298
         + 16 z_3299 + 21 z_3300 + 15 z_3301 + 70 z_3302 + 16 z_3303 + 22 z_3304
         + 33 z_3305 + 75 z_3306 + 60 z_3307 + 57 z_3308 + 26 z_3309 + 64 z_3310
         + 49 z_3311 + 72 z_3312 + 77 z_3313 + 100 z_3314 + 37 z_3315
         + 94 z_3316 + 54 z_3317 + 28 z_3318 + 94 z_3319 + 20 z_3320 + 9 z_3321
         + 17 z_3322 + 68 z_3323 + 16 z_3324 + 10 z_3325 + 79 z_3326 + 70 z_3327
         + 33 z_3328 + 50 z_3329 + 37 z_3330 + 53 z_3331 + 16 z_3332 + 58 z_3333
         + 69 z_3334 + 89 z_3335 + 91 z_3336 + 95 z_3337 + 49 z_3338 + 47 z_3339
         + 20 z_3340 + 64 z_3341 + 95 z_3342 + 91 z_3343 + 92 z_3344 + 47 z_3345
         + 80 z_3346 + 85 z_3347 + 52 z_3348 + 59 z_3349 + 31 z_3350 + 71 z_3351
         + 68 z_3352 + 47 z_3353 + 39 z_3354 + 83 z_3355 + 8 z_3356 + 69 z_3357
         + 4 z_3358 + 40 z_3359 + 71 z_3360 + 41 z_3361 + 44 z_3362 + 38 z_3363
         + 50 z_3364 + 12 z_3365 + 27 z_3366 + 40 z_3367 + 59 z_3368 + 75 z_3369
         + 39 z_3370 + 78 z_3371 + 38 z_3372 + 33 z_3373 + 21 z_3374 + 29 z_3375
         + 31 z_3376 + 52 z_3377 + 66 z_3378 + 83 z_3379 + 10 z_3380 + 96 z_3381
         + 53 z_3382 + 29 z_3383 + 94 z_3384 + 43 z_3385 + 63 z_3386 + z_3387
         + 12 z_3388 + 67 z_3389 + 92 z_3390 + 34 z_3391 + 59 z_3392 + 35 z_3393
         + 71 z_3394 + 8 z_3395 + 99 z_3396 + 97 z_3397 + 48 z_3398 + 57 z_3399
         + 71 z_3400 + 86 z_3401 + 86 z_3402 + 60 z_3403 + 70 z_3404 + 6 z_3405
         + 41 z_3406 + 53 z_3407 + 9 z_3408 + 58 z_3409 + 35 z_3410 + 19 z_3411
         + 53 z_3412 + 39 z_3413 + 99 z_3414 + 46 z_3415 + 34 z_3416 + 62 z_3417
         + 98 z_3418 + 45 z_3419 + 28 z_3420 + 89 z_3421 + 78 z_3422 + 38 z_3423
         + 23 z_3424 + 48 z_3425 + 45 z_3426 + 21 z_3427 + 97 z_3428 + 44 z_3429
         + 77 z_3430 + 19 z_3431 + 81 z_3432 + 63 z_3433 + 31 z_3434 + 3 z_3435
         + 20 z_3436 + 71 z_3437 + 55 z_3438 + 29 z_3439 + 28 z_3440 + 41 z_3441
         + 99 z_3442 + 32 z_3443 + 31 z_3444 + 49 z_3445 + 29 z_3446 + 64 z_3447
         + 10 z_3448 + 78 z_3449 + 60 z_3450 + 89 z_3451 + 66 z_3452 + 89 z_3453
         + 26 z_3454 + 40 z_3455 + 89 z_3456 + 23 z_3457 + 13 z_3458 + 85 z_3459
         + 18 z_3460 + 89 z_3461 + 3 z_3462 + 51 z_3463 + 3 z_3464 + 33 z_3465
         + 53 z_3466 + 75 z_3467 + 55 z_3468 + 59 z_3469 + 55 z_3470 + 34 z_3471
         + 51 z_3472 + 5 z_3473 + 17 z_3474 + 33 z_3475 + 53 z_3476 + 45 z_3477
         + 97 z_3478 + 63 z_3479 + 22 z_3480 + 56 z_3481 + 51 z_3482 + 39 z_3483
         + 97 z_3484 + 29 z_3485 + 79 z_3486 + 85 z_3487 + 51 z_3488 + 43 z_3489
         + 69 z_3490 + 20 z_3491 + 83 z_3492 + 23 z_3493 + 70 z_3494 + 86 z_3495
         + 8 z_3496 + 74 z_3497 + 12 z_3498 + 14 z_3499 + 84 z_3500 + 66 z_3501
         + 48 z_3502 + 34 z_3503 + 22 z_3504 + 64 z_3505 + 67 z_3506 + 74 z_3507
         + 61 z_3508 + 15 z_3509 + 36 z_3510 + 34 z_3511 + 22 z_3512 + 39 z_3513
         + 25 z_3514 + 18 z_3515 + 67 z_3516 + 55 z_3517 + 2 z_3518 + 69 z_3519
         + 97 z_3520 + 22 z_3521 + 40 z_3522 + 79 z_3523 + 97 z_3524 + 10 z_3525
         + 16 z_3526 + 4 z_3527 + 35 z_3528 + 27 z_3529 + 17 z_3530 + 19 z_3531
         + 44 z_3532 + 16 z_3533 + 4 z_3534 + 65 z_3535 + 32 z_3536 + 22 z_3537
         + 39 z_3538 + 92 z_3539 + 36 z_3540 + 26 z_3541 + 77 z_3542 + 10 z_3543
         + 16 z_3544 + z_3545 + 27 z_3546 + 82 z_3547 + 55 z_3548 + 81 z_3549
         + 2 z_3550 + 3 z_3551 + 54 z_3552 + 94 z_3553 + 82 z_3554 + 50 z_3555
         + 3 z_3556 + 97 z_3557 + 5 z_3558 + 89 z_3559 + 76 z_3560 + 74 z_3561
         + 7 z_3562 + 71 z_3563 + 89 z_3564 + 63 z_3565 + 36 z_3566 + 20 z_3567
         + 84 z_3568 + 26 z_3569 + 63 z_3570 + 72 z_3571 + 51 z_3572 + 40 z_3573
         + 81 z_3574 + 19 z_3575 + 92 z_3576 + 59 z_3577 + 100 z_3578
         + 99 z_3579 + 91 z_3580 + 54 z_3581 + z_3582 + 45 z_3583 + 47 z_3584
         + 82 z_3585 + 46 z_3586 + z_3587 + 31 z_3588 + 51 z_3589 + 41 z_3590
         + 6 z_3591 + 24 z_3592 + 100 z_3593 + 76 z_3594 + 12 z_3595 + 62 z_3596
         + 63 z_3597 + 84 z_3598 + 97 z_3599 + 88 z_3600 + 98 z_3601 + 68 z_3602
         + 91 z_3603 + 89 z_3604 + 100 z_3605 + 9 z_3606 + 81 z_3607 + 11 z_3608
         + 60 z_3609 + 79 z_3610 + z_3611 + 65 z_3612 + 31 z_3613 + 97 z_3614
         + 63 z_3615 + 13 z_3616 + 43 z_3617 + 15 z_3618 + 95 z_3619 + 93 z_3620
         + 56 z_3621 + 100 z_3622 + 68 z_3623 + 55 z_3624 + 27 z_3625
         + 79 z_3626 + 16 z_3627 + 90 z_3628 + 14 z_3629 + 64 z_3630 + 29 z_3631
         + 12 z_3632 + 32 z_3633 + 71 z_3634 + 100 z_3635 + 83 z_3636
         + 31 z_3637 + 32 z_3638 + 93 z_3639 + 43 z_3640 + 10 z_3641 + 46 z_3642
         + 7 z_3643 + 93 z_3644 + 42 z_3645 + 22 z_3646 + 57 z_3647 + 36 z_3648
         + 36 z_3649 + 51 z_3650 + 28 z_3651 + 43 z_3652 + 2 z_3653 + 95 z_3654
         + 97 z_3655 + 28 z_3656 + 26 z_3657 + 64 z_3658 + 69 z_3659 + 91 z_3660
         + 28 z_3661 + 50 z_3662 + 2 z_3663 + 11 z_3664 + 72 z_3665 + 2 z_3666
         + 45 z_3667 + 3 z_3668 + 33 z_3669 + 38 z_3670 + 45 z_3671 + 95 z_3672
         + 35 z_3673 + 3 z_3674 + 39 z_3675 + 28 z_3676 + 24 z_3677 + 95 z_3678
         + 64 z_3679 + 12 z_3680 + 45 z_3681 + 91 z_3682 + 54 z_3683 + 46 z_3684
         + 38 z_3685 + 3 z_3686 + 25 z_3687 + 15 z_3688 + 66 z_3689 + 94 z_3690
         + 5 z_3691 + 93 z_3692 + 95 z_3693 + 7 z_3694 + 55 z_3695 + 66 z_3696
         + 60 z_3697 + 100 z_3698 + 68 z_3699 + 44 z_3700 + 89 z_3701
         + 64 z_3702 + 90 z_3703 + 23 z_3704 + 67 z_3705 + 28 z_3706 + 50 z_3707
         + 42 z_3708 + 22 z_3709 + 13 z_3710 + 5 z_3711 + 66 z_3712 + 56 z_3713
         + 59 z_3714 + 63 z_3715 + 45 z_3716 + 61 z_3717 + 88 z_3718 + 59 z_3719
         + 78 z_3720 + 81 z_3721 + 63 z_3722 + 23 z_3723 + 27 z_3724 + 21 z_3725
         + 77 z_3726 + 92 z_3727 + 32 z_3728 + 76 z_3729 + 12 z_3730 + 76 z_3731
         + 16 z_3732 + 75 z_3733 + 17 z_3734 + 38 z_3735 + 93 z_3736 + 45 z_3737
         + 40 z_3738 + 87 z_3739 + 18 z_3740 + 4 z_3741 + 91 z_3742 + 36 z_3743
         + 59 z_3744 + z_3745 + 98 z_3746 + 55 z_3747 + 13 z_3748 + 85 z_3749
         + 13 z_3750 + 91 z_3751 + 17 z_3752 + 28 z_3753 + 13 z_3754 + 43 z_3755
         + 48 z_3756 + 41 z_3757 + 87 z_3758 + 80 z_3759 + 69 z_3760 + 98 z_3761
         + 7 z_3762 + 84 z_3763 + 24 z_3764 + 23 z_3765 + 74 z_3766 + 69 z_3767
         + 19 z_3768 + 13 z_3769 + 55 z_3770 + 37 z_3771 + 68 z_3772 + 97 z_3773
         + 24 z_3774 + 79 z_3775 + 98 z_3776 + 21 z_3777 + 33 z_3778 + 62 z_3779
         + 6 z_3780 + 46 z_3781 + 52 z_3782 + 74 z_3783 + 25 z_3784 + 16 z_3785
         + 17 z_3786 + 72 z_3787 + 57 z_3788 + 55 z_3789 + 3 z_3790 + 77 z_3791
         + 52 z_3792 + 61 z_3793 + 60 z_3794 + 27 z_3795 + 84 z_3796 + 85 z_3797
         + 95 z_3798 + 54 z_3799 + 49 z_3800 + z_3801 + 42 z_3802 + 17 z_3803
         + 98 z_3804 + 65 z_3805 + 95 z_3806 + 47 z_3807 + 86 z_3808 + 27 z_3809
         + 8 z_3810 + 43 z_3811 + 24 z_3812 + 12 z_3813 + 16 z_3814 + 48 z_3815
         + 27 z_3816 + 84 z_3817 + 72 z_3818 + 35 z_3819 + 38 z_3820 + 26 z_3821
         + 11 z_3822 + 41 z_3823 + 87 z_3824 + 23 z_3825 + 68 z_3826 + 22 z_3827
         + 7 z_3828 + 62 z_3829 + 75 z_3830 + 56 z_3831 + 63 z_3832 + 69 z_3833
         + 72 z_3834 + 12 z_3835 + 33 z_3836 + 66 z_3837 + 58 z_3838 + 70 z_3839
         + 44 z_3840 + 65 z_3841 + 12 z_3842 + 68 z_3843 + 28 z_3844 + 80 z_3845
         + 67 z_3846 + 55 z_3847 + 63 z_3848 + 90 z_3849 + 41 z_3850 + z_3851
         + 16 z_3852 + 52 z_3853 + 93 z_3854 + 2 z_3855 + 74 z_3856 + 60 z_3857
         + 23 z_3858 + 32 z_3859 + 22 z_3860 + 49 z_3861 + 87 z_3862 + 36 z_3863
         + 69 z_3864 + 58 z_3865 + 47 z_3866 + 54 z_3867 + 75 z_3868 + 56 z_3869
         + 23 z_3870 + 19 z_3871 + 72 z_3872 + 87 z_3873 + 38 z_3874
         + 100 z_3875 + 18 z_3876 + 56 z_3877 + 6 z_3878 + 80 z_3879 + 46 z_3880
         + 46 z_3881 + 32 z_3882 + 61 z_3883 + 49 z_3884 + 25 z_3885 + 14 z_3886
         + 22 z_3887 + 36 z_3888 + 88 z_3889 + 54 z_3890 + 9 z_3891 + 88 z_3892
         + 92 z_3893 + 44 z_3894 + 57 z_3895 + 50 z_3896 + 42 z_3897 + 10 z_3898
         + 76 z_3899 + 49 z_3900 + 84 z_3901 + 46 z_3902 + 21 z_3903 + 70 z_3904
         + 35 z_3905 + 20 z_3906 + 39 z_3907 + 91 z_3908 + 25 z_3909 + 19 z_3910
         + 88 z_3911 + 22 z_3912 + 2 z_3913 + 100 z_3914 + 71 z_3915 + 78 z_3916
         + 13 z_3917 + 44 z_3918 + 14 z_3919 + 100 z_3920 + 97 z_3921
         + 22 z_3922 + 39 z_3923 + 41 z_3924 + 18 z_3925 + 95 z_3926 + 42 z_3927
         + 11 z_3928 + 56 z_3929 + 17 z_3930 + 60 z_3931 + 40 z_3932 + 63 z_3933
         + 80 z_3934 + 61 z_3935 + 49 z_3936 + 51 z_3937 + 100 z_3938
         + 91 z_3939 + 27 z_3940 + 70 z_3941 + 78 z_3942 + 48 z_3943 + 23 z_3944
         + 77 z_3945 + 18 z_3946 + 53 z_3947 + 41 z_3948 + 62 z_3949 + 66 z_3950
         + 92 z_3951 + 10 z_3952 + 39 z_3953 + 31 z_3954 + 50 z_3955 + 8 z_3956
         + 77 z_3957 + 91 z_3958 + 71 z_3959 + 33 z_3960 + 60 z_3961 + 30 z_3962
         + 72 z_3963 + 74 z_3964 + 61 z_3965 + 84 z_3966 + 22 z_3967 + 63 z_3968
         + 83 z_3969 + 13 z_3970 + 89 z_3971 + 4 z_3972 + 90 z_3973 + 88 z_3974
         + 27 z_3975 + 19 z_3976 + 6 z_3977 + 31 z_3978 + 59 z_3979 + 19 z_3980
         + 96 z_3981 + 3 z_3982 + 28 z_3983 + 86 z_3984 + 33 z_3985 + 30 z_3986
         + 46 z_3987 + 9 z_3988 + 72 z_3989 + 16 z_3990 + 41 z_3991 + 31 z_3992
         + 97 z_3993 + 64 z_3994 + 4 z_3995 + 9 z_3996 + 48 z_3997 + 78 z_3998
         + 71 z_3999 + 82 z_4000 + 90 z_4001 + 11 z_4002 + 38 z_4003 + 31 z_4004
         + 98 z_4005 + 16 z_4006 + z_4007 + 55 z_4008 + 46 z_4009 + 12 z_4010
         + 73 z_4011 + 93 z_4012 + 14 z_4013 + z_4014 + 30 z_4015 + 46 z_4016
         + 82 z_4017 + 75 z_4018 + 6 z_4019 + 53 z_4020 + 42 z_4021 + 99 z_4022
         + 84 z_4023 + 38 z_4024 + 62 z_4025 + 39 z_4026 + 46 z_4027 + 61 z_4028
         + 16 z_4029 + 68 z_4030 + 95 z_4031 + 57 z_4032 + 78 z_4033 + 32 z_4034
         + 40 z_4035 + 28 z_4036 + 47 z_4037 + 40 z_4038 + 82 z_4039 + 44 z_4040
         + 51 z_4041 + 7 z_4042 + 36 z_4043 + 64 z_4044 + 7 z_4045 + 65 z_4046
         + 61 z_4047 + 40 z_4048 + 92 z_4049 + 67 z_4050 + 92 z_4051 + 33 z_4052
         + 65 z_4053 + 27 z_4054 + 23 z_4055 + 78 z_4056 + 18 z_4057 + 20 z_4058
         + 91 z_4059 + 33 z_4060 + 40 z_4061 + 85 z_4062 + 42 z_4063 + 69 z_4064
         + 68 z_4065 + 81 z_4066 + 96 z_4067 + 66 z_4068 + 20 z_4069 + 30 z_4070
         + 9 z_4071 + 23 z_4072 + 36 z_4073 + 44 z_4074 + 38 z_4075 + 94 z_4076
         + 60 z_4077 + 99 z_4078 + 33 z_4079 + 3 z_4080 + 17 z_4081 + 76 z_4082
         + 36 z_4083 + 33 z_4084 + 3 z_4085 + 10 z_4086 + 10 z_4087 + 20 z_4088
         + 29 z_4089 + 52 z_4090 + 4 z_4091 + 68 z_4092 + 36 z_4093 + 45 z_4094
         + 37 z_4095 + 3 z_4096 + 77 z_4097 + 84 z_4098 + 20 z_4099 + 49 z_4100
         + 13 z_4101 + 28 z_4102 + 71 z_4103 + 48 z_4104 + 23 z_4105 + 8 z_4106
         + 41 z_4107 + 35 z_4108 + 58 z_4109 + 25 z_4110 + 37 z_4111 + 74 z_4112
         + z_4113 + 24 z_4114 + 58 z_4115 + 55 z_4116 + 33 z_4117 + 20 z_4118
         + 74 z_4119 + 14 z_4120 + 71 z_4121 + 29 z_4122 + 33 z_4123 + 59 z_4124
         + 26 z_4125 + 69 z_4126 + 13 z_4127 + 2 z_4128 + 5 z_4129 + 33 z_4130
         + 50 z_4131 + 17 z_4132 + 60 z_4133 + 72 z_4134 + 17 z_4135 + 83 z_4136
         + 80 z_4137 + 9 z_4138 + 69 z_4139 + 89 z_4140 + 34 z_4141 + 5 z_4142
         + 15 z_4143 + 86 z_4144 + 29 z_4145 + 72 z_4146 + 40 z_4147 + 13 z_4148
         + 91 z_4149 + 65 z_4150 + 26 z_4151 + 62 z_4152 + 93 z_4153 + 11 z_4154
         + 72 z_4155 + 18 z_4156 + 31 z_4157 + 84 z_4158 + 72 z_4159 + 35 z_4160
         + 16 z_4161 + 73 z_4162 + 4 z_4163 + 76 z_4164 + 45 z_4165 + 20 z_4166
         + 10 z_4167 + 76 z_4168 + 80 z_4169 + 78 z_4170 + 64 z_4171 + 13 z_4172
         + 34 z_4173 + 78 z_4174 + 50 z_4175 + 14 z_4176 + 50 z_4177 + 89 z_4178
         + 27 z_4179 + 92 z_4180 + 53 z_4181 + 4 z_4182 + 5 z_4183 + 98 z_4184
         + 14 z_4185 + 76 z_4186 + 67 z_4187 + 45 z_4188 + 60 z_4189 + 90 z_4190
         + 79 z_4191 + 75 z_4192 + 63 z_4193 + 82 z_4194 + 2 z_4195 + 7 z_4196
         + 53 z_4197 + 63 z_4198 + 82 z_4199 + 33 z_4200 + 92 z_4201 + 45 z_4202
         + 97 z_4203 + 26 z_4204 + 23 z_4205 + 99 z_4206 + 39 z_4207 + 24 z_4208
         + 87 z_4209 + 17 z_4210 + 15 z_4211 + 92 z_4212 + 21 z_4213 + 20 z_4214
         + 41 z_4215 + 86 z_4216 + 47 z_4217 + 7 z_4218 + 30 z_4219 + 6 z_4220
         + 97 z_4221 + 61 z_4222 + 33 z_4223 + 11 z_4224 + 94 z_4225 + 86 z_4226
         + 17 z_4227 + 99 z_4228 + 49 z_4229 + 50 z_4230 + 83 z_4231 + 92 z_4232
         + 94 z_4233 + 31 z_4234 + 17 z_4235 + 68 z_4236 + 29 z_4237 + 8 z_4238
         + 43 z_4239 + 16 z_4240 + 76 z_4241 + 10 z_4242 + 59 z_4243 + 48 z_4244
         + 29 z_4245 + 99 z_4246 + 34 z_4247 + 27 z_4248 + 57 z_4249 + 15 z_4250
         + 33 z_4251 + 5 z_4252 + 27 z_4253 + 17 z_4254 + 15 z_4255 + 73 z_4256
         + 2 z_4257 + 83 z_4258 + 71 z_4259 + 50 z_4260 + 32 z_4261 + 53 z_4262
         + 42 z_4263 + 78 z_4264 + 83 z_4265 + 10 z_4266 + 97 z_4267 + 12 z_4268
         + 69 z_4269 + 40 z_4270 + 79 z_4271 + 45 z_4272 + 49 z_4273 + 89 z_4274
         + 44 z_4275 + 29 z_4276 + 87 z_4277 + 29 z_4278 + 55 z_4279 + 95 z_4280
         + 44 z_4281 + 39 z_4282 + 100 z_4283 + 22 z_4284 + 55 z_4285
         + 66 z_4286 + 94 z_4287 + 57 z_4288 + 49 z_4289 + 64 z_4290 + 6 z_4291
         + 32 z_4292 + 16 z_4293 + 99 z_4294 + 9 z_4295 + 51 z_4296 + 61 z_4297
         + 6 z_4298 + 14 z_4299 + 81 z_4300 + 97 z_4301 + 44 z_4302 + 77 z_4303
         + 45 z_4304 + 32 z_4305 + 21 z_4306 + 25 z_4307 + 70 z_4308 + 49 z_4309
         + 79 z_4310 + 64 z_4311 + 44 z_4312 + 18 z_4313 + 15 z_4314 + 66 z_4315
         + 72 z_4316 + 33 z_4317 + 59 z_4318 + 28 z_4319 + 33 z_4320 + 23 z_4321
         + 86 z_4322 + 16 z_4323 + 90 z_4324 + 36 z_4325 + 25 z_4326 + 92 z_4327
         + 48 z_4328 + 82 z_4329 + 5 z_4330 + 29 z_4331 + 30 z_4332 + 100 z_4333
         + 5 z_4334 + 26 z_4335 + 31 z_4336 + 77 z_4337 + 50 z_4338 + 52 z_4339
         + 26 z_4340 + 80 z_4341 + 68 z_4342 + 21 z_4343 + 97 z_4344 + 34 z_4345
         + 86 z_4346 + 21 z_4347 + 66 z_4348 + 45 z_4349 + 100 z_4350
         + 50 z_4351 + 19 z_4352 + 37 z_4353 + 66 z_4354 + 60 z_4355 + 25 z_4356
         + 42 z_4357 + 52 z_4358 + 72 z_4359 + 75 z_4360 + 8 z_4361 + 100 z_4362
         + 4 z_4363 + 8 z_4364 + 57 z_4365 + 29 z_4366 + 38 z_4367 + 33 z_4368
         + 78 z_4369 + 90 z_4370 + 10 z_4371 + 9 z_4372 + 57 z_4373 + 31 z_4374
         + 6 z_4375 + 90 z_4376 + 68 z_4377 + 78 z_4378 + 8 z_4379 + 64 z_4380
         + 29 z_4381 + 57 z_4382 + 82 z_4383 + 66 z_4384 + 74 z_4385 + 42 z_4386
         + 90 z_4387 + 15 z_4388 + 93 z_4389 + 61 z_4390 + 89 z_4391
         + 100 z_4392 + 13 z_4393 + 92 z_4394 + 59 z_4395 + 21 z_4396
         + 72 z_4397 + 97 z_4398 + 5 z_4399 + z_4400 + 38 z_4401 + 15 z_4402
         + 10 z_4403 + 46 z_4404 + 97 z_4405 + 67 z_4406 + 87 z_4407 + 16 z_4408
         + 44 z_4409 + 46 z_4410 + 80 z_4411 + 72 z_4412 + 3 z_4413 + 13 z_4414
         + 89 z_4415 + 28 z_4416 + 54 z_4417 + 78 z_4418 + 43 z_4419 + 98 z_4420
         + 91 z_4421 + 83 z_4422 + 50 z_4423 + 3 z_4424 + 27 z_4425 + 8 z_4426
         + 75 z_4427 + 98 z_4428 + 56 z_4429 + 79 z_4430 + 99 z_4431 + 45 z_4432
         + 45 z_4433 + 60 z_4434 + 90 z_4435 + 41 z_4436 + 26 z_4437 + 29 z_4438
         + 9 z_4439 + 21 z_4440 + 74 z_4441 + 88 z_4442 + 92 z_4443 + 28 z_4444
         + 100 z_4445 + 33 z_4446 + 56 z_4447 + 6 z_4448 + 10 z_4449 + 50 z_4450
         + 3 z_4451 + 52 z_4452 + 32 z_4453 + 4 z_4454 + 6 z_4455 + 58 z_4456
         + 64 z_4457 + 80 z_4458 + 8 z_4459 + 19 z_4460 + 59 z_4461 + 58 z_4462
         + 16 z_4463 + 3 z_4464 + 17 z_4465 + 5 z_4466 + 96 z_4467 + 42 z_4468
         + 85 z_4469 + 4 z_4470 + 62 z_4471 + 59 z_4472 + 43 z_4473 + 5 z_4474
         + 86 z_4475 + 94 z_4476 + 37 z_4477 + 93 z_4478 + 99 z_4479 + 99 z_4480
         + 42 z_4481 + 54 z_4482 + 50 z_4483 + 74 z_4484 + 57 z_4485 + 56 z_4486
         + 83 z_4487 + 20 z_4488 + 87 z_4489 + 90 z_4490 + 91 z_4491 + 45 z_4492
         + 47 z_4493 + 6 z_4494 + 100 z_4495 + 63 z_4496 + 62 z_4497 + 95 z_4498
         + 56 z_4499 + 47 z_4500 + 50 z_4501 + 17 z_4502 + 57 z_4503 + 92 z_4504
         + 74 z_4505 + 42 z_4506 + 85 z_4507 + 62 z_4508 + 87 z_4509 + 36 z_4510
         + 60 z_4511 + 28 z_4512 + 89 z_4513 + 62 z_4514 + z_4515 + 97 z_4516
         + 69 z_4517 + 84 z_4518 + 69 z_4519 + 55 z_4520 + 25 z_4521 + 11 z_4522
         + 52 z_4523 + 72 z_4524 + 16 z_4525 + 51 z_4526 + 34 z_4527 + 29 z_4528
         + 45 z_4529 + 42 z_4530 + 27 z_4531 + 46 z_4532 + 10 z_4533 + 83 z_4534
         + 37 z_4535 + 83 z_4536 + 77 z_4537 + 73 z_4538 + 97 z_4539 + 63 z_4540
         + 8 z_4541 + 8 z_4542 + 90 z_4543 + 48 z_4544 + 69 z_4545 + 43 z_4546
         + 45 z_4547 + 89 z_4548 + 26 z_4549 + 13 z_4550 + 44 z_4551 + 50 z_4552
         + 23 z_4553 + 95 z_4554 + 73 z_4555 + 90 z_4556 + 45 z_4557 + 59 z_4558
         + 70 z_4559 + 41 z_4560 + 100 z_4561 + 97 z_4562 + 86 z_4563 + 9 z_4564
         + 79 z_4565 + 74 z_4566 + 44 z_4567 + 55 z_4568 + 98 z_4569 + 40 z_4570
         + 17 z_4571 + 6 z_4572 + 47 z_4573 + 7 z_4574 + 53 z_4575 + 68 z_4576
         + 49 z_4577 + 49 z_4578 + 56 z_4579 + 26 z_4580 + 13 z_4581 + 99 z_4582
         + 27 z_4583 + 87 z_4584 + 45 z_4585 + 100 z_4586 + 76 z_4587
         + 41 z_4588 + 10 z_4589 + 46 z_4590 + 81 z_4591 + 9 z_4592 + 94 z_4593
         + 18 z_4594 + 17 z_4595 + 72 z_4596 + 43 z_4597 + 12 z_4598 + 27 z_4599
         + 41 z_4600 + 51 z_4601 + 95 z_4602 + 98 z_4603 + 50 z_4604 + 53 z_4605
         + 50 z_4606 + 17 z_4607 + 53 z_4608 + 51 z_4609 + 72 z_4610 + 30 z_4611
         + 63 z_4612 + 23 z_4613 + 57 z_4614 + 50 z_4615 + 67 z_4616 + 8 z_4617
         + 77 z_4618 + 8 z_4619 + 17 z_4620 + 74 z_4621 + 40 z_4622 + 25 z_4623
         + 67 z_4624 + 10 z_4625 + 93 z_4626 + 39 z_4627 + 52 z_4628 + 57 z_4629
         + 17 z_4630 + 92 z_4631 + 7 z_4632 + 63 z_4633 + 89 z_4634 + 8 z_4635
         + 16 z_4636 + 91 z_4637 + 24 z_4638 + 68 z_4639 + 93 z_4640 + 96 z_4641
         + 50 z_4642 + 55 z_4643 + 70 z_4644 + 6 z_4645 + 56 z_4646 + 36 z_4647
         + 65 z_4648 + 33 z_4649 + 95 z_4650 + 81 z_4651 + 58 z_4652 + 35 z_4653
         + 57 z_4654 + 25 z_4655 + 96 z_4656 + z_4657 + 15 z_4658 + 47 z_4659
         + 9 z_4660 + 31 z_4661 + 91 z_4662 + 68 z_4663 + 93 z_4664 + 79 z_4665
         + 75 z_4666 + 60 z_4667 + 21 z_4668 + 99 z_4669 + 80 z_4670 + 13 z_4671
         + 46 z_4672 + 29 z_4673 + 20 z_4674 + 15 z_4675 + 86 z_4676 + 75 z_4677
         + 2 z_4678 + 50 z_4679 + 59 z_4680 + 97 z_4681 + 82 z_4682 + 17 z_4683
         + 83 z_4684 + 38 z_4685 + 41 z_4686 + 78 z_4687 + 90 z_4688 + 55 z_4689
         + 76 z_4690 + 99 z_4691 + 37 z_4692 + 66 z_4693 + 66 z_4694 + 29 z_4695
         + 97 z_4696 + 40 z_4697 + 41 z_4698 + 17 z_4699 + 90 z_4700 + 20 z_4701
         + 82 z_4702 + 87 z_4703 + 48 z_4704 + z_4705 + z_4706 + 33 z_4707
         + 27 z_4708 + 55 z_4709 + 82 z_4710 + 86 z_4711 + 51 z_4712 + 15 z_4713
         + 2 z_4714 + 85 z_4715 + 4 z_4716 + 94 z_4717 + 14 z_4718 + 93 z_4719
         + 48 z_4720 + 89 z_4721 + 43 z_4722 + 36 z_4723 + 55 z_4724 + 60 z_4725
         + 64 z_4726 + 3 z_4727 + 52 z_4728 + 56 z_4729 + 19 z_4730 + 41 z_4731
         + 75 z_4732 + 52 z_4733 + 80 z_4734 + 74 z_4735 + 52 z_4736 + 80 z_4737
         + 6 z_4738 + 79 z_4739 + 86 z_4740 + 39 z_4741 + 16 z_4742 + 88 z_4743
         + 5 z_4744 + 17 z_4745 + 72 z_4746 + 8 z_4747 + 10 z_4748 + 37 z_4749
         + z_4750 + 9 z_4751 + 26 z_4752 + 95 z_4753 + 44 z_4754 + 32 z_4755
         + 55 z_4756 + 59 z_4757 + 34 z_4758 + 6 z_4759 + 15 z_4760 + 4 z_4761
         + 98 z_4762 + 41 z_4763 + 56 z_4764 + 77 z_4765 + 15 z_4766 + 59 z_4767
         + 9 z_4768 + 72 z_4769 + 89 z_4770 + 94 z_4771 + 63 z_4772 + 4 z_4773
         + 34 z_4774 + 67 z_4775 + 72 z_4776 + 57 z_4777 + 75 z_4778 + 81 z_4779
         + 94 z_4780 + 27 z_4781 + 41 z_4782 + 71 z_4783 + 21 z_4784 + 84 z_4785
         + 2 z_4786 + 27 z_4787 + 95 z_4788 + 87 z_4789 + 32 z_4790 + 9 z_4791
         + 42 z_4792 + 82 z_4793 + z_4794 + 49 z_4795 + 10 z_4796 + 15 z_4797
         + 8 z_4798 + 18 z_4799 + 39 z_4800 + 96 z_4801 + 64 z_4802 + 53 z_4803
         + 52 z_4804 + 97 z_4805 + 19 z_4806 + 23 z_4807 + 53 z_4808 + 45 z_4809
         + 56 z_4810 + 98 z_4811 + 71 z_4812 + 96 z_4813 + 68 z_4814 + 44 z_4815
         + 32 z_4816 + 21 z_4817 + 70 z_4818 + 26 z_4819 + 7 z_4820 + 54 z_4821
         + 86 z_4822 + z_4823 + 35 z_4824 + 86 z_4825 + 49 z_4826 + 44 z_4827
         + 53 z_4828 + 56 z_4829 + 14 z_4830 + 43 z_4831 + 4 z_4832 + 77 z_4833
         + 95 z_4834 + 7 z_4835 + 25 z_4836 + 65 z_4837 + 29 z_4838 + 29 z_4839
         + 10 z_4840 + 84 z_4841 + 27 z_4842 + 32 z_4843 + 32 z_4844 + 46 z_4845
         + 75 z_4846 + 63 z_4847 + 67 z_4848 + 97 z_4849 + 40 z_4850 + 25 z_4851
         + 50 z_4852 + 25 z_4853 + 25 z_4854 + 36 z_4855 + 62 z_4856 + 74 z_4857
         + 79 z_4858 + 14 z_4859 + 81 z_4860 + 44 z_4861 + 8 z_4862 + 36 z_4863
         + 72 z_4864 + 2 z_4865 + 42 z_4866 + 96 z_4867 + 19 z_4868 + 71 z_4869
         + 77 z_4870 + 28 z_4871 + 6 z_4872 + 55 z_4873 + 11 z_4874 + 37 z_4875
         + 100 z_4876 + 38 z_4877 + 51 z_4878 + 66 z_4879 + 34 z_4880
         + 90 z_4881 + 43 z_4882 + 35 z_4883 + 66 z_4884 + 67 z_4885 + 70 z_4886
         + 28 z_4887 + 92 z_4888 + 100 z_4889 + 93 z_4890 + 73 z_4891
         + 96 z_4892 + z_4893 + 60 z_4894 + 67 z_4895 + 54 z_4896 + 2 z_4897
         + 63 z_4898 + 72 z_4899 + 24 z_4900 + 91 z_4901 + 51 z_4902 + 81 z_4903
         + 45 z_4904 + 62 z_4905 + 70 z_4906 + 44 z_4907 + 99 z_4908 + 20 z_4909
         + 62 z_4910 + 84 z_4911 + 62 z_4912 + 4 z_4913 + 70 z_4914 + 27 z_4915
         + 70 z_4916 + 91 z_4917 + 54 z_4918 + 14 z_4919 + 42 z_4920 + 47 z_4921
         + 86 z_4922 + 37 z_4923 + 99 z_4924 + 97 z_4925 + 4 z_4926 + 52 z_4927
         + 98 z_4928 + 18 z_4929 + 24 z_4930 + 21 z_4931 + 8 z_4932 + 74 z_4933
         + 54 z_4934 + 52 z_4935 + 87 z_4936 + 23 z_4937 + 47 z_4938 + 37 z_4939
         + 42 z_4940 + 8 z_4941 + 20 z_4942 + 3 z_4943 + 11 z_4944 + 41 z_4945
         + 82 z_4946 + 33 z_4947 + 31 z_4948 + 35 z_4949 + 46 z_4950 + 73 z_4951
         + 33 z_4952 + 83 z_4953 + 9 z_4954 + 31 z_4955 + 79 z_4956 + 12 z_4957
         + 83 z_4958 + 77 z_4959 + 29 z_4960 + 58 z_4961 + 49 z_4962 + 36 z_4963
         + 83 z_4964 + 2 z_4965 + 39 z_4966 + 70 z_4967 + 24 z_4968 + 86 z_4969
         + 6 z_4970 + 18 z_4971 + 93 z_4972 + 78 z_4973 + 72 z_4974 + 56 z_4975
         + 18 z_4976 + 53 z_4977 + 88 z_4978 + 49 z_4979 + 40 z_4980 + 33 z_4981
         + 21 z_4982 + 72 z_4983 + 67 z_4984 + 29 z_4985 + 55 z_4986 + 45 z_4987
         + 93 z_4988 + 37 z_4989 + 73 z_4990 + 21 z_4991 + 46 z_4992 + 74 z_4993
         + 9 z_4994 + 28 z_4995 + 27 z_4996 + 99 z_4997 + 97 z_4998 + 3 z_4999
         + 84 z_5000 + 3 z_5001 + 20 z_5002 + 29 z_5003 + 80 z_5004 + 43 z_5005
         + 84 z_5006 + 49 z_5007 + 48 z_5008 + 23 z_5009 + 97 z_5010 + 87 z_5011
         + 7 z_5012 + 17 z_5013 + 10 z_5014 + 73 z_5015 + 98 z_5016 + 64 z_5017
         + 69 z_5018 + 90 z_5019 + 52 z_5020 + 94 z_5021 + 62 z_5022 + 97 z_5023
         + 67 z_5024 + 22 z_5025 + 25 z_5026 + 93 z_5027 + 21 z_5028 + 73 z_5029
         + 95 z_5030 + 56 z_5031 + 27 z_5032 + 66 z_5033 + 36 z_5034 + 58 z_5035
         + 9 z_5036 + 19 z_5037 + 7 z_5038 + 56 z_5039 + 93 z_5040 + 3 z_5041
         + 94 z_5042 + 99 z_5043 + 72 z_5044 + 3 z_5045 + 23 z_5046 + 21 z_5047
         + 19 z_5048 + 92 z_5049 + 62 z_5050 + 70 z_5051 + 85 z_5052 + 23 z_5053
         + 67 z_5054 + 3 z_5055 + 97 z_5056 + 43 z_5057 + 95 z_5058 + 69 z_5059
         + 67 z_5060 + 42 z_5061 + 24 z_5062 + 94 z_5063 + 7 z_5064 + 60 z_5065
         + 3 z_5066 + 67 z_5067 + 30 z_5068 + 9 z_5069 + 74 z_5070 + 23 z_5071
         + 64 z_5072 + 67 z_5073 + 73 z_5074 + 87 z_5075 + 22 z_5076 + 96 z_5077
         + 7 z_5078 + 40 z_5079 + 39 z_5080 + 68 z_5081 + 9 z_5082 + 23 z_5083
         + 42 z_5084 + 27 z_5085 + 77 z_5086 + 38 z_5087 + 21 z_5088 + 71 z_5089
         + 6 z_5090 + 88 z_5091 + 64 z_5092 + 82 z_5093 + 33 z_5094 + 71 z_5095
         + 93 z_5096 + 35 z_5097 + 89 z_5098 + 22 z_5099 + 44 z_5100 + 63 z_5101
         + 96 z_5102 + 59 z_5103 + 81 z_5104 + 21 z_5105 + 45 z_5106 + 2 z_5107
         + 68 z_5108 + 51 z_5109 + 93 z_5110 + 6 z_5111 + 70 z_5112 + 54 z_5113
         + 80 z_5114 + 11 z_5115 + 80 z_5116 + 56 z_5117 + 49 z_5118 + 53 z_5119
         + 26 z_5120 + 54 z_5121 + 40 z_5122 + 42 z_5123 + 35 z_5124 + 72 z_5125
         + 64 z_5126 + 79 z_5127 + 6 z_5128 + 52 z_5129 + z_5130 + z_5131
         + 66 z_5132 + 48 z_5133 + 11 z_5134 + 47 z_5135 + 20 z_5136 + 55 z_5137
         + 100 z_5138 + 87 z_5139 + 57 z_5140 + 45 z_5141 + 92 z_5142
         + 26 z_5143 + 98 z_5144 + 71 z_5145 + 37 z_5146 + 29 z_5147 + 26 z_5148
         + 37 z_5149 + 81 z_5150 + 4 z_5151 + 90 z_5152 + 20 z_5153 + 45 z_5154
         + 77 z_5155 + 43 z_5156 + 60 z_5157 + 55 z_5158 + z_5159 + 11 z_5160
         + 7 z_5161 + 53 z_5162 + 29 z_5163 + 7 z_5164 + 64 z_5165 + 27 z_5166
         + 26 z_5167 + 70 z_5168 + 78 z_5169 + 13 z_5170 + 79 z_5171 + 22 z_5172
         + 56 z_5173 + 56 z_5174 + 71 z_5175 + 27 z_5176 + 92 z_5177
         + 100 z_5178 + 4 z_5179 + 28 z_5180 + 80 z_5181 + 7 z_5182 + 70 z_5183
         + 52 z_5184 + 3 z_5185 + 98 z_5186 + 46 z_5187 + 62 z_5188 + 4 z_5189
         + 98 z_5190 + 25 z_5191 + 63 z_5192 + 51 z_5193 + 53 z_5194 + 69 z_5195
         + 66 z_5196 + 79 z_5197 + 46 z_5198 + 87 z_5199 + 56 z_5200 + 10 z_5201
         + 65 z_5202 + 30 z_5203 + 66 z_5204 + 21 z_5205 + 100 z_5206
         + 92 z_5207 + 64 z_5208 + 51 z_5209 + 95 z_5210 + 44 z_5211 + 83 z_5212
         + 54 z_5213 + 65 z_5214 + 34 z_5215 + 8 z_5216 + 14 z_5217 + 31 z_5218
         + 22 z_5219 + 17 z_5220 + 29 z_5221 + 98 z_5222 + 31 z_5223 + 31 z_5224
         + 50 z_5225 + 51 z_5226 + 96 z_5227 + 80 z_5228 + 97 z_5229 + 34 z_5230
         + 87 z_5231 + 6 z_5232 + 99 z_5233 + 16 z_5234 + 71 z_5235 + 71 z_5236
         + 68 z_5237 + 14 z_5238 + 34 z_5239 + 18 z_5240 + 61 z_5241 + 29 z_5242
         + 100 z_5243 + 66 z_5244 + 93 z_5245 + 85 z_5246 + 25 z_5247 + 6 z_5248
         + 16 z_5249 + 46 z_5250 + 75 z_5251 + 96 z_5252 + 43 z_5253 + 5 z_5254
         + 26 z_5255 + 44 z_5256 + 56 z_5257 + 73 z_5258 + 75 z_5259 + 4 z_5260
         + 6 z_5261 + 62 z_5262 + 61 z_5263 + 56 z_5264 + 29 z_5265 + 32 z_5266
         + 78 z_5267 + 96 z_5268 + 97 z_5269 + 12 z_5270 + 14 z_5271 + 9 z_5272
         + 92 z_5273 + 65 z_5274 + 74 z_5275 + 37 z_5276 + 50 z_5277 + 99 z_5278
         + 42 z_5279 + 17 z_5280 + 96 z_5281 + 68 z_5282 + 12 z_5283 + 39 z_5284
         + 25 z_5285 + 89 z_5286 + 34 z_5287 + 32 z_5288 + 13 z_5289 + 9 z_5290
         + 35 z_5291 + 70 z_5292 + 22 z_5293 + 95 z_5294 + 26 z_5295 + 50 z_5296
         + 78 z_5297 + 3 z_5298 + 46 z_5299 + 27 z_5300 + 66 z_5301 + 11 z_5302
         + 35 z_5303 + 10 z_5304 + 75 z_5305 + 9 z_5306 + 46 z_5307 + 24 z_5308
         + 59 z_5309 + 39 z_5310 + 40 z_5311 + 54 z_5312 + 7 z_5313 + 3 z_5314
         + 44 z_5315 + 83 z_5316 + 43 z_5317 + 78 z_5318 + 14 z_5319 + 55 z_5320
         + 38 z_5321 + 48 z_5322 + 77 z_5323 + 59 z_5324 + 94 z_5325 + 54 z_5326
         + 8 z_5327 + 24 z_5328 + 8 z_5329 + 5 z_5330 + 50 z_5331 + 74 z_5332
         + 15 z_5333 + 84 z_5334 + 35 z_5335 + 90 z_5336 + 44 z_5337 + 80 z_5338
         + 65 z_5339 + 2 z_5340 + 18 z_5341 + 57 z_5342 + 8 z_5343 + 76 z_5344
         + 11 z_5345 + 51 z_5346 + 58 z_5347 + 54 z_5348 + 80 z_5349 + 71 z_5350
         + 60 z_5351 + 17 z_5352 + 70 z_5353 + 36 z_5354 + 27 z_5355 + 16 z_5356
         + 89 z_5357 + 35 z_5358 + 39 z_5359 + 97 z_5360 + 91 z_5361 + 40 z_5362
         + 22 z_5363 + 6 z_5364 + 23 z_5365 + 56 z_5366 + 47 z_5367 + 19 z_5368
         + 35 z_5369 + 63 z_5370 + 72 z_5371 + 52 z_5372 + 19 z_5373 + 79 z_5374
         + 80 z_5375 + 30 z_5376 + 82 z_5377 + 37 z_5378 + 35 z_5379 + 61 z_5380
         + 8 z_5381 + 94 z_5382 + 30 z_5383 + 29 z_5384 + 30 z_5385 + 56 z_5386
         + 44 z_5387 + 70 z_5388 + 42 z_5389 + 34 z_5390 + 66 z_5391 + 33 z_5392
         + 73 z_5393 + 39 z_5394 + 90 z_5395 + 48 z_5396 + 94 z_5397 + 88 z_5398
         + 66 z_5399 + 28 z_5400 + 50 z_5401 + 89 z_5402 + 32 z_5403 + 69 z_5404
         + 68 z_5405 + 63 z_5406 + 50 z_5407 + 49 z_5408 + 99 z_5409 + 84 z_5410
         + 61 z_5411 + 58 z_5412 + 29 z_5413 + 42 z_5414 + 87 z_5415 + 10 z_5416
         + 98 z_5417 + 82 z_5418 + 80 z_5419 + 91 z_5420 + 16 z_5421 + 97 z_5422
         + 75 z_5423 + 88 z_5424 + 36 z_5425 + 16 z_5426 + 35 z_5427 + 29 z_5428
         + 3 z_5429 + 52 z_5430 + 9 z_5431 + 53 z_5432 + 41 z_5433 + 92 z_5434
         + 21 z_5435 + 8 z_5436 + 54 z_5437 + 22 z_5438 + 8 z_5439 + 4 z_5440
         + 57 z_5441 + 20 z_5442 + 62 z_5443 + 85 z_5444 + 62 z_5445
         + 100 z_5446 + 95 z_5447 + 11 z_5448 + 81 z_5449 + 26 z_5450
         + 53 z_5451 + 96 z_5452 + 22 z_5453 + 28 z_5454 + 84 z_5455 + 9 z_5456
         + 95 z_5457 + 70 z_5458 + 90 z_5459 + 98 z_5460 + 22 z_5461 + 50 z_5462
         + 50 z_5463 + 62 z_5464 + 93 z_5465 + 22 z_5466 + 21 z_5467 + 46 z_5468
         + 43 z_5469 + 80 z_5470 + z_5471 + 51 z_5472 + 99 z_5473 + 62 z_5474
         + 35 z_5475 + 60 z_5476 + 61 z_5477 + 81 z_5478 + 22 z_5479 + 94 z_5480
         + 6 z_5481 + 75 z_5482 + 89 z_5483 + 80 z_5484 + 54 z_5485 + 24 z_5486
         + 40 z_5487 + 48 z_5488 + 94 z_5489 + 29 z_5490 + 45 z_5491 + 15 z_5492
         + 78 z_5493 + 46 z_5494 + 28 z_5495 + 70 z_5496 + 19 z_5497
         + 100 z_5498 + 67 z_5499 + 13 z_5500 + 79 z_5501 + 68 z_5502
         + 63 z_5503 + 77 z_5504 + 81 z_5505 + 98 z_5506 + 89 z_5507 + 94 z_5508
         + 30 z_5509 + 62 z_5510 + 87 z_5511 + 36 z_5512 + 36 z_5513 + 27 z_5514
         + 67 z_5515 + 41 z_5516 + 51 z_5517 + 6 z_5518 + 89 z_5519 + 96 z_5520
         + 35 z_5521 + 85 z_5522 + 62 z_5523 + 64 z_5524 + 83 z_5525 + 89 z_5526
         + 86 z_5527 + z_5528 + 88 z_5529 + 52 z_5530 + 14 z_5531 + 18 z_5532
         + 71 z_5533 + 28 z_5534 + 94 z_5535 + 52 z_5536 + 77 z_5537 + 34 z_5538
         + 97 z_5539 + 7 z_5540 + 96 z_5541 + 35 z_5542 + 94 z_5543 + 83 z_5544
         + 61 z_5545 + 60 z_5546 + 24 z_5547 + 63 z_5548 + 17 z_5549 + 64 z_5550
         + 58 z_5551 + 3 z_5552 + 48 z_5553 + 19 z_5554 + 19 z_5555 + 82 z_5556
         + 59 z_5557 + 4 z_5558 + 83 z_5559 + 98 z_5560 + 55 z_5561 + 48 z_5562
         + 15 z_5563 + 78 z_5564 + 75 z_5565 + 61 z_5566 + 81 z_5567 + 52 z_5568
         + 46 z_5569 + 77 z_5570 + 10 z_5571 + 41 z_5572 + 11 z_5573 + 3 z_5574
         + 76 z_5575 + 23 z_5576 + 14 z_5577 + 99 z_5578 + 86 z_5579 + 82 z_5580
         + 62 z_5581 + 43 z_5582 + 85 z_5583 + 61 z_5584 + 14 z_5585 + 55 z_5586
         + 43 z_5587 + 24 z_5588 + 58 z_5589 + 77 z_5590 + 22 z_5591 + 64 z_5592
         + 76 z_5593 + 88 z_5594 + 41 z_5595 + 50 z_5596 + 48 z_5597 + 21 z_5598
         + 53 z_5599 + 94 z_5600 + 97 z_5601 + 14 z_5602 + 86 z_5603 + 59 z_5604
         + 16 z_5605 + 61 z_5606 + 34 z_5607 + 81 z_5608 + 11 z_5609 + 19 z_5610
         + 63 z_5611 + 24 z_5612 + 13 z_5613 + 99 z_5614 + 85 z_5615 + 78 z_5616
         + 53 z_5617 + 79 z_5618 + 2 z_5619 + 62 z_5620 + 7 z_5621 + 23 z_5622
         + 25 z_5623 + 82 z_5624 + 62 z_5625 + 66 z_5626 + 83 z_5627 + 10 z_5628
         + 86 z_5629 + 36 z_5630 + 55 z_5631 + 35 z_5632 + z_5633 + 92 z_5634
         + 45 z_5635 + 17 z_5636 + 5 z_5637 + 78 z_5638 + 49 z_5639 + 15 z_5640
         + 48 z_5641 + 63 z_5642 + 91 z_5643 + 61 z_5644 + 13 z_5645 + 27 z_5646
         + 38 z_5647 + 65 z_5648 + 5 z_5649 + 91 z_5650 + 26 z_5651 + 11 z_5652
         + 65 z_5653 + 3 z_5654 + 44 z_5655 + 27 z_5656 + 68 z_5657 + 26 z_5658
         + 88 z_5659 + 53 z_5660 + 13 z_5661 + 42 z_5662 + 39 z_5663 + 14 z_5664
         + 33 z_5665 + 84 z_5666 + 82 z_5667 + 89 z_5668 + 13 z_5669 + 30 z_5670
         + 4 z_5671 + 61 z_5672 + 93 z_5673 + 94 z_5674 + 73 z_5675 + 5 z_5676
         + 20 z_5677 + 62 z_5678 + 22 z_5679 + 76 z_5680 + 53 z_5681 + 99 z_5682
         + 38 z_5683 + 17 z_5684 + z_5685 + 81 z_5686 + 43 z_5687 + 20 z_5688
         + 6 z_5689 + 30 z_5690 + 25 z_5691 + 19 z_5692 + 23 z_5693 + 63 z_5694
         + 84 z_5695 + 8 z_5696 + 98 z_5697 + 65 z_5698 + 96 z_5699 + 11 z_5700
         + 94 z_5701 + 51 z_5702 + 23 z_5703 + 38 z_5704 + 96 z_5705 + 95 z_5706
         + 95 z_5707 + 15 z_5708 + 56 z_5709 + 68 z_5710 + 42 z_5711 + 60 z_5712
         + 66 z_5713 + 31 z_5714 + 77 z_5715 + 19 z_5716 + 11 z_5717 + 71 z_5718
         + 90 z_5719 + 69 z_5720 + 53 z_5721 + 14 z_5722 + 39 z_5723 + 27 z_5724
         + 77 z_5725 + 22 z_5726 + 34 z_5727 + 26 z_5728 + 86 z_5729 + 82 z_5730
         + 36 z_5731 + 31 z_5732 + 32 z_5733 + 10 z_5734 + 69 z_5735 + 28 z_5736
         + 4 z_5737 + 63 z_5738 + 94 z_5739 + 12 z_5740 + 30 z_5741 + 88 z_5742
         + 71 z_5743 + 47 z_5744 + 18 z_5745 + 99 z_5746 + 17 z_5747 + 29 z_5748
         + 22 z_5749 + 7 z_5750 + 49 z_5751 + 26 z_5752 + 72 z_5753 + 39 z_5754
         + 52 z_5755 + 48 z_5756 + 60 z_5757 + 38 z_5758 + 74 z_5759 + 97 z_5760
         + 19 z_5761 + 61 z_5762 + 27 z_5763 + 2 z_5764 + 71 z_5765 + 95 z_5766
         + 29 z_5767 + 26 z_5768 + 9 z_5769 + 75 z_5770 + 37 z_5771 + 90 z_5772
         + 62 z_5773 + 60 z_5774 + 89 z_5775 + 79 z_5776 + 58 z_5777 + 57 z_5778
         + 59 z_5779 + 31 z_5780 + 15 z_5781 + 59 z_5782 + 56 z_5783 + 87 z_5784
         + 97 z_5785 + 60 z_5786 + 86 z_5787 + 56 z_5788 + 97 z_5789 + 11 z_5790
         + 4 z_5791 + 67 z_5792 + 24 z_5793 + 31 z_5794 + 68 z_5795 + 94 z_5796
         + 77 z_5797 + 49 z_5798 + 71 z_5799 + 38 z_5800 + 23 z_5801 + 8 z_5802
         + 27 z_5803 + 36 z_5804 + 19 z_5805 + 67 z_5806 + 66 z_5807 + 76 z_5808
         + 24 z_5809 + 25 z_5810 + 59 z_5811 + 90 z_5812 + 35 z_5813 + 14 z_5814
         + 76 z_5815 + 32 z_5816 + 73 z_5817 + 14 z_5818 + 39 z_5819 + 21 z_5820
         + 24 z_5821 + 43 z_5822 + 87 z_5823 + 47 z_5824 + 73 z_5825 + 7 z_5826
         + 92 z_5827 + z_5828 + 55 z_5829 + 15 z_5830 + 38 z_5831 + 77 z_5832
         + 22 z_5833 + 65 z_5834 + 12 z_5835 + 40 z_5836 + 83 z_5837 + 29 z_5838
         + 67 z_5839 + 58 z_5840 + 53 z_5841 + 77 z_5842 + 48 z_5843 + 40 z_5844
         + 43 z_5845 + 75 z_5846 + 71 z_5847 + 67 z_5848 + 88 z_5849 + 9 z_5850
         + 88 z_5851 + 64 z_5852 + 3 z_5853 + 26 z_5854 + 62 z_5855 + 27 z_5856
         + 32 z_5857 + 6 z_5858 + 28 z_5859 + 86 z_5860 + 20 z_5861 + 65 z_5862
         + 14 z_5863 + 93 z_5864 + 81 z_5865 + 77 z_5866 + 84 z_5867 + 64 z_5868
         + 6 z_5869 + 2 z_5870 + 21 z_5871 + 10 z_5872 + 79 z_5873 + 68 z_5874
         + 49 z_5875 + 21 z_5876 + 43 z_5877 + 19 z_5878 + 87 z_5879 + 82 z_5880
         + 80 z_5881 + 26 z_5882 + 97 z_5883 + 82 z_5884 + 52 z_5885 + 11 z_5886
         + 9 z_5887 + 83 z_5888 + 16 z_5889 + 36 z_5890 + 21 z_5891 + 35 z_5892
         + 52 z_5893 + 34 z_5894 + 79 z_5895 + 33 z_5896 + 11 z_5897 + 62 z_5898
         + 96 z_5899 + 16 z_5900 + 63 z_5901 + 16 z_5902 + 25 z_5903 + 93 z_5904
         + 36 z_5905 + 74 z_5906 + 13 z_5907 + 30 z_5908 + 44 z_5909 + 52 z_5910
         + 63 z_5911 + 23 z_5912 + 77 z_5913 + 60 z_5914 + 57 z_5915 + 28 z_5916
         + 70 z_5917 + 17 z_5918 + 63 z_5919 + 85 z_5920 + 4 z_5921 + 83 z_5922
         + 71 z_5923 + 55 z_5924 + 16 z_5925 + z_5926 + 87 z_5927 + 78 z_5928
         + 62 z_5929 + 34 z_5930 + 93 z_5931 + 76 z_5932 + 50 z_5933 + 70 z_5934
         + 69 z_5935 + 37 z_5936 + 95 z_5937 + 33 z_5938 + 66 z_5939 + 38 z_5940
         + 84 z_5941 + 28 z_5942 + 13 z_5943 + 61 z_5944 + 39 z_5945 + 21 z_5946
         + 40 z_5947 + 8 z_5948 + 37 z_5949 + 2 z_5950 + 44 z_5951 + 40 z_5952
         + 36 z_5953 + 66 z_5954 + 46 z_5955 + 4 z_5956 + 66 z_5957 + 85 z_5958
         + 81 z_5959 + 79 z_5960 + 18 z_5961 + 26 z_5962 + 55 z_5963 + 19 z_5964
         + 95 z_5965 + 23 z_5966 + 7 z_5967 + 89 z_5968 + 55 z_5969 + 72 z_5970
         + 78 z_5971 + 91 z_5972 + 52 z_5973 + 90 z_5974 + 51 z_5975 + 90 z_5976
         + 10 z_5977 + 42 z_5978 + 98 z_5979 + 46 z_5980 + 96 z_5981 + 93 z_5982
         + 37 z_5983 + 31 z_5984 + 59 z_5985 + 35 z_5986 + 34 z_5987 + 76 z_5988
         + 19 z_5989 + 67 z_5990 + 55 z_5991 + 88 z_5992 + 92 z_5993 + 9 z_5994
         + 59 z_5995 + 38 z_5996 + 83 z_5997 + 65 z_5998 + 26 z_5999 + 89 z_6000
         + 37 z_6001 + 3 z_6002 + 79 z_6003 + 40 z_6004 + 45 z_6005 + 81 z_6006
         + 29 z_6007 + 54 z_6008 + 23 z_6009 + 78 z_6010 + 52 z_6011 + 18 z_6012
         + 71 z_6013 + 40 z_6014 + 100 z_6015 + 81 z_6016 + 74 z_6017
         + 86 z_6018 + 56 z_6019 + 44 z_6020 + 52 z_6021 + 62 z_6022 + 84 z_6023
         + 95 z_6024 + 70 z_6025 + 42 z_6026 + 32 z_6027 + 4 z_6028 + 6 z_6029
         + 9 z_6030 + 45 z_6031 + 94 z_6032 + 63 z_6033 + 23 z_6034 + 85 z_6035
         + 7 z_6036 + 56 z_6037 + 14 z_6038 + 13 z_6039 + 78 z_6040 + 91 z_6041
         + 64 z_6042 + 47 z_6043 + 13 z_6044 + 55 z_6045 + 98 z_6046 + 93 z_6047
         + 29 z_6048 + 83 z_6049 + z_6050 + 24 z_6051 + 86 z_6052 + 62 z_6053
         + 7 z_6054 + 32 z_6055 + 84 z_6056 + 100 z_6057 + 15 z_6058 + 87 z_6059
         + 58 z_6060 + 23 z_6061 + 31 z_6062 + 51 z_6063 + 86 z_6064 + 6 z_6065
         + 36 z_6066 + 44 z_6067 + 61 z_6068 + z_6069 + 56 z_6070 + 90 z_6071
         + 43 z_6072 + 71 z_6073 + 36 z_6074 + 56 z_6075 + 26 z_6076 + 85 z_6077
         + 48 z_6078 + 6 z_6079 + 68 z_6080 + 100 z_6081 + 29 z_6082 + 5 z_6083
         + 62 z_6084 + 88 z_6085 + 37 z_6086 + 45 z_6087 + 87 z_6088 + 51 z_6089
         + 83 z_6090 + 44 z_6091 + 26 z_6092 + 14 z_6093 + 47 z_6094 + 63 z_6095
         + 71 z_6096 + 34 z_6097 + 58 z_6098 + 31 z_6099 + 34 z_6100 + 14 z_6101
         + 72 z_6102 + 76 z_6103 + 36 z_6104 + 59 z_6105 + 83 z_6106 + 61 z_6107
         + 43 z_6108 + 83 z_6109 + 18 z_6110 + 62 z_6111 + 82 z_6112 + 99 z_6113
         + 67 z_6114 + 43 z_6115 + 86 z_6116 + 55 z_6117 + 87 z_6118 + 24 z_6119
         + 57 z_6120 + 70 z_6121 + 68 z_6122 + 82 z_6123 + 35 z_6124 + 66 z_6125
         + 96 z_6126 + 57 z_6127 + 99 z_6128 + 54 z_6129 + 87 z_6130 + 84 z_6131
         + 19 z_6132 + 10 z_6133 + 11 z_6134 + 54 z_6135 + 68 z_6136 + 94 z_6137
         + 67 z_6138 + 10 z_6139 + 76 z_6140 + 84 z_6141 + 72 z_6142 + 57 z_6143
         + 34 z_6144 + 90 z_6145 + 52 z_6146 + 19 z_6147 + 44 z_6148 + 90 z_6149
         + 95 z_6150 + 100 z_6151 + 11 z_6152 + 14 z_6153 + 34 z_6154
         + 97 z_6155 + 79 z_6156 + 81 z_6157 + 53 z_6158 + 29 z_6159 + 34 z_6160
         + 39 z_6161 + 64 z_6162 + 52 z_6163 + 100 z_6164 + 74 z_6165
         + 58 z_6166 + 67 z_6167 + 67 z_6168 + 24 z_6169 + 77 z_6170 + 94 z_6171
         + 59 z_6172 + 100 z_6173 + 3 z_6174 + 93 z_6175 + 89 z_6176 + 54 z_6177
         + 63 z_6178 + 84 z_6179 + 95 z_6180 + 57 z_6181 + 35 z_6182 + 6 z_6183
         + 70 z_6184 + 20 z_6185 + 2 z_6186 + 100 z_6187 + z_6188 + 55 z_6189
         + 28 z_6190 + 34 z_6191 + 45 z_6192 + 91 z_6193 + 38 z_6194 + 45 z_6195
         + 17 z_6196 + 95 z_6197 + 11 z_6198 + 35 z_6199 + 18 z_6200 + 39 z_6201
         + 29 z_6202 + 28 z_6203 + 90 z_6204 + 83 z_6205 + 20 z_6206 + 30 z_6207
         + 88 z_6208 + 35 z_6209 + 13 z_6210 + 82 z_6211 + 91 z_6212
         + 100 z_6213 + 87 z_6214 + 13 z_6215 + 19 z_6216 + 41 z_6217
         + 64 z_6218 + 19 z_6219 + 47 z_6220 + 44 z_6221 + 5 z_6222 + 91 z_6223
         + 34 z_6224 + 42 z_6225 + 87 z_6226 + 2 z_6227 + 36 z_6228 + 50 z_6229
         + 37 z_6230 + 5 z_6231 + 88 z_6232 + 17 z_6233 + 32 z_6234 + 30 z_6235
         + 51 z_6236 + 4 z_6237 + 59 z_6238 + 38 z_6239 + 38 z_6240 + 72 z_6241
         + 19 z_6242 + 80 z_6243 + 71 z_6244 + 58 z_6245 + 44 z_6246 + 41 z_6247
         + 50 z_6248 + 8 z_6249 + 12 z_6250 + 96 z_6251 + 51 z_6252 + 16 z_6253
         + 86 z_6254 + 36 z_6255 + 9 z_6256 + 25 z_6257 + 38 z_6258 + 44 z_6259
         + 74 z_6260 + 26 z_6261 + 100 z_6262 + 13 z_6263 + 94 z_6264
         + 31 z_6265 + 42 z_6266 + 44 z_6267 + 86 z_6268 + z_6269 + 81 z_6270
         + 23 z_6271 + 72 z_6272 + 51 z_6273 + 55 z_6274 + 94 z_6275 + 60 z_6276
         + 98 z_6277 + 86 z_6278 + 9 z_6279 + 5 z_6280 + 97 z_6281 + 4 z_6282
         + 55 z_6283 + 64 z_6284 + 42 z_6285 + 91 z_6286 + 72 z_6287 + 66 z_6288
         + 80 z_6289 + 15 z_6290 + 39 z_6291 + 5 z_6292 + 66 z_6293 + 51 z_6294
         + 50 z_6295 + 97 z_6296 + 93 z_6297 + 93 z_6298 + 34 z_6299 + 45 z_6300
         + 25 z_6301 + 57 z_6302 + 68 z_6303 + 75 z_6304 + 11 z_6305 + 61 z_6306
         + 87 z_6307 + 60 z_6308 + 98 z_6309 + 95 z_6310 + 65 z_6311 + 95 z_6312
         + 51 z_6313 + 71 z_6314 + 58 z_6315 + 92 z_6316 + 61 z_6317 + 82 z_6318
         + 9 z_6319 + 92 z_6320 + 96 z_6321 + 99 z_6322 + 48 z_6323 + 14 z_6324
         + z_6325 + 97 z_6326 + 62 z_6327 + 45 z_6328 + 89 z_6329 + 95 z_6330
         + 89 z_6331 + 13 z_6332 + 51 z_6333 + 56 z_6334 + 40 z_6335 + 13 z_6336
         + 68 z_6337 + 26 z_6338 + 73 z_6339 + 66 z_6340 + 72 z_6341 + 89 z_6342
         + 12 z_6343 + 74 z_6344 + 59 z_6345 + 21 z_6346 + 65 z_6347 + 72 z_6348
         + 2 z_6349 + 25 z_6350 + 63 z_6351 + 50 z_6352 + 23 z_6353 + 11 z_6354
         + 63 z_6355 + 76 z_6356 + 7 z_6357 + 24 z_6358 + 20 z_6359 + 48 z_6360
         + 18 z_6361 + 9 z_6362 + 12 z_6363 + 21 z_6364 + 16 z_6365 + 51 z_6366
         + 85 z_6367 + 84 z_6368 + 28 z_6369 + 57 z_6370 + z_6371 + 52 z_6372
         + 97 z_6373 + 64 z_6374 + 25 z_6375 + 56 z_6376 + 84 z_6377 + 42 z_6378
         + 27 z_6379 + 86 z_6380 + 66 z_6381 + 41 z_6382 + 35 z_6383 + 41 z_6384
         + 51 z_6385 + 49 z_6386 + 68 z_6387 + 10 z_6388 + 72 z_6389 + 87 z_6390
         + 57 z_6391 + 41 z_6392 + 47 z_6393 + 68 z_6394 + 13 z_6395 + 63 z_6396
         + 71 z_6397 + 98 z_6398 + 98 z_6399 + 50 z_6400 + 6 z_6401 + 50 z_6402
         + z_6403 + 3 z_6404 + 13 z_6405 + 26 z_6406 + 58 z_6407 + 96 z_6408
         + 19 z_6409 + 36 z_6410 + 33 z_6411 + 36 z_6412 + 76 z_6413 + 19 z_6414
         + 76 z_6415 + 79 z_6416 + 67 z_6417 + 43 z_6418 + 88 z_6419 + 90 z_6420
         + 82 z_6421 + 96 z_6422 + 83 z_6423 + 28 z_6424 + 63 z_6425 + 95 z_6426
         + 42 z_6427 + 85 z_6428 + 92 z_6429 + 91 z_6430 + 35 z_6431 + 50 z_6432
         + 40 z_6433 + 35 z_6434 + 52 z_6435 + 52 z_6436 + 12 z_6437 + 61 z_6438
         + 100 z_6439 + 30 z_6440 + 96 z_6441 + 32 z_6442 + 66 z_6443
         + 23 z_6444 + 51 z_6445 + 93 z_6446 + z_6447 + 69 z_6448 + 88 z_6449
         + 88 z_6450 + 59 z_6451 + 69 z_6452 + 83 z_6453 + 93 z_6454 + 48 z_6455
         + 98 z_6456 + 87 z_6457 + 42 z_6458 + 34 z_6459 + 31 z_6460 + 32 z_6461
         + 68 z_6462 + 80 z_6463 + 72 z_6464 + 55 z_6465 + 31 z_6466 + 75 z_6467
         + 18 z_6468 + 43 z_6469 + 74 z_6470 + 48 z_6471 + 38 z_6472 + 6 z_6473
         + 65 z_6474 + 60 z_6475 + 8 z_6476 + 9 z_6477 + 13 z_6478 + 76 z_6479
         + 96 z_6480 + 52 z_6481 + 86 z_6482 + 16 z_6483 + 87 z_6484 + 78 z_6485
         + 16 z_6486 + 84 z_6487 + 17 z_6488 + 57 z_6489 + 69 z_6490 + 47 z_6491
         + 88 z_6492 + 37 z_6493 + 78 z_6494 + 11 z_6495 + 43 z_6496 + 60 z_6497
         + 86 z_6498 + 60 z_6499 + 2 z_6500 + 59 z_6501 + 59 z_6502 + 91 z_6503
         + 16 z_6504 + 23 z_6505 + 2 z_6506 + 23 z_6507 + 32 z_6508 + 14 z_6509
         + 51 z_6510 + 79 z_6511 + 66 z_6512 + 36 z_6513 + 47 z_6514 + 52 z_6515
         + 66 z_6516 + 62 z_6517 + 87 z_6518 + 34 z_6519 + 70 z_6520 + 55 z_6521
         + 32 z_6522 + 9 z_6523 + 43 z_6524 + 9 z_6525 + 20 z_6526 + 85 z_6527
         + 68 z_6528 + 5 z_6529 + 45 z_6530 + 69 z_6531 + 15 z_6532 + 3 z_6533
         + 11 z_6534 + 31 z_6535 + 78 z_6536 + 12 z_6537 + 53 z_6538 + 61 z_6539
         + 26 z_6540 + 3 z_6541 + 39 z_6542 + 43 z_6543 + 91 z_6544 + 37 z_6545
         + 94 z_6546 + 56 z_6547 + 50 z_6548 + 32 z_6549 + 41 z_6550 + 19 z_6551
         + 86 z_6552 + 72 z_6553 + 80 z_6554 + 81 z_6555 + 80 z_6556 + 99 z_6557
         + 65 z_6558 + 99 z_6559 + 55 z_6560 + 61 z_6561 + 19 z_6562 + 69 z_6563
         + 64 z_6564 + 29 z_6565 + 51 z_6566 + 41 z_6567 + 40 z_6568 + 4 z_6569
         + z_6570 + 65 z_6571 + 58 z_6572 + 91 z_6573 + 7 z_6574 + 48 z_6575
         + 80 z_6576 + 52 z_6577 + 55 z_6578 + 29 z_6579 + 83 z_6580 + 95 z_6581
         + 100 z_6582 + 21 z_6583 + 66 z_6584 + 31 z_6585 + z_6586 + 45 z_6587
         + 29 z_6588 + 65 z_6589 + 95 z_6590 + 35 z_6591 + 26 z_6592 + 13 z_6593
         + 55 z_6594 + 41 z_6595 + 41 z_6596 + 6 z_6597 + 33 z_6598 + 81 z_6599
         + 9 z_6600 + 85 z_6601 + 97 z_6602 + 18 z_6603 + 27 z_6604 + 56 z_6605
         + 66 z_6606 + 6 z_6607 + 7 z_6608 + 72 z_6609 + 87 z_6610 + 42 z_6611
         + 67 z_6612 + 38 z_6613 + 62 z_6614 + 32 z_6615 + 68 z_6616 + 14 z_6617
         + 29 z_6618 + 48 z_6619 + 30 z_6620 + 23 z_6621 + 82 z_6622 + 7 z_6623
         + 36 z_6624 + 36 z_6625 + 47 z_6626 + 28 z_6627 + 41 z_6628 + 79 z_6629
         + 8 z_6630 + z_6631 + 15 z_6632 + 5 z_6633 + 71 z_6634 + 42 z_6635
         + 12 z_6636 + 36 z_6637 + 47 z_6638 + 70 z_6639 + 7 z_6640 + 85 z_6641
         + 11 z_6642 + 25 z_6643 + 22 z_6644 + 24 z_6645 + 9 z_6646 + 89 z_6647
         + 89 z_6648 + 37 z_6649 + 36 z_6650 + 19 z_6651 + 11 z_6652 + 69 z_6653
         + 25 z_6654 + 98 z_6655 + 57 z_6656 + 24 z_6657 + 26 z_6658 + 49 z_6659
         + 2 z_6660 + 85 z_6661 + 50 z_6662 + 17 z_6663 + 41 z_6664 + 20 z_6665
         + 10 z_6666 + 52 z_6667 + 7 z_6668 + 8 z_6669 + 22 z_6670 + 65 z_6671
         + 93 z_6672 + 84 z_6673 + 90 z_6674 + 14 z_6675 + 8 z_6676 + 98 z_6677
         + 55 z_6678 + 96 z_6679 + 86 z_6680 + 42 z_6681 + 66 z_6682 + 48 z_6683
         + 63 z_6684 + 91 z_6685 + 98 z_6686 + 19 z_6687 + 14 z_6688 + 75 z_6689
         + 67 z_6690 + 67 z_6691 + 59 z_6692 + 68 z_6693 + 35 z_6694 + 52 z_6695
         + 39 z_6696 + 44 z_6697 + 3 z_6698 + 45 z_6699 + 52 z_6700 + 76 z_6701
         + 62 z_6702 + 96 z_6703 + 60 z_6704 + 3 z_6705 + 61 z_6706 + 19 z_6707
         + 100 z_6708 + 67 z_6709 + 66 z_6710 + 37 z_6711 + 9 z_6712 + 32 z_6713
         + 36 z_6714 + 71 z_6715 + 22 z_6716 + 85 z_6717 + 89 z_6718 + 87 z_6719
         + 59 z_6720 + 7 z_6721 + 5 z_6722 + 70 z_6723 + 75 z_6724 + 40 z_6725
         + 21 z_6726 + 13 z_6727 + 35 z_6728 + 23 z_6729 + 58 z_6730 + 38 z_6731
         + 51 z_6732 + 71 z_6733 + 33 z_6734 + 10 z_6735 + 73 z_6736 + 94 z_6737
         + 28 z_6738 + 24 z_6739 + 60 z_6740 + 93 z_6741 + 12 z_6742 + 20 z_6743
         + 24 z_6744 + 47 z_6745 + 42 z_6746 + 97 z_6747 + 84 z_6748 + 82 z_6749
         + 35 z_6750 + 42 z_6751 + 89 z_6752 + 40 z_6753 + 63 z_6754 + 63 z_6755
         + 31 z_6756 + 83 z_6757 + 75 z_6758 + 65 z_6759 + 58 z_6760 + 84 z_6761
         + 3 z_6762 + 8 z_6763 + 54 z_6764 + 35 z_6765 + 17 z_6766 + 78 z_6767
         + 80 z_6768 + 96 z_6769 + z_6770 + 40 z_6771 + 88 z_6772 + 12 z_6773
         + 11 z_6774 + 64 z_6775 + 11 z_6776 + 53 z_6777 + 12 z_6778 + 94 z_6779
         + 34 z_6780 + 47 z_6781 + 87 z_6782 + 74 z_6783 + 38 z_6784 + 50 z_6785
         + 36 z_6786 + 68 z_6787 + 84 z_6788 + 63 z_6789 + 32 z_6790 + 41 z_6791
         + 98 z_6792 + 86 z_6793 + 100 z_6794 + 52 z_6795 + 21 z_6796
         + 16 z_6797 + 81 z_6798 + 52 z_6799 + 63 z_6800 + 82 z_6801 + 43 z_6802
         + 51 z_6803 + 45 z_6804 + 54 z_6805 + 66 z_6806 + 55 z_6807 + 58 z_6808
         + 77 z_6809 + 100 z_6810 + 43 z_6811 + 75 z_6812 + 87 z_6813
         + 17 z_6814 + 12 z_6815 + 88 z_6816 + 4 z_6817 + 31 z_6818 + 71 z_6819
         + 66 z_6820 + 63 z_6821 + 64 z_6822 + 64 z_6823 + 48 z_6824 + 63 z_6825
         + 67 z_6826 + 20 z_6827 + 31 z_6828 + 47 z_6829 + 72 z_6830 + 93 z_6831
         + 80 z_6832 + 14 z_6833 + 95 z_6834 + 25 z_6835 + 19 z_6836 + 60 z_6837
         + 31 z_6838 + 76 z_6839 + 89 z_6840 + 31 z_6841 + 19 z_6842 + 15 z_6843
         + 69 z_6844 + 87 z_6845 + 79 z_6846 + 56 z_6847 + 90 z_6848 + 9 z_6849
         + 78 z_6850 + 8 z_6851 + 23 z_6852 + 41 z_6853 + 71 z_6854 + 23 z_6855
         + 4 z_6856 + 89 z_6857 + 42 z_6858 + 34 z_6859 + 87 z_6860 + 65 z_6861
         + 26 z_6862 + 67 z_6863 + 31 z_6864 + 73 z_6865 + 91 z_6866 + 49 z_6867
         + 32 z_6868 + 21 z_6869 + 77 z_6870 + 72 z_6871 + 3 z_6872 + 47 z_6873
         + 87 z_6874 + 71 z_6875 + 33 z_6876 + 65 z_6877 + 78 z_6878 + 74 z_6879
         + 25 z_6880 + 8 z_6881 + 81 z_6882 + 48 z_6883 + 48 z_6884 + 3 z_6885
         + 70 z_6886 + 3 z_6887 + 91 z_6888 + 63 z_6889 + 88 z_6890 + 78 z_6891
         + 80 z_6892 + 66 z_6893 + 44 z_6894 + 10 z_6895 + 38 z_6896 + 86 z_6897
         + 10 z_6898 + 21 z_6899 + 58 z_6900 + 38 z_6901 + 93 z_6902 + 61 z_6903
         + 84 z_6904 + 79 z_6905 + 83 z_6906 + 68 z_6907 + 95 z_6908 + 13 z_6909
         + 42 z_6910 + 71 z_6911 + 20 z_6912 + 22 z_6913 + 18 z_6914 + 19 z_6915
         + 25 z_6916 + 39 z_6917 + 74 z_6918 + 15 z_6919 + 54 z_6920 + 61 z_6921
         + 44 z_6922 + 33 z_6923 + 26 z_6924 + 39 z_6925 + 94 z_6926 + 15 z_6927
         + 24 z_6928 + 55 z_6929 + 36 z_6930 + 34 z_6931 + 45 z_6932 + 28 z_6933
         + 94 z_6934 + 28 z_6935 + 58 z_6936 + 28 z_6937 + 48 z_6938 + 4 z_6939
         + 40 z_6940 + 89 z_6941 + 74 z_6942 + 11 z_6943 + 62 z_6944 + 44 z_6945
         + 30 z_6946 + 86 z_6947 + 34 z_6948 + 3 z_6949 + 53 z_6950 + 87 z_6951
         + 15 z_6952 + 48 z_6953 + 71 z_6954 + 93 z_6955 + 87 z_6956 + 16 z_6957
         + 7 z_6958 + 62 z_6959 + 23 z_6960 + 42 z_6961 + 47 z_6962 + 67 z_6963
         + 21 z_6964 + 40 z_6965 + 46 z_6966 + 78 z_6967 + 20 z_6968 + 93 z_6969
         + 81 z_6970 + 59 z_6971 + 33 z_6972 + 7 z_6973 + 70 z_6974 + 95 z_6975
         + 50 z_6976 + 51 z_6977 + 32 z_6978 + 83 z_6979 + 53 z_6980 + 36 z_6981
         + 22 z_6982 + 19 z_6983 + 84 z_6984 + 44 z_6985 + 11 z_6986 + 22 z_6987
         + 60 z_6988 + 18 z_6989 + 35 z_6990 + 34 z_6991 + 59 z_6992 + 82 z_6993
         + 100 z_6994 + 32 z_6995 + 73 z_6996 + 97 z_6997 + 9 z_6998 + 92 z_6999
         + 42 z_7000 + 42 z_7001 + 3 z_7002 + 74 z_7003 + 100 z_7004 + 72 z_7005
         + 20 z_7006 + 49 z_7007 + 74 z_7008 + 4 z_7009 + 83 z_7010 + 78 z_7011
         + 39 z_7012 + 56 z_7013 + 96 z_7014 + 74 z_7015 + 100 z_7016 + 7 z_7017
         + 95 z_7018 + 11 z_7019 + 24 z_7020 + 82 z_7021 + 96 z_7022 + 34 z_7023
         + 63 z_7024 + 47 z_7025 + 65 z_7026 + 35 z_7027 + 43 z_7028 + 26 z_7029
         + 79 z_7030 + 84 z_7031 + 19 z_7032 + 81 z_7033 + 10 z_7034 + 18 z_7035
         + 4 z_7036 + 81 z_7037 + 18 z_7038 + 77 z_7039 + 84 z_7040 + 52 z_7041
         + 54 z_7042 + 75 z_7043 + 8 z_7044 + z_7045 + 48 z_7046 + 59 z_7047
         + 7 z_7048 + 95 z_7049 + 21 z_7050 + 82 z_7051 + 76 z_7052 + 16 z_7053
         + 16 z_7054 + 90 z_7055 + 62 z_7056 + 32 z_7057 + 76 z_7058 + 4 z_7059
         + 9 z_7060 + 54 z_7061 + 40 z_7062 + 27 z_7063 + 34 z_7064 + z_7065
         + 96 z_7066 + 89 z_7067 + 81 z_7068 + 13 z_7069 + 17 z_7070 + 17 z_7071
         + 17 z_7072 + 70 z_7073 + 91 z_7074 + 24 z_7075 + 23 z_7076 + 90 z_7077
         + 34 z_7078 + 29 z_7079 + 84 z_7080 + 54 z_7081 + 11 z_7082 + 11 z_7083
         + 69 z_7084 + 78 z_7085 + 100 z_7086 + 82 z_7087 + 61 z_7088
         + 76 z_7089 + 37 z_7090 + 70 z_7091 + 81 z_7092 + 76 z_7093 + 48 z_7094
         + 67 z_7095 + 28 z_7096 + 96 z_7097 + 55 z_7098 + 61 z_7099 + 60 z_7100
         + 72 z_7101 + 77 z_7102 + 76 z_7103 + 93 z_7104 + 19 z_7105 + 51 z_7106
         + 15 z_7107 + 8 z_7108 + 84 z_7109 + 96 z_7110 + 44 z_7111 + 37 z_7112
         + 6 z_7113 + 6 z_7114 + 57 z_7115 + 35 z_7116 + 6 z_7117 + 38 z_7118
         + 95 z_7119 + 33 z_7120 + 75 z_7121 + 16 z_7122 + 65 z_7123 + 2 z_7124
         + 64 z_7125 + 31 z_7126 + 30 z_7127 + 59 z_7128 + 38 z_7129 + 42 z_7130
         + 70 z_7131 + 9 z_7132 + 18 z_7133 + 46 z_7134 + 53 z_7135 + 36 z_7136
         + 96 z_7137 + 68 z_7138 + 95 z_7139 + 80 z_7140 + 15 z_7141 + 38 z_7142
         + 68 z_7143 + 72 z_7144 + 44 z_7145 + 77 z_7146 + 6 z_7147 + z_7148
         + 66 z_7149 + 52 z_7150 + 85 z_7151 + 92 z_7152 + 68 z_7153 + 49 z_7154
         + 94 z_7155 + 83 z_7156 + 32 z_7157 + 75 z_7158 + 93 z_7159 + 69 z_7160
         + 16 z_7161 + 62 z_7162 + 29 z_7163 + 85 z_7164 + 7 z_7165 + 81 z_7166
         + 20 z_7167 + 55 z_7168 + 100 z_7169 + 66 z_7170 + 86 z_7171
         + 14 z_7172 + 4 z_7173 + 53 z_7174 + 85 z_7175 + 99 z_7176 + 81 z_7177
         + 42 z_7178 + 51 z_7179 + 47 z_7180 + 94 z_7181 + 35 z_7182 + 38 z_7183
         + 61 z_7184 + 35 z_7185 + 83 z_7186 + 95 z_7187 + 18 z_7188 + 57 z_7189
         + 87 z_7190 + 86 z_7191 + 24 z_7192 + 48 z_7193 + 14 z_7194 + 8 z_7195
         + 7 z_7196 + 47 z_7197 + 79 z_7198 + 61 z_7199 + 46 z_7200 + 45 z_7201
         + 98 z_7202 + 12 z_7203 + 100 z_7204 + 50 z_7205 + 48 z_7206
         + 50 z_7207 + 83 z_7208 + 90 z_7209 + 100 z_7210 + 29 z_7211
         + 83 z_7212 + 34 z_7213 + 66 z_7214 + 95 z_7215 + 20 z_7216 + 49 z_7217
         + 41 z_7218 + 38 z_7219 + 57 z_7220 + 27 z_7221 + 75 z_7222 + 33 z_7223
         + 26 z_7224 + 41 z_7225 + 92 z_7226 + 84 z_7227 + 87 z_7228 + 71 z_7229
         + 96 z_7230 + 84 z_7231 + 67 z_7232 + 93 z_7233 + 47 z_7234 + 18 z_7235
         + 95 z_7236 + 95 z_7237 + 67 z_7238 + 77 z_7239 + 84 z_7240 + 66 z_7241
         + 5 z_7242 + 18 z_7243 + 51 z_7244 + 22 z_7245 + 64 z_7246 + 22 z_7247
         + 70 z_7248 + 4 z_7249 + 59 z_7250 + 79 z_7251 + 82 z_7252 + 86 z_7253
         + 11 z_7254 + 59 z_7255 + 26 z_7256 + 2 z_7257 + 43 z_7258 + 12 z_7259
         + 24 z_7260 + 38 z_7261 + 95 z_7262 + 42 z_7263 + 83 z_7264 + 42 z_7265
         + 59 z_7266 + 77 z_7267 + 88 z_7268 + 77 z_7269 + 5 z_7270 + 23 z_7271
         + 94 z_7272 + 9 z_7273 + 92 z_7274 + 96 z_7275 + 30 z_7276 + 7 z_7277
         + 18 z_7278 + 52 z_7279 + 10 z_7280 + 28 z_7281 + 82 z_7282 + 43 z_7283
         + 13 z_7284 + 44 z_7285 + z_7286 + 38 z_7287 + 45 z_7288 + 95 z_7289
         + z_7290 + 21 z_7291 + 85 z_7292 + 96 z_7293 + 14 z_7294 + 67 z_7295
         + 89 z_7296 + 73 z_7297 + 95 z_7298 + 28 z_7299 + z_7300 + 99 z_7301
         + 50 z_7302 + 95 z_7303 + 7 z_7304 + 41 z_7305 + 90 z_7306 + 88 z_7307
         + 47 z_7308 + 59 z_7309 + 91 z_7310 + 8 z_7311 + 87 z_7312 + 24 z_7313
         + 2 z_7314 + 51 z_7315 + 67 z_7316 + 2 z_7317 + 41 z_7318 + 64 z_7319
         + 49 z_7320 + 41 z_7321 + 36 z_7322 + 33 z_7323 + 88 z_7324 + 49 z_7325
         + 99 z_7326 + 28 z_7327 + 73 z_7328 + 93 z_7329 + 55 z_7330 + 74 z_7331
         + 43 z_7332 + 4 z_7333 + 20 z_7334 + 49 z_7335 + 96 z_7336 + 61 z_7337
         + 88 z_7338 + 94 z_7339 + 20 z_7340 + 31 z_7341 + z_7342 + 58 z_7343
         + 54 z_7344 + 2 z_7345 + 60 z_7346 + 73 z_7347 + 56 z_7348 + 100 z_7349
         + 36 z_7350 + 4 z_7351 + 41 z_7352 + 71 z_7353 + 88 z_7354 + 28 z_7355
         + 19 z_7356 + 38 z_7357 + 56 z_7358 + 92 z_7359 + 82 z_7360 + 62 z_7361
         + 17 z_7362 + 24 z_7363 + 66 z_7364 + 36 z_7365 + 24 z_7366 + 13 z_7367
         + 96 z_7368 + 63 z_7369 + 7 z_7370 + 67 z_7371 + 93 z_7372 + 59 z_7373
         + 24 z_7374 + 99 z_7375 + 13 z_7376 + 84 z_7377 + 71 z_7378 + 20 z_7379
         + 83 z_7380 + 58 z_7381 + 75 z_7382 + 75 z_7383 + 80 z_7384 + 62 z_7385
         + 3 z_7386 + 50 z_7387 + 99 z_7388 + 10 z_7389 + 93 z_7390 + 80 z_7391
         + 71 z_7392 + 9 z_7393 + 55 z_7394 + 88 z_7395 + 96 z_7396 + 78 z_7397
         + z_7398 + 92 z_7399 + 40 z_7400 + 59 z_7401 + 58 z_7402 + 33 z_7403
         + 17 z_7404 + 34 z_7405 + 83 z_7406 + 29 z_7407 + 69 z_7408 + 5 z_7409
         + 100 z_7410 + 51 z_7411 + 62 z_7412 + 74 z_7413 + 78 z_7414
         + 93 z_7415 + 35 z_7416 + 80 z_7417 + 42 z_7418 + 85 z_7419 + 41 z_7420
         + 35 z_7421 + 16 z_7422 + 11 z_7423 + 95 z_7424 + 70 z_7425 + 99 z_7426
         + 91 z_7427 + 47 z_7428 + 51 z_7429 + 34 z_7430 + 87 z_7431 + 9 z_7432
         + 43 z_7433 + 71 z_7434 + 25 z_7435 + 28 z_7436 + 53 z_7437 + 6 z_7438
         + 96 z_7439 + 57 z_7440 + 5 z_7441 + 99 z_7442 + 70 z_7443 + 31 z_7444
         + 76 z_7445 + 62 z_7446 + 65 z_7447 + 55 z_7448 + 55 z_7449 + 2 z_7450
         + 95 z_7451 + 41 z_7452 + 17 z_7453 + 57 z_7454 + 36 z_7455 + 87 z_7456
         + 55 z_7457 + 78 z_7458 + 33 z_7459 + 57 z_7460 + 63 z_7461 + 71 z_7462
         + 65 z_7463 + 5 z_7464 + 41 z_7465 + 42 z_7466 + 33 z_7467 + 45 z_7468
         + 99 z_7469 + 80 z_7470 + 53 z_7471 + 55 z_7472 + 78 z_7473 + 74 z_7474
         + 85 z_7475 + 53 z_7476 + 87 z_7477 + 2 z_7478 + 59 z_7479 + 42 z_7480
         + 3 z_7481 + 5 z_7482 + 34 z_7483 + 71 z_7484 + 62 z_7485 + 69 z_7486
         + 57 z_7487 + 68 z_7488 + 98 z_7489 + 42 z_7490 + 25 z_7491 + 60 z_7492
         + 64 z_7493 + 41 z_7494 + 17 z_7495 + 57 z_7496 + 82 z_7497 + z_7498
         + 53 z_7499 + 80 z_7500 + 80 z_7501 + 6 z_7502 + 87 z_7503 + 58 z_7504
         + 31 z_7505 + 71 z_7506 + 62 z_7507 + 18 z_7508 + 24 z_7509 + 21 z_7510
         + 11 z_7511 + 26 z_7512 + 25 z_7513 + 44 z_7514 + 49 z_7515 + 86 z_7516
         + 65 z_7517 + 5 z_7518 + 6 z_7519 + 62 z_7520 + 98 z_7521 + 30 z_7522
         + 74 z_7523 + 62 z_7524 + 70 z_7525 + 42 z_7526 + 70 z_7527 + 4 z_7528
         + 94 z_7529 + 22 z_7530 + 35 z_7531 + 73 z_7532 + 27 z_7533 + 21 z_7534
         + 82 z_7535 + 10 z_7536 + 44 z_7537 + 96 z_7538 + 79 z_7539 + 67 z_7540
         + 16 z_7541 + 89 z_7542 + 45 z_7543 + 40 z_7544 + 84 z_7545 + 93 z_7546
         + 78 z_7547 + 48 z_7548 + 49 z_7549 + 35 z_7550 + 62 z_7551 + 99 z_7552
         + 64 z_7553 + 87 z_7554 + 12 z_7555 + 85 z_7556 + 28 z_7557 + 81 z_7558
         + 40 z_7559 + 21 z_7560 + 2 z_7561 + 75 z_7562 + 45 z_7563 + 81 z_7564
         + 47 z_7565 + 79 z_7566 + 90 z_7567 + 90 z_7568 + 74 z_7569 + 68 z_7570
         + 9 z_7571 + 89 z_7572 + 8 z_7573 + 53 z_7574 + 80 z_7575 + 91 z_7576
         + 97 z_7577 + 9 z_7578 + 91 z_7579 + 45 z_7580 + 43 z_7581 + 52 z_7582
         + 43 z_7583 + 58 z_7584 + 38 z_7585 + 6 z_7586 + 95 z_7587 + 17 z_7588
         + 86 z_7589 + 34 z_7590 + 89 z_7591 + 40 z_7592 + 8 z_7593 + 33 z_7594
         + 20 z_7595 + 55 z_7596 + 11 z_7597 + 61 z_7598 + 96 z_7599 + 36 z_7600
         + 80 z_7601 + 4 z_7602 + 24 z_7603 + 87 z_7604 + 8 z_7605 + 56 z_7606
         + 29 z_7607 + 4 z_7608 + 16 z_7609 + 19 z_7610 + z_7611 + 11 z_7612
         + 22 z_7613 + 95 z_7614 + 68 z_7615 + 59 z_7616 + z_7617 + 62 z_7618
         + 27 z_7619 + 86 z_7620 + 96 z_7621 + 15 z_7622 + 25 z_7623 + 55 z_7624
         + 100 z_7625 + 96 z_7626 + 61 z_7627 + 62 z_7628 + 56 z_7629
         + 57 z_7630 + 98 z_7631 + 87 z_7632 + 12 z_7633 + 73 z_7634 + 73 z_7635
         + 20 z_7636 + 80 z_7637 + 54 z_7638 + 23 z_7639 + 96 z_7640 + 72 z_7641
         + 75 z_7642 + 6 z_7643 + 94 z_7644 + 70 z_7645 + 25 z_7646 + 4 z_7647
         + 70 z_7648 + 87 z_7649 + 83 z_7650 + 55 z_7651 + 34 z_7652 + 97 z_7653
         + 32 z_7654 + 40 z_7655 + 48 z_7656 + 27 z_7657 + z_7658 + 10 z_7659
         + 35 z_7660 + 9 z_7661 + 7 z_7662 + 21 z_7663 + 20 z_7664 + 31 z_7665
         + 46 z_7666 + 91 z_7667 + 11 z_7668 + 99 z_7669 + 66 z_7670 + 6 z_7671
         + 22 z_7672 + 40 z_7673 + 63 z_7674 + 67 z_7675 + 9 z_7676 + 39 z_7677
         + 23 z_7678 + 78 z_7679 + 25 z_7680 + 5 z_7681 + 85 z_7682 + 10 z_7683
         + z_7684 + 16 z_7685 + 50 z_7686 + z_7687 + 94 z_7688 + 50 z_7689
         + 10 z_7690 + 28 z_7691 + 58 z_7692 + 68 z_7693 + z_7694 + 29 z_7695
         + 98 z_7696 + 98 z_7697 + 20 z_7698 + 8 z_7699 + 48 z_7700 + 85 z_7701
         + 65 z_7702 + 69 z_7703 + 24 z_7704 + 79 z_7705 + 88 z_7706 + 33 z_7707
         + 18 z_7708 + 10 z_7709 + 10 z_7710 + 94 z_7711 + 14 z_7712 + 94 z_7713
         + 4 z_7714 + 66 z_7715 + 61 z_7716 + 5 z_7717 + 66 z_7718 + 55 z_7719
         + 6 z_7720 + 27 z_7721 + 34 z_7722 + 15 z_7723 + 94 z_7724 + 86 z_7725
         + 43 z_7726 + 92 z_7727 + 83 z_7728 + 14 z_7729 + 51 z_7730 + 82 z_7731
         + 98 z_7732 + 68 z_7733 + 3 z_7734 + 74 z_7735 + 46 z_7736 + 90 z_7737
         + 6 z_7738 + 15 z_7739 + 99 z_7740 + 67 z_7741 + 9 z_7742 + 12 z_7743
         + 13 z_7744 + 64 z_7745 + 29 z_7746 + 73 z_7747 + 20 z_7748 + 95 z_7749
         + 79 z_7750 + 25 z_7751 + 21 z_7752 + 65 z_7753 + 39 z_7754 + 67 z_7755
         + 50 z_7756 + 81 z_7757 + 10 z_7758 + 85 z_7759 + 95 z_7760 + 60 z_7761
         + 18 z_7762 + 44 z_7763 + 79 z_7764 + 20 z_7765 + 17 z_7766 + 25 z_7767
         + 9 z_7768 + 74 z_7769 + 91 z_7770 + 59 z_7771 + 41 z_7772 + 51 z_7773
         + 22 z_7774 + 5 z_7775 + 14 z_7776 + 51 z_7777 + 29 z_7778 + 33 z_7779
         + 97 z_7780 + 8 z_7781 + 9 z_7782 + 69 z_7783 + 24 z_7784 + 47 z_7785
         + 35 z_7786 + 25 z_7787 + 80 z_7788 + 44 z_7789 + 9 z_7790 + 26 z_7791
         + 56 z_7792 + 27 z_7793 + 69 z_7794 + 34 z_7795 + 98 z_7796 + 38 z_7797
         + 10 z_7798 + 7 z_7799 + 11 z_7800 + z_7801 + 65 z_7802 + 3 z_7803
         + 51 z_7804 + 87 z_7805 + 7 z_7806 + 17 z_7807 + 89 z_7808 + 36 z_7809
         + z_7810 + 85 z_7811 + 95 z_7812 + 10 z_7813 + 53 z_7814 + 70 z_7815
         + 56 z_7816 + 40 z_7817 + 94 z_7818 + 35 z_7819 + 35 z_7820 + 55 z_7821
         + 12 z_7822 + 90 z_7823 + 81 z_7824 + 33 z_7825 + 76 z_7826 + 30 z_7827
         + 70 z_7828 + 85 z_7829 + 36 z_7830 + 32 z_7831 + 85 z_7832 + 53 z_7833
         + 35 z_7834 + 88 z_7835 + 91 z_7836 + 93 z_7837 + 4 z_7838 + 79 z_7839
         + 80 z_7840 + 56 z_7841 + 15 z_7842 + 26 z_7843 + 65 z_7844 + 67 z_7845
         + 95 z_7846 + 21 z_7847 + 58 z_7848 + 89 z_7849 + 7 z_7850 + 93 z_7851
         + 43 z_7852 + 19 z_7853 + 34 z_7854 + 75 z_7855 + 51 z_7856 + 9 z_7857
         + 4 z_7858 + 72 z_7859 + 94 z_7860 + 92 z_7861 + 3 z_7862 + 30 z_7863
         + 44 z_7864 + 89 z_7865 + 69 z_7866 + 86 z_7867 + 34 z_7868 + 24 z_7869
         + 64 z_7870 + 13 z_7871 + 80 z_7872 + 78 z_7873 + 91 z_7874 + 44 z_7875
         + 96 z_7876 + 37 z_7877 + 64 z_7878 + 6 z_7879 + 25 z_7880 + 23 z_7881
         + 98 z_7882 + 19 z_7883 + 41 z_7884 + 31 z_7885 + 45 z_7886 + 43 z_7887
         + 92 z_7888 + 49 z_7889 + 14 z_7890 + 85 z_7891 + 92 z_7892 + 68 z_7893
         + 66 z_7894 + 87 z_7895 + 57 z_7896 + 35 z_7897 + 72 z_7898 + 42 z_7899
         + 10 z_7900 + 35 z_7901 + 6 z_7902 + 89 z_7903 + 64 z_7904 + 96 z_7905
         + 33 z_7906 + 11 z_7907 + 33 z_7908 + 48 z_7909 + 16 z_7910 + 9 z_7911
         + 70 z_7912 + 13 z_7913 + 28 z_7914 + 62 z_7915 + 96 z_7916 + 72 z_7917
         + 56 z_7918 + 39 z_7919 + 72 z_7920 + 21 z_7921 + 75 z_7922 + 63 z_7923
         + 89 z_7924 + 40 z_7925 + z_7926 + 97 z_7927 + 26 z_7928 + 72 z_7929
         + 90 z_7930 + 36 z_7931 + 58 z_7932 + 95 z_7933 + 24 z_7934 + 21 z_7935
         + 91 z_7936 + 8 z_7937 + 32 z_7938 + 75 z_7939 + 8 z_7940 + 99 z_7941
         + 83 z_7942 + 29 z_7943 + 12 z_7944 + 62 z_7945 + 43 z_7946 + 59 z_7947
         + 86 z_7948 + 98 z_7949 + 49 z_7950 + 57 z_7951 + 71 z_7952 + 23 z_7953
         + 72 z_7954 + 11 z_7955 + 62 z_7956 + 72 z_7957 + 59 z_7958 + 40 z_7959
         + 96 z_7960 + 48 z_7961 + 75 z_7962 + 53 z_7963 + 42 z_7964 + 50 z_7965
         + 74 z_7966 + 84 z_7967 + 10 z_7968 + 57 z_7969 + 58 z_7970 + 17 z_7971
         + 55 z_7972 + 93 z_7973 + 45 z_7974 + 18 z_7975 + 6 z_7976 + 39 z_7977
         + 28 z_7978 + 91 z_7979 + 37 z_7980 + 76 z_7981 + 100 z_7982
         + 59 z_7983 + 98 z_7984 + 23 z_7985 + 69 z_7986 + 12 z_7987 + 46 z_7988
         + 27 z_7989 + 51 z_7990 + 41 z_7991 + 74 z_7992 + 77 z_7993 + 94 z_7994
         + 67 z_7995 + 26 z_7996 + 19 z_7997 + 51 z_7998 + 87 z_7999 + 27 z_8000
         + 60 z_8001 + 3 z_8002 + 81 z_8003 + 4 z_8004 + 100 z_8005 + 51 z_8006
         + 10 z_8007 + 38 z_8008 + 78 z_8009 + 52 z_8010 + 26 z_8011 + 6 z_8012
         + 51 z_8013 + 36 z_8014 + 55 z_8015 + 25 z_8016 + 4 z_8017 + 66 z_8018
         + 71 z_8019 + 30 z_8020 + 68 z_8021 + 11 z_8022 + 55 z_8023 + 44 z_8024
         + 56 z_8025 + 22 z_8026 + 22 z_8027 + 74 z_8028 + 24 z_8029 + 8 z_8030
         + 100 z_8031 + 83 z_8032 + 11 z_8033 + 33 z_8034 + 87 z_8035
         + 62 z_8036 + 35 z_8037 + 48 z_8038 + 51 z_8039 + 12 z_8040 + 99 z_8041
         + 29 z_8042 + 69 z_8043 + 50 z_8044 + 64 z_8045 + 24 z_8046 + 26 z_8047
         + 68 z_8048 + 89 z_8049 + 96 z_8050 + 49 z_8051 + 9 z_8052 + 59 z_8053
         + 56 z_8054 + 52 z_8055 + 14 z_8056 + 29 z_8057 + 73 z_8058 + 40 z_8059
         + 52 z_8060 + 81 z_8061 + 91 z_8062 + 34 z_8063 + 43 z_8064 + 75 z_8065
         + 72 z_8066 + 56 z_8067 + 9 z_8068 + 19 z_8069 + 6 z_8070 + 73 z_8071
         + 18 z_8072 + 34 z_8073 + 41 z_8074 + 19 z_8075 + 50 z_8076 + 64 z_8077
         + 44 z_8078 + 69 z_8079 + 5 z_8080 + 92 z_8081 + 17 z_8082 + 65 z_8083
         + 50 z_8084 + 24 z_8085 + 16 z_8086 + 15 z_8087 + 52 z_8088 + 41 z_8089
         + 6 z_8090 + 3 z_8091 + 21 z_8092 + 49 z_8093 + 89 z_8094 + 15 z_8095
         + 23 z_8096 + 60 z_8097 + 70 z_8098 + 84 z_8099 + 31 z_8100 + 27 z_8101
         + 56 z_8102 + 100 z_8103 + 13 z_8104 + 96 z_8105 + 18 z_8106
         + 62 z_8107 + 12 z_8108 + 13 z_8109 + 30 z_8110 + 68 z_8111 + 56 z_8112
         + 98 z_8113 + 32 z_8114 + 57 z_8115 + 22 z_8116 + 99 z_8117 + 24 z_8118
         + 73 z_8119 + 39 z_8120 + 29 z_8121 + 28 z_8122 + 11 z_8123 + 29 z_8124
         + 16 z_8125 + 25 z_8126 + 52 z_8127 + 27 z_8128 + 46 z_8129 + 35 z_8130
         + 57 z_8131 + 73 z_8132 + 42 z_8133 + 56 z_8134 + 85 z_8135 + 37 z_8136
         + 25 z_8137 + 98 z_8138 + 100 z_8139 + 90 z_8140 + 79 z_8141
         + 19 z_8142 + 97 z_8143 + 76 z_8144 + 2 z_8145 + 54 z_8146 + 49 z_8147
         + z_8148 + 77 z_8149 + 74 z_8150 + 91 z_8151 + 57 z_8152 + 53 z_8153
         + 2 z_8154 + 86 z_8155 + 68 z_8156 + 26 z_8157 + 89 z_8158 + 94 z_8159
         + 24 z_8160 + 75 z_8161 + 3 z_8162 + 96 z_8163 + 16 z_8164 + 10 z_8165
         + 32 z_8166 + 4 z_8167 + 35 z_8168 + 81 z_8169 + 56 z_8170 + 76 z_8171
         + 59 z_8172 + 26 z_8173 + 72 z_8174 + 86 z_8175 + 28 z_8176 + 77 z_8177
         + 87 z_8178 + 80 z_8179 + 53 z_8180 + 12 z_8181 + 70 z_8182 + 62 z_8183
         + 64 z_8184 + 71 z_8185 + 99 z_8186 + 31 z_8187 + 49 z_8188 + 39 z_8189
         + 76 z_8190 + 72 z_8191 + 65 z_8192 + 30 z_8193 + 19 z_8194 + 80 z_8195
         + 40 z_8196 + 2 z_8197 + 35 z_8198 + 26 z_8199 + 82 z_8200 + 42 z_8201
         + 53 z_8202 + 40 z_8203 + 68 z_8204 + 24 z_8205 + 77 z_8206 + 95 z_8207
         + z_8208 + 63 z_8209 + 74 z_8210 + 5 z_8211 + 74 z_8212 + 95 z_8213
         + 18 z_8214 + 37 z_8215 + 18 z_8216 + 68 z_8217 + 19 z_8218 + 66 z_8219
         + 6 z_8220 + 47 z_8221 + 89 z_8222 + 70 z_8223 + 76 z_8224 + 59 z_8225
         + z_8226 + 15 z_8227 + 60 z_8228 + 88 z_8229 + 92 z_8230 + 41 z_8231
         + 29 z_8232 + 44 z_8233 + 32 z_8234 + 96 z_8235 + 68 z_8236 + 60 z_8237
         + 42 z_8238 + 20 z_8239 + 23 z_8240 + 67 z_8241 + 76 z_8242 + 48 z_8243
         + 62 z_8244 + 46 z_8245 + 37 z_8246 + 79 z_8247 + 13 z_8248 + 7 z_8249
         + 96 z_8250 + 71 z_8251 + 53 z_8252 + 84 z_8253 + 40 z_8254 + 29 z_8255
         + 42 z_8256 + 93 z_8257 + 95 z_8258 + 53 z_8259 + 80 z_8260 + 87 z_8261
         + 45 z_8262 + 8 z_8263 + 30 z_8264 + 28 z_8265 + 4 z_8266 + 49 z_8267
         + 87 z_8268 + 97 z_8269 + 20 z_8270 + 61 z_8271 + 64 z_8272 + 48 z_8273
         + 61 z_8274 + 25 z_8275 + 93 z_8276 + 97 z_8277 + 3 z_8278 + 57 z_8279
         + 3 z_8280 + 98 z_8281 + 27 z_8282 + 8 z_8283 + 33 z_8284 + 19 z_8285
         + 36 z_8286 + 26 z_8287 + 11 z_8288 + 82 z_8289 + 78 z_8290 + 90 z_8291
         + 20 z_8292 + 22 z_8293 + 49 z_8294 + 2 z_8295 + 49 z_8296 + 4 z_8297
         + 50 z_8298 + 87 z_8299 + z_8300 + 22 z_8301 + 48 z_8302 + 64 z_8303
         + 69 z_8304 + 8 z_8305 + 40 z_8306 + 13 z_8307 + 56 z_8308 + 42 z_8309
         + 21 z_8310 + 58 z_8311 + 91 z_8312 + 100 z_8313 + 65 z_8314
         + 75 z_8315 + 70 z_8316 + 52 z_8317 + 100 z_8318 + 80 z_8319
         + 86 z_8320 + 29 z_8321 + 21 z_8322 + 5 z_8323 + 2 z_8324 + 21 z_8325
         + 6 z_8326 + 50 z_8327 + 25 z_8328 + 8 z_8329 + 88 z_8330 + 77 z_8331
         + 29 z_8332 + 87 z_8333 + 40 z_8334 + 49 z_8335 + 94 z_8336 + 79 z_8337
         + 13 z_8338 + 49 z_8339 + 72 z_8340 + 85 z_8341 + 59 z_8342 + 14 z_8343
         + 36 z_8344 + 75 z_8345 + 88 z_8346 + 5 z_8347 + 79 z_8348 + 39 z_8349
         + 36 z_8350 + 16 z_8351 + 67 z_8352 + 8 z_8353 + 20 z_8354 + 68 z_8355
         + 29 z_8356 + 78 z_8357 + 69 z_8358 + 5 z_8359 + 85 z_8360 + 56 z_8361
         + 81 z_8362 + 65 z_8363 + 43 z_8364 + 20 z_8365 + 65 z_8366 + 88 z_8367
         + 50 z_8368 + 29 z_8369 + 89 z_8370 + 21 z_8371 + 65 z_8372 + 99 z_8373
         + 86 z_8374 + z_8375 + 25 z_8376 + 73 z_8377 + 5 z_8378 + 3 z_8379
         + 11 z_8380 + 41 z_8381 + 18 z_8382 + 29 z_8383 + 100 z_8384
         + 90 z_8385 + 96 z_8386 + 28 z_8387 + 67 z_8388 + 64 z_8389 + 32 z_8390
         + 3 z_8391 + 71 z_8392 + 12 z_8393 + 19 z_8394 + 65 z_8395 + 83 z_8396
         + 35 z_8397 + 53 z_8398 + 84 z_8399 + 63 z_8400 + 41 z_8401 + 56 z_8402
         + 79 z_8403 + 91 z_8404 + 41 z_8405 + 79 z_8406 + 15 z_8407 + 65 z_8408
         + 36 z_8409 + 70 z_8410 + 75 z_8411 + 28 z_8412 + 39 z_8413 + 55 z_8414
         + 27 z_8415 + 28 z_8416 + 50 z_8417 + 55 z_8418 + 46 z_8419 + 65 z_8420
         + 38 z_8421 + 100 z_8422 + 36 z_8423 + 2 z_8424 + 18 z_8425 + 52 z_8426
         + 84 z_8427 + 52 z_8428 + 4 z_8429 + 20 z_8430 + 66 z_8431 + 96 z_8432
         + 75 z_8433 + 45 z_8434 + 86 z_8435 + 16 z_8436 + 75 z_8437 + 53 z_8438
         + 80 z_8439 + 10 z_8440 + 22 z_8441 + 7 z_8442 + 37 z_8443 + 60 z_8444
         + 61 z_8445 + 16 z_8446 + 40 z_8447 + 63 z_8448 + 70 z_8449 + 85 z_8450
         + 27 z_8451 + 59 z_8452 + 37 z_8453 + 14 z_8454 + 60 z_8455 + 54 z_8456
         + 66 z_8457 + 96 z_8458 + 58 z_8459 + 21 z_8460 + 15 z_8461 + 75 z_8462
         + 69 z_8463 + 89 z_8464 + 71 z_8465 + 6 z_8466 + 56 z_8467 + 46 z_8468
         + 58 z_8469 + 88 z_8470 + 7 z_8471 + 79 z_8472 + 46 z_8473 + 96 z_8474
         + 39 z_8475 + 58 z_8476 + 11 z_8477 + 30 z_8478 + 20 z_8479 + 32 z_8480
         + 66 z_8481 + 99 z_8482 + 90 z_8483 + 2 z_8484 + 64 z_8485 + 50 z_8486
         + 8 z_8487 + 81 z_8488 + 45 z_8489 + 17 z_8490 + 2 z_8491 + 11 z_8492
         + 91 z_8493 + 22 z_8494 + 51 z_8495 + 14 z_8496 + 27 z_8497 + 7 z_8498
         + 11 z_8499 + 85 z_8500 + 46 z_8501 + 17 z_8502 + 63 z_8503 + 91 z_8504
         + 64 z_8505 + 53 z_8506 + 48 z_8507 + 74 z_8508 + 82 z_8509 + 20 z_8510
         + 57 z_8511 + 100 z_8512 + 70 z_8513 + 47 z_8514 + z_8515 + 33 z_8516
         + 48 z_8517 + 8 z_8518 + 14 z_8519 + 44 z_8520 + 24 z_8521 + 67 z_8522
         + 54 z_8523 + 67 z_8524 + 40 z_8525 + 4 z_8526 + 80 z_8527 + 66 z_8528
         + 62 z_8529 + 90 z_8530 + 50 z_8531 + 7 z_8532 + 58 z_8533 + 65 z_8534
         + 49 z_8535 + 22 z_8536 + 17 z_8537 + 49 z_8538 + 47 z_8539 + 51 z_8540
         + 68 z_8541 + 56 z_8542 + 2 z_8543 + 89 z_8544 + 54 z_8545 + 2 z_8546
         + 21 z_8547 + z_8548 + 62 z_8549 + 86 z_8550 + 44 z_8551 + 37 z_8552
         + 4 z_8553 + 49 z_8554 + 55 z_8555 + 43 z_8556 + 4 z_8557 + 34 z_8558
         + 9 z_8559 + 18 z_8560 + 75 z_8561 + 10 z_8562 + 76 z_8563 + 85 z_8564
         + 74 z_8565 + 25 z_8566 + 58 z_8567 + 43 z_8568 + 25 z_8569 + 56 z_8570
         + 45 z_8571 + 44 z_8572 + 11 z_8573 + 46 z_8574 + 32 z_8575 + 64 z_8576
         + 99 z_8577 + 52 z_8578 + 64 z_8579 + 60 z_8580 + 90 z_8581 + 59 z_8582
         + 97 z_8583 + 45 z_8584 + 59 z_8585 + 51 z_8586 + 88 z_8587 + 15 z_8588
         + 37 z_8589 + 48 z_8590 + 32 z_8591 + 63 z_8592 + 57 z_8593 + 7 z_8594
         + 47 z_8595 + 83 z_8596 + 83 z_8597 + 4 z_8598 + 25 z_8599 + 7 z_8600
         + 12 z_8601 + 69 z_8602 + 50 z_8603 + 22 z_8604 + 66 z_8605 + 81 z_8606
         + 86 z_8607 + 64 z_8608 + 85 z_8609 + z_8610 + 24 z_8611 + 26 z_8612
         + 12 z_8613 + 72 z_8614 + 70 z_8615 + 22 z_8616 + 74 z_8617 + 9 z_8618
         + 36 z_8619 + 62 z_8620 + 56 z_8621 + 67 z_8622 + 77 z_8623 + 65 z_8624
         + 26 z_8625 + 23 z_8626 + 47 z_8627 + 8 z_8628 + 79 z_8629 + 23 z_8630
         + 15 z_8631 + 90 z_8632 + 43 z_8633 + 16 z_8634 + 63 z_8635 + 8 z_8636
         + 97 z_8637 + 48 z_8638 + 23 z_8639 + 33 z_8640 + z_8641 + 98 z_8642
         + 58 z_8643 + 64 z_8644 + 21 z_8645 + 27 z_8646 + 85 z_8647 + 47 z_8648
         + 36 z_8649 + 73 z_8650 + 8 z_8651 + 43 z_8652 + 91 z_8653 + 84 z_8654
         + 7 z_8655 + 16 z_8656 + 59 z_8657 + 5 z_8658 + 76 z_8659 + 89 z_8660
         + 79 z_8661 + 42 z_8662 + 30 z_8663 + 21 z_8664 + 57 z_8665 + 92 z_8666
         + 80 z_8667 + 5 z_8668 + 92 z_8669 + 3 z_8670 + 37 z_8671 + 92 z_8672
         + 100 z_8673 + 94 z_8674 + 7 z_8675 + 21 z_8676 + 73 z_8677 + 43 z_8678
         + 67 z_8679 + 8 z_8680 + 15 z_8681 + 26 z_8682 + 50 z_8683 + 58 z_8684
         + 62 z_8685 + 9 z_8686 + 73 z_8687 + 72 z_8688 + 65 z_8689 + 100 z_8690
         + 60 z_8691 + 44 z_8692 + 93 z_8693 + 89 z_8694 + 16 z_8695 + 50 z_8696
         + 80 z_8697 + 96 z_8698 + 6 z_8699 + 23 z_8700 + 50 z_8701 + 43 z_8702
         + 14 z_8703 + z_8704 + 88 z_8705 + 72 z_8706 + 21 z_8707 + 60 z_8708
         + 15 z_8709 + 39 z_8710 + 67 z_8711 + 81 z_8712 + 17 z_8713 + 69 z_8714
         + 38 z_8715 + 78 z_8716 + 29 z_8717 + 63 z_8718 + 49 z_8719 + 45 z_8720
         + 62 z_8721 + 60 z_8722 + 88 z_8723 + 55 z_8724 + 48 z_8725 + 56 z_8726
         + 56 z_8727 + 79 z_8728 + 3 z_8729 + 61 z_8730 + 2 z_8731 + 52 z_8732
         + 55 z_8733 + 67 z_8734 + 52 z_8735 + 43 z_8736 + 91 z_8737 + 25 z_8738
         + 2 z_8739 + 5 z_8740 + 15 z_8741 + 21 z_8742 + 85 z_8743 + 31 z_8744
         + 41 z_8745 + 75 z_8746 + 60 z_8747 + 69 z_8748 + 37 z_8749 + 8 z_8750
         + 65 z_8751 + 50 z_8752 + 19 z_8753 + 5 z_8754 + 56 z_8755 + 18 z_8756
         + 60 z_8757 + 63 z_8758 + 49 z_8759 + 62 z_8760 + 24 z_8761 + 50 z_8762
         + 13 z_8763 + 30 z_8764 + 68 z_8765 + 16 z_8766 + 72 z_8767 + 58 z_8768
         + 40 z_8769 + 26 z_8770 + 14 z_8771 + 55 z_8772 + 98 z_8773 + 51 z_8774
         + 37 z_8775 + 38 z_8776 + 25 z_8777 + 97 z_8778 + 58 z_8779 + 13 z_8780
         + 56 z_8781 + 22 z_8782 + 62 z_8783 + 75 z_8784 + 26 z_8785 + 70 z_8786
         + 92 z_8787 + 85 z_8788 + 32 z_8789 + 40 z_8790 + 98 z_8791 + 7 z_8792
         + 41 z_8793 + 62 z_8794 + 37 z_8795 + 61 z_8796 + 78 z_8797 + 60 z_8798
         + 18 z_8799 + 69 z_8800 + 85 z_8801 + 32 z_8802 + 23 z_8803 + 82 z_8804
         + 34 z_8805 + 12 z_8806 + 19 z_8807 + 58 z_8808 + 8 z_8809 + 28 z_8810
         + 22 z_8811 + 63 z_8812 + 50 z_8813 + 83 z_8814 + 89 z_8815 + 27 z_8816
         + 4 z_8817 + 33 z_8818 + 12 z_8819 + 36 z_8820 + 72 z_8821 + 61 z_8822
         + 42 z_8823 + 65 z_8824 + 23 z_8825 + 30 z_8826 + 25 z_8827
         + 100 z_8828 + 90 z_8829 + 94 z_8830 + 68 z_8831 + 26 z_8832
         + 77 z_8833 + 43 z_8834 + 8 z_8835 + 10 z_8836 + 54 z_8837 + 78 z_8838
         + 19 z_8839 + 13 z_8840 + 58 z_8841 + 40 z_8842 + 75 z_8843 + 7 z_8844
         + 75 z_8845 + 16 z_8846 + 33 z_8847 + 78 z_8848 + 48 z_8849 + 96 z_8850
         + 65 z_8851 + 71 z_8852 + 57 z_8853 + 59 z_8854 + 35 z_8855 + 31 z_8856
         + 88 z_8857 + 11 z_8858 + 30 z_8859 + 29 z_8860 + 5 z_8861 + 49 z_8862
         + 55 z_8863 + 81 z_8864 + 43 z_8865 + 14 z_8866 + 43 z_8867 + 48 z_8868
         + 43 z_8869 + 61 z_8870 + 60 z_8871 + 100 z_8872 + z_8873 + 87 z_8874
         + 6 z_8875 + 75 z_8876 + 2 z_8877 + 91 z_8878 + 52 z_8879 + 49 z_8880
         + 38 z_8881 + 69 z_8882 + 71 z_8883 + 46 z_8884 + 27 z_8885 + 6 z_8886
         + 76 z_8887 + 14 z_8888 + 68 z_8889 + 57 z_8890 + 43 z_8891 + 72 z_8892
         + 6 z_8893 + 49 z_8894 + 5 z_8895 + 100 z_8896 + 62 z_8897 + 47 z_8898
         + 48 z_8899 + 4 z_8900 + 59 z_8901 + 7 z_8902 + 4 z_8903 + 59 z_8904
         + 45 z_8905 + 61 z_8906 + 33 z_8907 + 46 z_8908 + 3 z_8909 + 37 z_8910
         + 46 z_8911 + 41 z_8912 + 5 z_8913 + 17 z_8914 + 38 z_8915 + 83 z_8916
         + 74 z_8917 + 14 z_8918 + 96 z_8919 + 93 z_8920 + 70 z_8921 + 90 z_8922
         + 17 z_8923 + 27 z_8924 + 90 z_8925 + 21 z_8926 + 27 z_8927 + 51 z_8928
         + 19 z_8929 + 26 z_8930 + 7 z_8931 + 77 z_8932 + 84 z_8933 + 10 z_8934
         + 88 z_8935 + 29 z_8936 + 22 z_8937 + 72 z_8938 + 26 z_8939 + 77 z_8940
         + 8 z_8941 + 24 z_8942 + 69 z_8943 + 64 z_8944 + 92 z_8945 + 6 z_8946
         + 98 z_8947 + 17 z_8948 + 19 z_8949 + 94 z_8950 + 9 z_8951 + 41 z_8952
         + 35 z_8953 + 25 z_8954 + 19 z_8955 + 25 z_8956 + 97 z_8957 + 97 z_8958
         + 27 z_8959 + 15 z_8960 + 22 z_8961 + 33 z_8962 + 44 z_8963 + 6 z_8964
         + 94 z_8965 + 31 z_8966 + 86 z_8967 + 68 z_8968 + 2 z_8969 + 11 z_8970
         + 44 z_8971 + 62 z_8972 + 86 z_8973 + 12 z_8974 + 77 z_8975 + 77 z_8976
         + 69 z_8977 + 75 z_8978 + 93 z_8979 + 88 z_8980 + 20 z_8981 + 2 z_8982
         + 80 z_8983 + 6 z_8984 + 78 z_8985 + 50 z_8986 + 82 z_8987 + 75 z_8988
         + 47 z_8989 + 9 z_8990 + 41 z_8991 + 68 z_8992 + 93 z_8993 + 84 z_8994
         + 25 z_8995 + 39 z_8996 + 66 z_8997 + 62 z_8998 + 6 z_8999 + 68 z_9000
         + 25 z_9001 + z_9002 + 81 z_9003 + 10 z_9004 + 64 z_9005 + 57 z_9006
         + 87 z_9007 + 32 z_9008 + 83 z_9009 + 31 z_9010 + 71 z_9011 + 2 z_9012
         + 84 z_9013 + 2 z_9014 + 60 z_9015 + 62 z_9016 + 52 z_9017 + 41 z_9018
         + 36 z_9019 + 98 z_9020 + z_9021 + 76 z_9022 + 17 z_9023 + 46 z_9024
         + 12 z_9025 + 42 z_9026 + 84 z_9027 + 77 z_9028 + 55 z_9029 + 41 z_9030
         + 44 z_9031 + 79 z_9032 + 93 z_9033 + 76 z_9034 + 89 z_9035 + 56 z_9036
         + 85 z_9037 + 27 z_9038 + 39 z_9039 + 67 z_9040 + 57 z_9041 + 10 z_9042
         + 21 z_9043 + 93 z_9044 + 63 z_9045 + 80 z_9046 + 54 z_9047 + 14 z_9048
         + 72 z_9049 + 89 z_9050 + 11 z_9051 + 25 z_9052 + 16 z_9053 + 80 z_9054
         + 70 z_9055 + 27 z_9056 + 21 z_9057 + 5 z_9058 + 4 z_9059 + 27 z_9060
         + 97 z_9061 + 99 z_9062 + 6 z_9063 + 89 z_9064 + 27 z_9065 + 46 z_9066
         + 96 z_9067 + 11 z_9068 + 72 z_9069 + 86 z_9070 + 29 z_9071 + 80 z_9072
         + 47 z_9073 + 49 z_9074 + 72 z_9075 + 10 z_9076 + 80 z_9077 + 77 z_9078
         + 23 z_9079 + 4 z_9080 + 65 z_9081 + 86 z_9082 + 28 z_9083 + 33 z_9084
         + 65 z_9085 + 97 z_9086 + 11 z_9087 + 37 z_9088 + 53 z_9089 + 14 z_9090
         + 63 z_9091 + 49 z_9092 + 65 z_9093 + 20 z_9094 + 89 z_9095 + 91 z_9096
         + 65 z_9097 + 84 z_9098 + 53 z_9099 + 36 z_9100 + 21 z_9101 + 81 z_9102
         + 68 z_9103 + 68 z_9104 + 82 z_9105 + 91 z_9106 + 77 z_9107 + 61 z_9108
         + 68 z_9109 + 51 z_9110 + 16 z_9111 + 84 z_9112 + 36 z_9113 + 43 z_9114
         + 16 z_9115 + 52 z_9116 + 91 z_9117 + 27 z_9118 + 88 z_9119 + 43 z_9120
         + 92 z_9121 + 3 z_9122 + 91 z_9123 + 8 z_9124 + 22 z_9125 + 79 z_9126
         + 98 z_9127 + 87 z_9128 + 14 z_9129 + 2 z_9130 + 74 z_9131 + 35 z_9132
         + 83 z_9133 + 93 z_9134 + 54 z_9135 + 64 z_9136 + 84 z_9137 + 82 z_9138
         + 76 z_9139 + 51 z_9140 + 32 z_9141 + 92 z_9142 + 34 z_9143 + 20 z_9144
         + 34 z_9145 + 50 z_9146 + 71 z_9147 + 25 z_9148 + 28 z_9149 + 11 z_9150
         + 19 z_9151 + 19 z_9152 + 13 z_9153 + 10 z_9154 + 27 z_9155 + 86 z_9156
         + 40 z_9157 + 76 z_9158 + 24 z_9159 + 6 z_9160 + 78 z_9161 + 98 z_9162
         + 92 z_9163 + 12 z_9164 + 90 z_9165 + 45 z_9166 + 75 z_9167 + 73 z_9168
         + 26 z_9169 + 2 z_9170 + 23 z_9171 + 9 z_9172 + 93 z_9173 + 9 z_9174
         + 28 z_9175 + 79 z_9176 + 58 z_9177 + 51 z_9178 + 55 z_9179 + 37 z_9180
         + 61 z_9181 + 73 z_9182 + 7 z_9183 + 25 z_9184 + 34 z_9185 + 33 z_9186
         + 10 z_9187 + 74 z_9188 + 61 z_9189 + 86 z_9190 + 31 z_9191 + 90 z_9192
         + 83 z_9193 + 22 z_9194 + z_9195 + 24 z_9196 + 18 z_9197 + 75 z_9198
         + 49 z_9199 + 95 z_9200 + 76 z_9201 + 23 z_9202 + 3 z_9203 + 21 z_9204
         + 31 z_9205 + 31 z_9206 + 99 z_9207 + 40 z_9208 + 33 z_9209 + 5 z_9210
         + 76 z_9211 + 93 z_9212 + 77 z_9213 + 83 z_9214 + 69 z_9215 + 11 z_9216
         + 67 z_9217 + 30 z_9218 + 36 z_9219 + 79 z_9220 + 15 z_9221 + 66 z_9222
         + 68 z_9223 + 49 z_9224 + 87 z_9225 + 68 z_9226 + 25 z_9227 + 4 z_9228
         + 94 z_9229 + 73 z_9230 + 50 z_9231 + 22 z_9232 + 95 z_9233 + 52 z_9234
         + 42 z_9235 + 78 z_9236 + 34 z_9237 + 92 z_9238 + 69 z_9239 + 66 z_9240
         + 96 z_9241 + 45 z_9242 + 10 z_9243 + 24 z_9244 + 79 z_9245 + 30 z_9246
         + 34 z_9247 + 97 z_9248 + 60 z_9249 + 21 z_9250 + 76 z_9251 + 26 z_9252
         + 86 z_9253 + 43 z_9254 + 75 z_9255 + 24 z_9256 + 63 z_9257 + 99 z_9258
         + 79 z_9259 + 56 z_9260 + 23 z_9261 + 28 z_9262 + 77 z_9263 + 69 z_9264
         + 80 z_9265 + 70 z_9266 + 46 z_9267 + 13 z_9268 + 13 z_9269 + 67 z_9270
         + 31 z_9271 + 60 z_9272 + 11 z_9273 + 40 z_9274 + 84 z_9275 + 41 z_9276
         + 70 z_9277 + 69 z_9278 + 89 z_9279 + 81 z_9280 + 90 z_9281 + 64 z_9282
         + 6 z_9283 + 27 z_9284 + 59 z_9285 + 32 z_9286 + 51 z_9287 + 21 z_9288
         + 82 z_9289 + 29 z_9290 + 28 z_9291 + 4 z_9292 + 57 z_9293 + 5 z_9294
         + 25 z_9295 + 88 z_9296 + 26 z_9297 + 22 z_9298 + 52 z_9299 + 39 z_9300
         + 88 z_9301 + 82 z_9302 + 50 z_9303 + 50 z_9304 + 74 z_9305 + 33 z_9306
         + 90 z_9307 + 95 z_9308 + 54 z_9309 + 79 z_9310 + 75 z_9311 + 95 z_9312
         + 94 z_9313 + 32 z_9314 + 21 z_9315 + 52 z_9316 + 16 z_9317 + 71 z_9318
         + 24 z_9319 + 97 z_9320 + 52 z_9321 + 52 z_9322 + 53 z_9323 + 60 z_9324
         + 8 z_9325 + 77 z_9326 + 47 z_9327 + 33 z_9328 + 50 z_9329 + 50 z_9330
         + 23 z_9331 + 38 z_9332 + 32 z_9333 + 25 z_9334 + 87 z_9335 + 57 z_9336
         + 9 z_9337 + 29 z_9338 + 51 z_9339 + 62 z_9340 + 59 z_9341 + 77 z_9342
         + 56 z_9343 + 52 z_9344 + 8 z_9345 + 29 z_9346 + 56 z_9347 + 23 z_9348
         + 51 z_9349 + 79 z_9350 + 72 z_9351 + 2 z_9352 + 30 z_9353 + 24 z_9354
         + 13 z_9355 + 89 z_9356 + 52 z_9357 + 11 z_9358 + 74 z_9359 + 53 z_9360
         + 61 z_9361 + 48 z_9362 + 90 z_9363 + 44 z_9364 + 72 z_9365 + 29 z_9366
         + 100 z_9367 + 81 z_9368 + 57 z_9369 + 50 z_9370 + 42 z_9371
         + 15 z_9372 + 26 z_9373 + 50 z_9374 + 18 z_9375 + 85 z_9376 + 78 z_9377
         + 73 z_9378 + 8 z_9379 + 80 z_9380 + 4 z_9381 + 31 z_9382 + 82 z_9383
         + 85 z_9384 + 6 z_9385 + 46 z_9386 + 74 z_9387 + 57 z_9388 + 57 z_9389
         + 47 z_9390 + 9 z_9391 + 17 z_9392 + 94 z_9393 + 51 z_9394 + 60 z_9395
         + 66 z_9396 + 79 z_9397 + 11 z_9398 + 46 z_9399 + 87 z_9400 + 60 z_9401
         + 39 z_9402 + 53 z_9403 + 37 z_9404 + 40 z_9405 + 70 z_9406 + 21 z_9407
         + 69 z_9408 + 95 z_9409 + 80 z_9410 + 49 z_9411 + 98 z_9412 + 62 z_9413
         + 82 z_9414 + 82 z_9415 + 67 z_9416 + 27 z_9417 + 7 z_9418 + 75 z_9419
         + 83 z_9420 + 53 z_9421 + 36 z_9422 + 51 z_9423 + 99 z_9424 + 86 z_9425
         + 62 z_9426 + 64 z_9427 + 16 z_9428 + 72 z_9429 + 61 z_9430 + 2 z_9431
         + 83 z_9432 + 51 z_9433 + 54 z_9434 + 19 z_9435 + 43 z_9436 + 23 z_9437
         + 92 z_9438 + 11 z_9439 + 69 z_9440 + 23 z_9441 + 59 z_9442 + 66 z_9443
         + 85 z_9444 + 40 z_9445 + 100 z_9446 + 51 z_9447 + 19 z_9448 + 6 z_9449
         + 26 z_9450 + z_9451 + 11 z_9452 + 61 z_9453 + 4 z_9454 + 9 z_9455
         + 98 z_9456 + 65 z_9457 + 24 z_9458 + 13 z_9459 + 37 z_9460 + 36 z_9461
         + 14 z_9462 + 19 z_9463 + 38 z_9464 + 67 z_9465 + 90 z_9466 + 80 z_9467
         + 41 z_9468 + 33 z_9469 + 91 z_9470 + 62 z_9471 + 7 z_9472 + z_9473
         + 27 z_9474 + 91 z_9475 + 41 z_9476 + 78 z_9477 + 94 z_9478 + 11 z_9479
         + 84 z_9480 + 71 z_9481 + 11 z_9482 + 46 z_9483 + 31 z_9484 + 66 z_9485
         + 54 z_9486 + 80 z_9487 + 31 z_9488 + 29 z_9489 + 92 z_9490 + 67 z_9491
         + 64 z_9492 + 57 z_9493 + 37 z_9494 + z_9495 + 23 z_9496 + 78 z_9497
         + 81 z_9498 + 15 z_9499 + 62 z_9500 + 23 z_9501 + 76 z_9502 + 69 z_9503
         + 23 z_9504 + 55 z_9505 + 11 z_9506 + 15 z_9507 + 84 z_9508 + 4 z_9509
         + 25 z_9510 + 67 z_9511 + 26 z_9512 + 88 z_9513 + 64 z_9514 + 8 z_9515
         + 53 z_9516 + 17 z_9517 + 87 z_9518 + 83 z_9519 + 45 z_9520 + 78 z_9521
         + z_9522 + 60 z_9523 + 34 z_9524 + 90 z_9525 + 61 z_9526 + 8 z_9527
         + 19 z_9528 + 93 z_9529 + 75 z_9530 + 81 z_9531 + 15 z_9532 + 2 z_9533
         + 49 z_9534 + 37 z_9535 + 8 z_9536 + 11 z_9537 + 4 z_9538 + 92 z_9539
         + 15 z_9540 + 28 z_9541 + 10 z_9542 + 40 z_9543 + 15 z_9544 + 74 z_9545
         + 48 z_9546 + 20 z_9547 + 42 z_9548 + 86 z_9549 + 2 z_9550 + 87 z_9551
         + 64 z_9552 + 55 z_9553 + 98 z_9554 + 49 z_9555 + 96 z_9556 + 10 z_9557
         + 9 z_9558 + 14 z_9559 + 2 z_9560 + 83 z_9561 + 94 z_9562 + 68 z_9563
         + 84 z_9564 + 94 z_9565 + 5 z_9566 + 44 z_9567 + 5 z_9568 + 8 z_9569
         + 35 z_9570 + 71 z_9571 + 87 z_9572 + 44 z_9573 + 62 z_9574 + 54 z_9575
         + 17 z_9576 + 9 z_9577 + 73 z_9578 + 11 z_9579 + 95 z_9580 + 26 z_9581
         + 49 z_9582 + 10 z_9583 + 80 z_9584 + 46 z_9585 + 58 z_9586 + 75 z_9587
         + 56 z_9588 + 66 z_9589 + 41 z_9590 + 9 z_9591 + 100 z_9592 + 34 z_9593
         + 77 z_9594 + 36 z_9595 + 28 z_9596 + 33 z_9597 + 79 z_9598 + 84 z_9599
         + 92 z_9600 + 13 z_9601 + 54 z_9602 + 78 z_9603 + 8 z_9604 + 15 z_9605
         + 31 z_9606 + 77 z_9607 + 76 z_9608 + 55 z_9609 + 87 z_9610 + 22 z_9611
         + 81 z_9612 + 35 z_9613 + 31 z_9614 + 12 z_9615 + 80 z_9616 + 40 z_9617
         + 39 z_9618 + 87 z_9619 + 58 z_9620 + 79 z_9621 + 96 z_9622 + 9 z_9623
         + 12 z_9624 + 72 z_9625 + 44 z_9626 + 91 z_9627 + 4 z_9628 + 74 z_9629
         + 74 z_9630 + 95 z_9631 + 86 z_9632 + 79 z_9633 + 24 z_9634 + 46 z_9635
         + 46 z_9636 + 7 z_9637 + 22 z_9638 + 21 z_9639 + 61 z_9640 + 60 z_9641
         + 42 z_9642 + 41 z_9643 + 94 z_9644 + 24 z_9645 + 53 z_9646 + 25 z_9647
         + 15 z_9648 + 91 z_9649 + 12 z_9650 + 24 z_9651 + 69 z_9652 + 59 z_9653
         + 85 z_9654 + 32 z_9655 + 82 z_9656 + 28 z_9657 + 23 z_9658 + 85 z_9659
         + 2 z_9660 + 48 z_9661 + 31 z_9662 + 39 z_9663 + 79 z_9664 + 6 z_9665
         + 36 z_9666 + 24 z_9667 + 12 z_9668 + 57 z_9669 + 44 z_9670 + 73 z_9671
         + 16 z_9672 + 37 z_9673 + 65 z_9674 + 61 z_9675 + 12 z_9676 + 17 z_9677
         + 86 z_9678 + 78 z_9679 + 59 z_9680 + 49 z_9681 + 54 z_9682 + 27 z_9683
         + 59 z_9684 + 38 z_9685 + 11 z_9686 + 40 z_9687 + 17 z_9688 + 85 z_9689
         + 76 z_9690 + 70 z_9691 + 84 z_9692 + 58 z_9693 + 61 z_9694 + 62 z_9695
         + 63 z_9696 + 96 z_9697 + 37 z_9698 + 75 z_9699 + 5 z_9700 + 32 z_9701
         + 99 z_9702 + 20 z_9703 + 68 z_9704 + 63 z_9705 + 33 z_9706 + 31 z_9707
         + 32 z_9708 + 70 z_9709 + 61 z_9710 + 90 z_9711 + 70 z_9712 + 14 z_9713
         + 69 z_9714 + 28 z_9715 + 3 z_9716 + 79 z_9717 + 67 z_9718 + 19 z_9719
         + 15 z_9720 + 42 z_9721 + 89 z_9722 + 98 z_9723 + 99 z_9724 + 49 z_9725
         + 12 z_9726 + 13 z_9727 + 44 z_9728 + 48 z_9729 + 39 z_9730 + 48 z_9731
         + 80 z_9732 + 37 z_9733 + 20 z_9734 + 99 z_9735 + 52 z_9736 + 4 z_9737
         + 82 z_9738 + 83 z_9739 + 73 z_9740 + 42 z_9741 + 24 z_9742 + 94 z_9743
         + 7 z_9744 + 92 z_9745 + 21 z_9746 + 9 z_9747 + 22 z_9748 + 39 z_9749
         + 27 z_9750 + 88 z_9751 + 32 z_9752 + 67 z_9753 + 86 z_9754 + 82 z_9755
         + 15 z_9756 + 49 z_9757 + 94 z_9758 + 11 z_9759 + 96 z_9760 + 33 z_9761
         + 10 z_9762 + 27 z_9763 + 21 z_9764 + 81 z_9765 + 26 z_9766 + 24 z_9767
         + 36 z_9768 + 7 z_9769 + 6 z_9770 + 8 z_9771 + 100 z_9772 + 30 z_9773
         + z_9774 + 6 z_9775 + 73 z_9776 + 73 z_9777 + 66 z_9778 + 47 z_9779
         + 11 z_9780 + 92 z_9781 + 34 z_9782 + 94 z_9783 + 59 z_9784 + 71 z_9785
         + 75 z_9786 + 25 z_9787 + 19 z_9788 + 21 z_9789 + 87 z_9790 + 15 z_9791
         + 5 z_9792 + 49 z_9793 + 93 z_9794 + 25 z_9795 + 29 z_9796 + 18 z_9797
         + 49 z_9798 + 65 z_9799 + 76 z_9800 + 6 z_9801 + 24 z_9802 + 75 z_9803
         + 87 z_9804 + 77 z_9805 + 32 z_9806 + 12 z_9807 + 49 z_9808 + 97 z_9809
         + 58 z_9810 + 12 z_9811 + 41 z_9812 + 43 z_9813 + 57 z_9814 + 51 z_9815
         + 14 z_9816 + 32 z_9817 + 27 z_9818 + 84 z_9819 + 52 z_9820 + 14 z_9821
         + 50 z_9822 + 56 z_9823 + 62 z_9824 + 43 z_9825 + 32 z_9826 + 42 z_9827
         + 60 z_9828 + 32 z_9829 + 6 z_9830 + 88 z_9831 + 38 z_9832 + 82 z_9833
         + 14 z_9834 + 24 z_9835 + 58 z_9836 + 46 z_9837 + 35 z_9838 + 58 z_9839
         + 94 z_9840 + 44 z_9841 + 21 z_9842 + 86 z_9843 + 39 z_9844 + 78 z_9845
         + 36 z_9846 + 52 z_9847 + 61 z_9848 + 63 z_9849 + 87 z_9850 + 12 z_9851
         + 28 z_9852 + 37 z_9853 + 19 z_9854 + 41 z_9855 + 79 z_9856 + 50 z_9857
         + 82 z_9858 + 90 z_9859 + 34 z_9860 + 40 z_9861 + 77 z_9862 + 71 z_9863
         + 21 z_9864 + 43 z_9865 + 46 z_9866 + 30 z_9867 + 88 z_9868 + 33 z_9869
         + 39 z_9870 + 33 z_9871 + 28 z_9872 + 12 z_9873 + 19 z_9874 + 66 z_9875
         + 89 z_9876 + 6 z_9877 + 69 z_9878 + z_9879 + 68 z_9880 + 56 z_9881
         + 12 z_9882 + 47 z_9883 + 92 z_9884 + 82 z_9885 + 87 z_9886 + 22 z_9887
         + 83 z_9888 + 69 z_9889 + 11 z_9890 + 16 z_9891 + 60 z_9892 + 40 z_9893
         + 38 z_9894 + 80 z_9895 + 82 z_9896 + 84 z_9897 + 61 z_9898 + 21 z_9899
         + 68 z_9900 + 99 z_9901 + 5 z_9902 + 95 z_9903 + 62 z_9904 + 23 z_9905
         + 61 z_9906 + 50 z_9907 + 29 z_9908 + 29 z_9909 + 2 z_9910 + 48 z_9911
         + 84 z_9912 + 13 z_9913 + 47 z_9914 + 27 z_9915 + 46 z_9916 + 33 z_9917
         + 48 z_9918 + 29 z_9919 + 53 z_9920 + 11 z_9921 + 96 z_9922 + 12 z_9923
         + 2 z_9924 + 34 z_9925 + 43 z_9926 + 35 z_9927 + 69 z_9928 + 3 z_9929
         + 7 z_9930 + 36 z_9931 + 54 z_9932 + 11 z_9933 + 82 z_9934 + 15 z_9935
         + 86 z_9936 + 42 z_9937 + 17 z_9938 + 66 z_9939 + 23 z_9940 + 18 z_9941
         + 65 z_9942 + 58 z_9943 + 83 z_9944 + 11 z_9945 + 37 z_9946 + 80 z_9947
         + 96 z_9948 + 36 z_9949 + 8 z_9950 + 48 z_9951 + 98 z_9952 + 56 z_9953
         + 12 z_9954 + 99 z_9955 + 41 z_9956 + 54 z_9957 + 85 z_9958 + 9 z_9959
         + 9 z_9960 + 91 z_9961 + 96 z_9962 + 14 z_9963 + 54 z_9964 + 77 z_9965
         + 28 z_9966 + 39 z_9967 + 71 z_9968 + 96 z_9969 + 4 z_9970 + 45 z_9971
         + 14 z_9972 + 20 z_9973 + 2 z_9974 + 48 z_9975 + 31 z_9976 + 90 z_9977
         + 27 z_9978 + 78 z_9979 + 26 z_9980 + 87 z_9981 + 77 z_9982 + 23 z_9983
         + 42 z_9984 + 88 z_9985 + 22 z_9986 + 34 z_9987 + 94 z_9988 + 58 z_9989
         + 42 z_9990 + 2 z_9991 + 49 z_9992 + 89 z_9993 + 15 z_9994 + 2 z_9995
         + 65 z_9996 + 94 z_9997 + 92 z_9998 + 87 z_9999 >= 351679.299999999988

Bounds
 0 <= y_0 <= 1
 0 <= y_1 <= 1
 0 <= y_2 <= 1
 0 <= y_3 <= 1
 0 <= y_4 <= 1
 0 <= y_5 <= 1
 0 <= y_6 <= 1
 0 <= y_7 <= 1
 0 <= y_8 <= 1
 0 <= y_9 <= 1
 0 <= y_10 <= 1
 0 <= y_11 <= 1
 0 <= y_12 <= 1
 0 <= y_13 <= 1
 0 <= y_14 <= 1
 0 <= y_15 <= 1
 0 <= y_16 <= 1
 0 <= y_17 <= 1
 0 <= y_18 <= 1
 0 <= y_19 <= 1
 0 <= y_20 <= 1
 0 <= y_21 <= 1
 0 <= y_22 <= 1
 0 <= y_23 <= 1
 0 <= y_24 <= 1
 0 <= y_25 <= 1
 0 <= y_26 <= 1
 0 <= y_27 <= 1
 0 <= y_28 <= 1
 0 <= y_29 <= 1
 0 <= y_30 <= 1
 0 <= y_31 <= 1
 0 <= y_32 <= 1
 0 <= y_33 <= 1
 0 <= y_34 <= 1
 0 <= y_35 <= 1
 0 <= y_36 <= 1
 0 <= y_37 <= 1
 0 <= y_38 <= 1
 0 <= y_39 <= 1
 0 <= y_40 <= 1
 0 <= y_41 <= 1
 0 <= y_42 <= 1
 0 <= y_43 <= 1
 0 <= y_44 <= 1
 0 <= y_45 <= 1
 0 <= y_46 <= 1
 0 <= y_47 <= 1
 0 <= y_48 <= 1
 0 <= y_49 <= 1
 0 <= y_50 <= 1
 0 <= y_51 <= 1
 0 <= y_52 <= 1
 0 <= y_53 <= 1
 0 <= y_54 <= 1
 0 <= y_55 <= 1
 0 <= y_56 <= 1
 0 <= y_57 <= 1
 0 <= y_58 <= 1
 0 <= y_59 <= 1
 0 <= y_60 <= 1
 0 <= y_61 <= 1
 0 <= y_62 <= 1
 0 <= y_63 <= 1
 0 <= y_64 <= 1
 0 <= y_65 <= 1
 0 <= y_66 <= 1
 0 <= y_67 <= 1
 0 <= y_68 <= 1
 0 <= y_69 <= 1
 0 <= y_70 <= 1
 0 <= y_71 <= 1
 0 <= y_72 <= 1
 0 <= y_73 <= 1
 0 <= y_74 <= 1
 0 <= y_75 <= 1
 0 <= y_76 <= 1
 0 <= y_77 <= 1
 0 <= y_78 <= 1
 0 <= y_79 <= 1
 0 <= y_80 <= 1
 0 <= y_81 <= 1
 0 <= y_82 <= 1
 0 <= y_83 <= 1
 0 <= y_84 <= 1
 0 <= y_85 <= 1
 0 <= y_86 <= 1
 0 <= y_87 <= 1
 0 <= y_88 <= 1
 0 <= y_89 <= 1
 0 <= y_90 <= 1
 0 <= y_91 <= 1
 0 <= y_92 <= 1
 0 <= y_93 <= 1
 0 <= y_94 <= 1
 0 <= y_95 <= 1
 0 <= y_96 <= 1
 0 <= y_97 <= 1
 0 <= y_98 <= 1
 0 <= y_99 <= 1
 0 <= z_0 <= 1
 0 <= z_1 <= 1
 0 <= z_2 <= 1
 0 <= z_3 <= 1
 0 <= z_4 <= 1
 0 <= z_5 <= 1
 0 <= z_6 <= 1
 0 <= z_7 <= 1
 0 <= z_8 <= 1
 0 <= z_9 <= 1
 0 <= z_10 <= 1
 0 <= z_11 <= 1
 0 <= z_12 <= 1
 0 <= z_13 <= 1
 0 <= z_14 <= 1
 0 <= z_15 <= 1
 0 <= z_16 <= 1
 0 <= z_17 <= 1
 0 <= z_18 <= 1
 0 <= z_19 <= 1
 0 <= z_20 <= 1
 0 <= z_21 <= 1
 0 <= z_22 <= 1
 0 <= z_23 <= 1
 0 <= z_24 <= 1
 0 <= z_25 <= 1
 0 <= z_26 <= 1
 0 <= z_27 <= 1
 0 <= z_28 <= 1
 0 <= z_29 <= 1
 0 <= z_30 <= 1
 0 <= z_31 <= 1
 0 <= z_32 <= 1
 0 <= z_33 <= 1
 0 <= z_34 <= 1
 0 <= z_35 <= 1
 0 <= z_36 <= 1
 0 <= z_37 <= 1
 0 <= z_38 <= 1
 0 <= z_39 <= 1
 0 <= z_40 <= 1
 0 <= z_41 <= 1
 0 <= z_42 <= 1
 0 <= z_43 <= 1
 0 <= z_44 <= 1
 0 <= z_45 <= 1
 0 <= z_46 <= 1
 0 <= z_47 <= 1
 0 <= z_48 <= 1
 0 <= z_49 <= 1
 0 <= z_50 <= 1
 0 <= z_51 <= 1
 0 <= z_52 <= 1
 0 <= z_53 <= 1
 0 <= z_54 <= 1
 0 <= z_55 <= 1
 0 <= z_56 <= 1
 0 <= z_57 <= 1
 0 <= z_58 <= 1
 0 <= z_59 <= 1
 0 <= z_60 <= 1
 0 <= z_61 <= 1
 0 <= z_62 <= 1
 0 <= z_63 <= 1
 0 <= z_64 <= 1
 0 <= z_65 <= 1
 0 <= z_66 <= 1
 0 <= z_67 <= 1
 0 <= z_68 <= 1
 0 <= z_69 <= 1
 0 <= z_70 <= 1
 0 <= z_71 <= 1
 0 <= z_72 <= 1
 0 <= z_73 <= 1
 0 <= z_74 <= 1
 0 <= z_75 <= 1
 0 <= z_76 <= 1
 0 <= z_77 <= 1
 0 <= z_78 <= 1
 0 <= z_79 <= 1
 0 <= z_80 <= 1
 0 <= z_81 <= 1
 0 <= z_82 <= 1
 0 <= z_83 <= 1
 0 <= z_84 <= 1
 0 <= z_85 <= 1
 0 <= z_86 <= 1
 0 <= z_87 <= 1
 0 <= z_88 <= 1
 0 <= z_89 <= 1
 0 <= z_90 <= 1
 0 <= z_91 <= 1
 0 <= z_92 <= 1
 0 <= z_93 <= 1
 0 <= z_94 <= 1
 0 <= z_95 <= 1
 0 <= z_96 <= 1
 0 <= z_97 <= 1
 0 <= z_98 <= 1
 0 <= z_99 <= 1
 0 <= z_100 <= 1
 0 <= z_101 <= 1
 0 <= z_102 <= 1
 0 <= z_103 <= 1
 0 <= z_104 <= 1
 0 <= z_105 <= 1
 0 <= z_106 <= 1
 0 <= z_107 <= 1
 0 <= z_108 <= 1
 0 <= z_109 <= 1
 0 <= z_110 <= 1
 0 <= z_111 <= 1
 0 <= z_112 <= 1
 0 <= z_113 <= 1
 0 <= z_114 <= 1
 0 <= z_115 <= 1
 0 <= z_116 <= 1
 0 <= z_117 <= 1
 0 <= z_118 <= 1
 0 <= z_119 <= 1
 0 <= z_120 <= 1
 0 <= z_121 <= 1
 0 <= z_122 <= 1
 0 <= z_123 <= 1
 0 <= z_124 <= 1
 0 <= z_125 <= 1
 0 <= z_126 <= 1
 0 <= z_127 <= 1
 0 <= z_128 <= 1
 0 <= z_129 <= 1
 0 <= z_130 <= 1
 0 <= z_131 <= 1
 0 <= z_132 <= 1
 0 <= z_133 <= 1
 0 <= z_134 <= 1
 0 <= z_135 <= 1
 0 <= z_136 <= 1
 0 <= z_137 <= 1
 0 <= z_138 <= 1
 0 <= z_139 <= 1
 0 <= z_140 <= 1
 0 <= z_141 <= 1
 0 <= z_142 <= 1
 0 <= z_143 <= 1
 0 <= z_144 <= 1
 0 <= z_145 <= 1
 0 <= z_146 <= 1
 0 <= z_147 <= 1
 0 <= z_148 <= 1
 0 <= z_149 <= 1
 0 <= z_150 <= 1
 0 <= z_151 <= 1
 0 <= z_152 <= 1
 0 <= z_153 <= 1
 0 <= z_154 <= 1
 0 <= z_155 <= 1
 0 <= z_156 <= 1
 0 <= z_157 <= 1
 0 <= z_158 <= 1
 0 <= z_159 <= 1
 0 <= z_160 <= 1
 0 <= z_161 <= 1
 0 <= z_162 <= 1
 0 <= z_163 <= 1
 0 <= z_164 <= 1
 0 <= z_165 <= 1
 0 <= z_166 <= 1
 0 <= z_167 <= 1
 0 <= z_168 <= 1
 0 <= z_169 <= 1
 0 <= z_170 <= 1
 0 <= z_171 <= 1
 0 <= z_172 <= 1
 0 <= z_173 <= 1
 0 <= z_174 <= 1
 0 <= z_175 <= 1
 0 <= z_176 <= 1
 0 <= z_177 <= 1
 0 <= z_178 <= 1
 0 <= z_179 <= 1
 0 <= z_180 <= 1
 0 <= z_181 <= 1
 0 <= z_182 <= 1
 0 <= z_183 <= 1
 0 <= z_184 <= 1
 0 <= z_185 <= 1
 0 <= z_186 <= 1
 0 <= z_187 <= 1
 0 <= z_188 <= 1
 0 <= z_189 <= 1
 0 <= z_190 <= 1
 0 <= z_191 <= 1
 0 <= z_192 <= 1
 0 <= z_193 <= 1
 0 <= z_194 <= 1
 0 <= z_195 <= 1
 0 <= z_196 <= 1
 0 <= z_197 <= 1
 0 <= z_198 <= 1
 0 <= z_199 <= 1
 0 <= z_200 <= 1
 0 <= z_201 <= 1
 0 <= z_202 <= 1
 0 <= z_203 <= 1
 0 <= z_204 <= 1
 0 <= z_205 <= 1
 0 <= z_206 <= 1
 0 <= z_207 <= 1
 0 <= z_208 <= 1
 0 <= z_209 <= 1
 0 <= z_210 <= 1
 0 <= z_211 <= 1
 0 <= z_212 <= 1
 0 <= z_213 <= 1
 0 <= z_214 <= 1
 0 <= z_215 <= 1
 0 <= z_216 <= 1
 0 <= z_217 <= 1
 0 <= z_218 <= 1
 0 <= z_219 <= 1
 0 <= z_220 <= 1
 0 <= z_221 <= 1
 0 <= z_222 <= 1
 0 <= z_223 <= 1
 0 <= z_224 <= 1
 0 <= z_225 <= 1
 0 <= z_226 <= 1
 0 <= z_227 <= 1
 0 <= z_228 <= 1
 0 <= z_229 <= 1
 0 <= z_230 <= 1
 0 <= z_231 <= 1
 0 <= z_232 <= 1
 0 <= z_233 <= 1
 0 <= z_234 <= 1
 0 <= z_235 <= 1
 0 <= z_236 <= 1
 0 <= z_237 <= 1
 0 <= z_238 <= 1
 0 <= z_239 <= 1
 0 <= z_240 <= 1
 0 <= z_241 <= 1
 0 <= z_242 <= 1
 0 <= z_243 <= 1
 0 <= z_244 <= 1
 0 <= z_245 <= 1
 0 <= z_246 <= 1
 0 <= z_247 <= 1
 0 <= z_248 <= 1
 0 <= z_249 <= 1
 0 <= z_250 <= 1
 0 <= z_251 <= 1
 0 <= z_252 <= 1
 0 <= z_253 <= 1
 0 <= z_254 <= 1
 0 <= z_255 <= 1
 0 <= z_256 <= 1
 0 <= z_257 <= 1
 0 <= z_258 <= 1
 0 <= z_259 <= 1
 0 <= z_260 <= 1
 0 <= z_261 <= 1
 0 <= z_262 <= 1
 0 <= z_263 <= 1
 0 <= z_264 <= 1
 0 <= z_265 <= 1
 0 <= z_266 <= 1
 0 <= z_267 <= 1
 0 <= z_268 <= 1
 0 <= z_269 <= 1
 0 <= z_270 <= 1
 0 <= z_271 <= 1
 0 <= z_272 <= 1
 0 <= z_273 <= 1
 0 <= z_274 <= 1
 0 <= z_275 <= 1
 0 <= z_276 <= 1
 0 <= z_277 <= 1
 0 <= z_278 <= 1
 0 <= z_279 <= 1
 0 <= z_280 <= 1
 0 <= z_281 <= 1
 0 <= z_282 <= 1
 0 <= z_283 <= 1
 0 <= z_284 <= 1
 0 <= z_285 <= 1
 0 <= z_286 <= 1
 0 <= z_287 <= 1
 0 <= z_288 <= 1
 0 <= z_289 <= 1
 0 <= z_290 <= 1
 0 <= z_291 <= 1
 0 <= z_292 <= 1
 0 <= z_293 <= 1
 0 <= z_294 <= 1
 0 <= z_295 <= 1
 0 <= z_296 <= 1
 0 <= z_297 <= 1
 0 <= z_298 <= 1
 0 <= z_299 <= 1
 0 <= z_300 <= 1
 0 <= z_301 <= 1
 0 <= z_302 <= 1
 0 <= z_303 <= 1
 0 <= z_304 <= 1
 0 <= z_305 <= 1
 0 <= z_306 <= 1
 0 <= z_307 <= 1
 0 <= z_308 <= 1
 0 <= z_309 <= 1
 0 <= z_310 <= 1
 0 <= z_311 <= 1
 0 <= z_312 <= 1
 0 <= z_313 <= 1
 0 <= z_314 <= 1
 0 <= z_315 <= 1
 0 <= z_316 <= 1
 0 <= z_317 <= 1
 0 <= z_318 <= 1
 0 <= z_319 <= 1
 0 <= z_320 <= 1
 0 <= z_321 <= 1
 0 <= z_322 <= 1
 0 <= z_323 <= 1
 0 <= z_324 <= 1
 0 <= z_325 <= 1
 0 <= z_326 <= 1
 0 <= z_327 <= 1
 0 <= z_328 <= 1
 0 <= z_329 <= 1
 0 <= z_330 <= 1
 0 <= z_331 <= 1
 0 <= z_332 <= 1
 0 <= z_333 <= 1
 0 <= z_334 <= 1
 0 <= z_335 <= 1
 0 <= z_336 <= 1
 0 <= z_337 <= 1
 0 <= z_338 <= 1
 0 <= z_339 <= 1
 0 <= z_340 <= 1
 0 <= z_341 <= 1
 0 <= z_342 <= 1
 0 <= z_343 <= 1
 0 <= z_344 <= 1
 0 <= z_345 <= 1
 0 <= z_346 <= 1
 0 <= z_347 <= 1
 0 <= z_348 <= 1
 0 <= z_349 <= 1
 0 <= z_350 <= 1
 0 <= z_351 <= 1
 0 <= z_352 <= 1
 0 <= z_353 <= 1
 0 <= z_354 <= 1
 0 <= z_355 <= 1
 0 <= z_356 <= 1
 0 <= z_357 <= 1
 0 <= z_358 <= 1
 0 <= z_359 <= 1
 0 <= z_360 <= 1
 0 <= z_361 <= 1
 0 <= z_362 <= 1
 0 <= z_363 <= 1
 0 <= z_364 <= 1
 0 <= z_365 <= 1
 0 <= z_366 <= 1
 0 <= z_367 <= 1
 0 <= z_368 <= 1
 0 <= z_369 <= 1
 0 <= z_370 <= 1
 0 <= z_371 <= 1
 0 <= z_372 <= 1
 0 <= z_373 <= 1
 0 <= z_374 <= 1
 0 <= z_375 <= 1
 0 <= z_376 <= 1
 0 <= z_377 <= 1
 0 <= z_378 <= 1
 0 <= z_379 <= 1
 0 <= z_380 <= 1
 0 <= z_381 <= 1
 0 <= z_382 <= 1
 0 <= z_383 <= 1
 0 <= z_384 <= 1
 0 <= z_385 <= 1
 0 <= z_386 <= 1
 0 <= z_387 <= 1
 0 <= z_388 <= 1
 0 <= z_389 <= 1
 0 <= z_390 <= 1
 0 <= z_391 <= 1
 0 <= z_392 <= 1
 0 <= z_393 <= 1
 0 <= z_394 <= 1
 0 <= z_395 <= 1
 0 <= z_396 <= 1
 0 <= z_397 <= 1
 0 <= z_398 <= 1
 0 <= z_399 <= 1
 0 <= z_400 <= 1
 0 <= z_401 <= 1
 0 <= z_402 <= 1
 0 <= z_403 <= 1
 0 <= z_404 <= 1
 0 <= z_405 <= 1
 0 <= z_406 <= 1
 0 <= z_407 <= 1
 0 <= z_408 <= 1
 0 <= z_409 <= 1
 0 <= z_410 <= 1
 0 <= z_411 <= 1
 0 <= z_412 <= 1
 0 <= z_413 <= 1
 0 <= z_414 <= 1
 0 <= z_415 <= 1
 0 <= z_416 <= 1
 0 <= z_417 <= 1
 0 <= z_418 <= 1
 0 <= z_419 <= 1
 0 <= z_420 <= 1
 0 <= z_421 <= 1
 0 <= z_422 <= 1
 0 <= z_423 <= 1
 0 <= z_424 <= 1
 0 <= z_425 <= 1
 0 <= z_426 <= 1
 0 <= z_427 <= 1
 0 <= z_428 <= 1
 0 <= z_429 <= 1
 0 <= z_430 <= 1
 0 <= z_431 <= 1
 0 <= z_432 <= 1
 0 <= z_433 <= 1
 0 <= z_434 <= 1
 0 <= z_435 <= 1
 0 <= z_436 <= 1
 0 <= z_437 <= 1
 0 <= z_438 <= 1
 0 <= z_439 <= 1
 0 <= z_440 <= 1
 0 <= z_441 <= 1
 0 <= z_442 <= 1
 0 <= z_443 <= 1
 0 <= z_444 <= 1
 0 <= z_445 <= 1
 0 <= z_446 <= 1
 0 <= z_447 <= 1
 0 <= z_448 <= 1
 0 <= z_449 <= 1
 0 <= z_450 <= 1
 0 <= z_451 <= 1
 0 <= z_452 <= 1
 0 <= z_453 <= 1
 0 <= z_454 <= 1
 0 <= z_455 <= 1
 0 <= z_456 <= 1
 0 <= z_457 <= 1
 0 <= z_458 <= 1
 0 <= z_459 <= 1
 0 <= z_460 <= 1
 0 <= z_461 <= 1
 0 <= z_462 <= 1
 0 <= z_463 <= 1
 0 <= z_464 <= 1
 0 <= z_465 <= 1
 0 <= z_466 <= 1
 0 <= z_467 <= 1
 0 <= z_468 <= 1
 0 <= z_469 <= 1
 0 <= z_470 <= 1
 0 <= z_471 <= 1
 0 <= z_472 <= 1
 0 <= z_473 <= 1
 0 <= z_474 <= 1
 0 <= z_475 <= 1
 0 <= z_476 <= 1
 0 <= z_477 <= 1
 0 <= z_478 <= 1
 0 <= z_479 <= 1
 0 <= z_480 <= 1
 0 <= z_481 <= 1
 0 <= z_482 <= 1
 0 <= z_483 <= 1
 0 <= z_484 <= 1
 0 <= z_485 <= 1
 0 <= z_486 <= 1
 0 <= z_487 <= 1
 0 <= z_488 <= 1
 0 <= z_489 <= 1
 0 <= z_490 <= 1
 0 <= z_491 <= 1
 0 <= z_492 <= 1
 0 <= z_493 <= 1
 0 <= z_494 <= 1
 0 <= z_495 <= 1
 0 <= z_496 <= 1
 0 <= z_497 <= 1
 0 <= z_498 <= 1
 0 <= z_499 <= 1
 0 <= z_500 <= 1
 0 <= z_501 <= 1
 0 <= z_502 <= 1
 0 <= z_503 <= 1
 0 <= z_504 <= 1
 0 <= z_505 <= 1
 0 <= z_506 <= 1
 0 <= z_507 <= 1
 0 <= z_508 <= 1
 0 <= z_509 <= 1
 0 <= z_510 <= 1
 0 <= z_511 <= 1
 0 <= z_512 <= 1
 0 <= z_513 <= 1
 0 <= z_514 <= 1
 0 <= z_515 <= 1
 0 <= z_516 <= 1
 0 <= z_517 <= 1
 0 <= z_518 <= 1
 0 <= z_519 <= 1
 0 <= z_520 <= 1
 0 <= z_521 <= 1
 0 <= z_522 <= 1
 0 <= z_523 <= 1
 0 <= z_524 <= 1
 0 <= z_525 <= 1
 0 <= z_526 <= 1
 0 <= z_527 <= 1
 0 <= z_528 <= 1
 0 <= z_529 <= 1
 0 <= z_530 <= 1
 0 <= z_531 <= 1
 0 <= z_532 <= 1
 0 <= z_533 <= 1
 0 <= z_534 <= 1
 0 <= z_535 <= 1
 0 <= z_536 <= 1
 0 <= z_537 <= 1
 0 <= z_538 <= 1
 0 <= z_539 <= 1
 0 <= z_540 <= 1
 0 <= z_541 <= 1
 0 <= z_542 <= 1
 0 <= z_543 <= 1
 0 <= z_544 <= 1
 0 <= z_545 <= 1
 0 <= z_546 <= 1
 0 <= z_547 <= 1
 0 <= z_548 <= 1
 0 <= z_549 <= 1
 0 <= z_550 <= 1
 0 <= z_551 <= 1
 0 <= z_552 <= 1
 0 <= z_553 <= 1
 0 <= z_554 <= 1
 0 <= z_555 <= 1
 0 <= z_556 <= 1
 0 <= z_557 <= 1
 0 <= z_558 <= 1
 0 <= z_559 <= 1
 0 <= z_560 <= 1
 0 <= z_561 <= 1
 0 <= z_562 <= 1
 0 <= z_563 <= 1
 0 <= z_564 <= 1
 0 <= z_565 <= 1
 0 <= z_566 <= 1
 0 <= z_567 <= 1
 0 <= z_568 <= 1
 0 <= z_569 <= 1
 0 <= z_570 <= 1
 0 <= z_571 <= 1
 0 <= z_572 <= 1
 0 <= z_573 <= 1
 0 <= z_574 <= 1
 0 <= z_575 <= 1
 0 <= z_576 <= 1
 0 <= z_577 <= 1
 0 <= z_578 <= 1
 0 <= z_579 <= 1
 0 <= z_580 <= 1
 0 <= z_581 <= 1
 0 <= z_582 <= 1
 0 <= z_583 <= 1
 0 <= z_584 <= 1
 0 <= z_585 <= 1
 0 <= z_586 <= 1
 0 <= z_587 <= 1
 0 <= z_588 <= 1
 0 <= z_589 <= 1
 0 <= z_590 <= 1
 0 <= z_591 <= 1
 0 <= z_592 <= 1
 0 <= z_593 <= 1
 0 <= z_594 <= 1
 0 <= z_595 <= 1
 0 <= z_596 <= 1
 0 <= z_597 <= 1
 0 <= z_598 <= 1
 0 <= z_599 <= 1
 0 <= z_600 <= 1
 0 <= z_601 <= 1
 0 <= z_602 <= 1
 0 <= z_603 <= 1
 0 <= z_604 <= 1
 0 <= z_605 <= 1
 0 <= z_606 <= 1
 0 <= z_607 <= 1
 0 <= z_608 <= 1
 0 <= z_609 <= 1
 0 <= z_610 <= 1
 0 <= z_611 <= 1
 0 <= z_612 <= 1
 0 <= z_613 <= 1
 0 <= z_614 <= 1
 0 <= z_615 <= 1
 0 <= z_616 <= 1
 0 <= z_617 <= 1
 0 <= z_618 <= 1
 0 <= z_619 <= 1
 0 <= z_620 <= 1
 0 <= z_621 <= 1
 0 <= z_622 <= 1
 0 <= z_623 <= 1
 0 <= z_624 <= 1
 0 <= z_625 <= 1
 0 <= z_626 <= 1
 0 <= z_627 <= 1
 0 <= z_628 <= 1
 0 <= z_629 <= 1
 0 <= z_630 <= 1
 0 <= z_631 <= 1
 0 <= z_632 <= 1
 0 <= z_633 <= 1
 0 <= z_634 <= 1
 0 <= z_635 <= 1
 0 <= z_636 <= 1
 0 <= z_637 <= 1
 0 <= z_638 <= 1
 0 <= z_639 <= 1
 0 <= z_640 <= 1
 0 <= z_641 <= 1
 0 <= z_642 <= 1
 0 <= z_643 <= 1
 0 <= z_644 <= 1
 0 <= z_645 <= 1
 0 <= z_646 <= 1
 0 <= z_647 <= 1
 0 <= z_648 <= 1
 0 <= z_649 <= 1
 0 <= z_650 <= 1
 0 <= z_651 <= 1
 0 <= z_652 <= 1
 0 <= z_653 <= 1
 0 <= z_654 <= 1
 0 <= z_655 <= 1
 0 <= z_656 <= 1
 0 <= z_657 <= 1
 0 <= z_658 <= 1
 0 <= z_659 <= 1
 0 <= z_660 <= 1
 0 <= z_661 <= 1
 0 <= z_662 <= 1
 0 <= z_663 <= 1
 0 <= z_664 <= 1
 0 <= z_665 <= 1
 0 <= z_666 <= 1
 0 <= z_667 <= 1
 0 <= z_668 <= 1
 0 <= z_669 <= 1
 0 <= z_670 <= 1
 0 <= z_671 <= 1
 0 <= z_672 <= 1
 0 <= z_673 <= 1
 0 <= z_674 <= 1
 0 <= z_675 <= 1
 0 <= z_676 <= 1
 0 <= z_677 <= 1
 0 <= z_678 <= 1
 0 <= z_679 <= 1
 0 <= z_680 <= 1
 0 <= z_681 <= 1
 0 <= z_682 <= 1
 0 <= z_683 <= 1
 0 <= z_684 <= 1
 0 <= z_685 <= 1
 0 <= z_686 <= 1
 0 <= z_687 <= 1
 0 <= z_688 <= 1
 0 <= z_689 <= 1
 0 <= z_690 <= 1
 0 <= z_691 <= 1
 0 <= z_692 <= 1
 0 <= z_693 <= 1
 0 <= z_694 <= 1
 0 <= z_695 <= 1
 0 <= z_696 <= 1
 0 <= z_697 <= 1
 0 <= z_698 <= 1
 0 <= z_699 <= 1
 0 <= z_700 <= 1
 0 <= z_701 <= 1
 0 <= z_702 <= 1
 0 <= z_703 <= 1
 0 <= z_704 <= 1
 0 <= z_705 <= 1
 0 <= z_706 <= 1
 0 <= z_707 <= 1
 0 <= z_708 <= 1
 0 <= z_709 <= 1
 0 <= z_710 <= 1
 0 <= z_711 <= 1
 0 <= z_712 <= 1
 0 <= z_713 <= 1
 0 <= z_714 <= 1
 0 <= z_715 <= 1
 0 <= z_716 <= 1
 0 <= z_717 <= 1
 0 <= z_718 <= 1
 0 <= z_719 <= 1
 0 <= z_720 <= 1
 0 <= z_721 <= 1
 0 <= z_722 <= 1
 0 <= z_723 <= 1
 0 <= z_724 <= 1
 0 <= z_725 <= 1
 0 <= z_726 <= 1
 0 <= z_727 <= 1
 0 <= z_728 <= 1
 0 <= z_729 <= 1
 0 <= z_730 <= 1
 0 <= z_731 <= 1
 0 <= z_732 <= 1
 0 <= z_733 <= 1
 0 <= z_734 <= 1
 0 <= z_735 <= 1
 0 <= z_736 <= 1
 0 <= z_737 <= 1
 0 <= z_738 <= 1
 0 <= z_739 <= 1
 0 <= z_740 <= 1
 0 <= z_741 <= 1
 0 <= z_742 <= 1
 0 <= z_743 <= 1
 0 <= z_744 <= 1
 0 <= z_745 <= 1
 0 <= z_746 <= 1
 0 <= z_747 <= 1
 0 <= z_748 <= 1
 0 <= z_749 <= 1
 0 <= z_750 <= 1
 0 <= z_751 <= 1
 0 <= z_752 <= 1
 0 <= z_753 <= 1
 0 <= z_754 <= 1
 0 <= z_755 <= 1
 0 <= z_756 <= 1
 0 <= z_757 <= 1
 0 <= z_758 <= 1
 0 <= z_759 <= 1
 0 <= z_760 <= 1
 0 <= z_761 <= 1
 0 <= z_762 <= 1
 0 <= z_763 <= 1
 0 <= z_764 <= 1
 0 <= z_765 <= 1
 0 <= z_766 <= 1
 0 <= z_767 <= 1
 0 <= z_768 <= 1
 0 <= z_769 <= 1
 0 <= z_770 <= 1
 0 <= z_771 <= 1
 0 <= z_772 <= 1
 0 <= z_773 <= 1
 0 <= z_774 <= 1
 0 <= z_775 <= 1
 0 <= z_776 <= 1
 0 <= z_777 <= 1
 0 <= z_778 <= 1
 0 <= z_779 <= 1
 0 <= z_780 <= 1
 0 <= z_781 <= 1
 0 <= z_782 <= 1
 0 <= z_783 <= 1
 0 <= z_784 <= 1
 0 <= z_785 <= 1
 0 <= z_786 <= 1
 0 <= z_787 <= 1
 0 <= z_788 <= 1
 0 <= z_789 <= 1
 0 <= z_790 <= 1
 0 <= z_791 <= 1
 0 <= z_792 <= 1
 0 <= z_793 <= 1
 0 <= z_794 <= 1
 0 <= z_795 <= 1
 0 <= z_796 <= 1
 0 <= z_797 <= 1
 0 <= z_798 <= 1
 0 <= z_799 <= 1
 0 <= z_800 <= 1
 0 <= z_801 <= 1
 0 <= z_802 <= 1
 0 <= z_803 <= 1
 0 <= z_804 <= 1
 0 <= z_805 <= 1
 0 <= z_806 <= 1
 0 <= z_807 <= 1
 0 <= z_808 <= 1
 0 <= z_809 <= 1
 0 <= z_810 <= 1
 0 <= z_811 <= 1
 0 <= z_812 <= 1
 0 <= z_813 <= 1
 0 <= z_814 <= 1
 0 <= z_815 <= 1
 0 <= z_816 <= 1
 0 <= z_817 <= 1
 0 <= z_818 <= 1
 0 <= z_819 <= 1
 0 <= z_820 <= 1
 0 <= z_821 <= 1
 0 <= z_822 <= 1
 0 <= z_823 <= 1
 0 <= z_824 <= 1
 0 <= z_825 <= 1
 0 <= z_826 <= 1
 0 <= z_827 <= 1
 0 <= z_828 <= 1
 0 <= z_829 <= 1
 0 <= z_830 <= 1
 0 <= z_831 <= 1
 0 <= z_832 <= 1
 0 <= z_833 <= 1
 0 <= z_834 <= 1
 0 <= z_835 <= 1
 0 <= z_836 <= 1
 0 <= z_837 <= 1
 0 <= z_838 <= 1
 0 <= z_839 <= 1
 0 <= z_840 <= 1
 0 <= z_841 <= 1
 0 <= z_842 <= 1
 0 <= z_843 <= 1
 0 <= z_844 <= 1
 0 <= z_845 <= 1
 0 <= z_846 <= 1
 0 <= z_847 <= 1
 0 <= z_848 <= 1
 0 <= z_849 <= 1
 0 <= z_850 <= 1
 0 <= z_851 <= 1
 0 <= z_852 <= 1
 0 <= z_853 <= 1
 0 <= z_854 <= 1
 0 <= z_855 <= 1
 0 <= z_856 <= 1
 0 <= z_857 <= 1
 0 <= z_858 <= 1
 0 <= z_859 <= 1
 0 <= z_860 <= 1
 0 <= z_861 <= 1
 0 <= z_862 <= 1
 0 <= z_863 <= 1
 0 <= z_864 <= 1
 0 <= z_865 <= 1
 0 <= z_866 <= 1
 0 <= z_867 <= 1
 0 <= z_868 <= 1
 0 <= z_869 <= 1
 0 <= z_870 <= 1
 0 <= z_871 <= 1
 0 <= z_872 <= 1
 0 <= z_873 <= 1
 0 <= z_874 <= 1
 0 <= z_875 <= 1
 0 <= z_876 <= 1
 0 <= z_877 <= 1
 0 <= z_878 <= 1
 0 <= z_879 <= 1
 0 <= z_880 <= 1
 0 <= z_881 <= 1
 0 <= z_882 <= 1
 0 <= z_883 <= 1
 0 <= z_884 <= 1
 0 <= z_885 <= 1
 0 <= z_886 <= 1
 0 <= z_887 <= 1
 0 <= z_888 <= 1
 0 <= z_889 <= 1
 0 <= z_890 <= 1
 0 <= z_891 <= 1
 0 <= z_892 <= 1
 0 <= z_893 <= 1
 0 <= z_894 <= 1
 0 <= z_895 <= 1
 0 <= z_896 <= 1
 0 <= z_897 <= 1
 0 <= z_898 <= 1
 0 <= z_899 <= 1
 0 <= z_900 <= 1
 0 <= z_901 <= 1
 0 <= z_902 <= 1
 0 <= z_903 <= 1
 0 <= z_904 <= 1
 0 <= z_905 <= 1
 0 <= z_906 <= 1
 0 <= z_907 <= 1
 0 <= z_908 <= 1
 0 <= z_909 <= 1
 0 <= z_910 <= 1
 0 <= z_911 <= 1
 0 <= z_912 <= 1
 0 <= z_913 <= 1
 0 <= z_914 <= 1
 0 <= z_915 <= 1
 0 <= z_916 <= 1
 0 <= z_917 <= 1
 0 <= z_918 <= 1
 0 <= z_919 <= 1
 0 <= z_920 <= 1
 0 <= z_921 <= 1
 0 <= z_922 <= 1
 0 <= z_923 <= 1
 0 <= z_924 <= 1
 0 <= z_925 <= 1
 0 <= z_926 <= 1
 0 <= z_927 <= 1
 0 <= z_928 <= 1
 0 <= z_929 <= 1
 0 <= z_930 <= 1
 0 <= z_931 <= 1
 0 <= z_932 <= 1
 0 <= z_933 <= 1
 0 <= z_934 <= 1
 0 <= z_935 <= 1
 0 <= z_936 <= 1
 0 <= z_937 <= 1
 0 <= z_938 <= 1
 0 <= z_939 <= 1
 0 <= z_940 <= 1
 0 <= z_941 <= 1
 0 <= z_942 <= 1
 0 <= z_943 <= 1
 0 <= z_944 <= 1
 0 <= z_945 <= 1
 0 <= z_946 <= 1
 0 <= z_947 <= 1
 0 <= z_948 <= 1
 0 <= z_949 <= 1
 0 <= z_950 <= 1
 0 <= z_951 <= 1
 0 <= z_952 <= 1
 0 <= z_953 <= 1
 0 <= z_954 <= 1
 0 <= z_955 <= 1
 0 <= z_956 <= 1
 0 <= z_957 <= 1
 0 <= z_958 <= 1
 0 <= z_959 <= 1
 0 <= z_960 <= 1
 0 <= z_961 <= 1
 0 <= z_962 <= 1
 0 <= z_963 <= 1
 0 <= z_964 <= 1
 0 <= z_965 <= 1
 0 <= z_966 <= 1
 0 <= z_967 <= 1
 0 <= z_968 <= 1
 0 <= z_969 <= 1
 0 <= z_970 <= 1
 0 <= z_971 <= 1
 0 <= z_972 <= 1
 0 <= z_973 <= 1
 0 <= z_974 <= 1
 0 <= z_975 <= 1
 0 <= z_976 <= 1
 0 <= z_977 <= 1
 0 <= z_978 <= 1
 0 <= z_979 <= 1
 0 <= z_980 <= 1
 0 <= z_981 <= 1
 0 <= z_982 <= 1
 0 <= z_983 <= 1
 0 <= z_984 <= 1
 0 <= z_985 <= 1
 0 <= z_986 <= 1
 0 <= z_987 <= 1
 0 <= z_988 <= 1
 0 <= z_989 <= 1
 0 <= z_990 <= 1
 0 <= z_991 <= 1
 0 <= z_992 <= 1
 0 <= z_993 <= 1
 0 <= z_994 <= 1
 0 <= z_995 <= 1
 0 <= z_996 <= 1
 0 <= z_997 <= 1
 0 <= z_998 <= 1
 0 <= z_999 <= 1
 0 <= z_1000 <= 1
 0 <= z_1001 <= 1
 0 <= z_1002 <= 1
 0 <= z_1003 <= 1
 0 <= z_1004 <= 1
 0 <= z_1005 <= 1
 0 <= z_1006 <= 1
 0 <= z_1007 <= 1
 0 <= z_1008 <= 1
 0 <= z_1009 <= 1
 0 <= z_1010 <= 1
 0 <= z_1011 <= 1
 0 <= z_1012 <= 1
 0 <= z_1013 <= 1
 0 <= z_1014 <= 1
 0 <= z_1015 <= 1
 0 <= z_1016 <= 1
 0 <= z_1017 <= 1
 0 <= z_1018 <= 1
 0 <= z_1019 <= 1
 0 <= z_1020 <= 1
 0 <= z_1021 <= 1
 0 <= z_1022 <= 1
 0 <= z_1023 <= 1
 0 <= z_1024 <= 1
 0 <= z_1025 <= 1
 0 <= z_1026 <= 1
 0 <= z_1027 <= 1
 0 <= z_1028 <= 1
 0 <= z_1029 <= 1
 0 <= z_1030 <= 1
 0 <= z_1031 <= 1
 0 <= z_1032 <= 1
 0 <= z_1033 <= 1
 0 <= z_1034 <= 1
 0 <= z_1035 <= 1
 0 <= z_1036 <= 1
 0 <= z_1037 <= 1
 0 <= z_1038 <= 1
 0 <= z_1039 <= 1
 0 <= z_1040 <= 1
 0 <= z_1041 <= 1
 0 <= z_1042 <= 1
 0 <= z_1043 <= 1
 0 <= z_1044 <= 1
 0 <= z_1045 <= 1
 0 <= z_1046 <= 1
 0 <= z_1047 <= 1
 0 <= z_1048 <= 1
 0 <= z_1049 <= 1
 0 <= z_1050 <= 1
 0 <= z_1051 <= 1
 0 <= z_1052 <= 1
 0 <= z_1053 <= 1
 0 <= z_1054 <= 1
 0 <= z_1055 <= 1
 0 <= z_1056 <= 1
 0 <= z_1057 <= 1
 0 <= z_1058 <= 1
 0 <= z_1059 <= 1
 0 <= z_1060 <= 1
 0 <= z_1061 <= 1
 0 <= z_1062 <= 1
 0 <= z_1063 <= 1
 0 <= z_1064 <= 1
 0 <= z_1065 <= 1
 0 <= z_1066 <= 1
 0 <= z_1067 <= 1
 0 <= z_1068 <= 1
 0 <= z_1069 <= 1
 0 <= z_1070 <= 1
 0 <= z_1071 <= 1
 0 <= z_1072 <= 1
 0 <= z_1073 <= 1
 0 <= z_1074 <= 1
 0 <= z_1075 <= 1
 0 <= z_1076 <= 1
 0 <= z_1077 <= 1
 0 <= z_1078 <= 1
 0 <= z_1079 <= 1
 0 <= z_1080 <= 1
 0 <= z_1081 <= 1
 0 <= z_1082 <= 1
 0 <= z_1083 <= 1
 0 <= z_1084 <= 1
 0 <= z_1085 <= 1
 0 <= z_1086 <= 1
 0 <= z_1087 <= 1
 0 <= z_1088 <= 1
 0 <= z_1089 <= 1
 0 <= z_1090 <= 1
 0 <= z_1091 <= 1
 0 <= z_1092 <= 1
 0 <= z_1093 <= 1
 0 <= z_1094 <= 1
 0 <= z_1095 <= 1
 0 <= z_1096 <= 1
 0 <= z_1097 <= 1
 0 <= z_1098 <= 1
 0 <= z_1099 <= 1
 0 <= z_1100 <= 1
 0 <= z_1101 <= 1
 0 <= z_1102 <= 1
 0 <= z_1103 <= 1
 0 <= z_1104 <= 1
 0 <= z_1105 <= 1
 0 <= z_1106 <= 1
 0 <= z_1107 <= 1
 0 <= z_1108 <= 1
 0 <= z_1109 <= 1
 0 <= z_1110 <= 1
 0 <= z_1111 <= 1
 0 <= z_1112 <= 1
 0 <= z_1113 <= 1
 0 <= z_1114 <= 1
 0 <= z_1115 <= 1
 0 <= z_1116 <= 1
 0 <= z_1117 <= 1
 0 <= z_1118 <= 1
 0 <= z_1119 <= 1
 0 <= z_1120 <= 1
 0 <= z_1121 <= 1
 0 <= z_1122 <= 1
 0 <= z_1123 <= 1
 0 <= z_1124 <= 1
 0 <= z_1125 <= 1
 0 <= z_1126 <= 1
 0 <= z_1127 <= 1
 0 <= z_1128 <= 1
 0 <= z_1129 <= 1
 0 <= z_1130 <= 1
 0 <= z_1131 <= 1
 0 <= z_1132 <= 1
 0 <= z_1133 <= 1
 0 <= z_1134 <= 1
 0 <= z_1135 <= 1
 0 <= z_1136 <= 1
 0 <= z_1137 <= 1
 0 <= z_1138 <= 1
 0 <= z_1139 <= 1
 0 <= z_1140 <= 1
 0 <= z_1141 <= 1
 0 <= z_1142 <= 1
 0 <= z_1143 <= 1
 0 <= z_1144 <= 1
 0 <= z_1145 <= 1
 0 <= z_1146 <= 1
 0 <= z_1147 <= 1
 0 <= z_1148 <= 1
 0 <= z_1149 <= 1
 0 <= z_1150 <= 1
 0 <= z_1151 <= 1
 0 <= z_1152 <= 1
 0 <= z_1153 <= 1
 0 <= z_1154 <= 1
 0 <= z_1155 <= 1
 0 <= z_1156 <= 1
 0 <= z_1157 <= 1
 0 <= z_1158 <= 1
 0 <= z_1159 <= 1
 0 <= z_1160 <= 1
 0 <= z_1161 <= 1
 0 <= z_1162 <= 1
 0 <= z_1163 <= 1
 0 <= z_1164 <= 1
 0 <= z_1165 <= 1
 0 <= z_1166 <= 1
 0 <= z_1167 <= 1
 0 <= z_1168 <= 1
 0 <= z_1169 <= 1
 0 <= z_1170 <= 1
 0 <= z_1171 <= 1
 0 <= z_1172 <= 1
 0 <= z_1173 <= 1
 0 <= z_1174 <= 1
 0 <= z_1175 <= 1
 0 <= z_1176 <= 1
 0 <= z_1177 <= 1
 0 <= z_1178 <= 1
 0 <= z_1179 <= 1
 0 <= z_1180 <= 1
 0 <= z_1181 <= 1
 0 <= z_1182 <= 1
 0 <= z_1183 <= 1
 0 <= z_1184 <= 1
 0 <= z_1185 <= 1
 0 <= z_1186 <= 1
 0 <= z_1187 <= 1
 0 <= z_1188 <= 1
 0 <= z_1189 <= 1
 0 <= z_1190 <= 1
 0 <= z_1191 <= 1
 0 <= z_1192 <= 1
 0 <= z_1193 <= 1
 0 <= z_1194 <= 1
 0 <= z_1195 <= 1
 0 <= z_1196 <= 1
 0 <= z_1197 <= 1
 0 <= z_1198 <= 1
 0 <= z_1199 <= 1
 0 <= z_1200 <= 1
 0 <= z_1201 <= 1
 0 <= z_1202 <= 1
 0 <= z_1203 <= 1
 0 <= z_1204 <= 1
 0 <= z_1205 <= 1
 0 <= z_1206 <= 1
 0 <= z_1207 <= 1
 0 <= z_1208 <= 1
 0 <= z_1209 <= 1
 0 <= z_1210 <= 1
 0 <= z_1211 <= 1
 0 <= z_1212 <= 1
 0 <= z_1213 <= 1
 0 <= z_1214 <= 1
 0 <= z_1215 <= 1
 0 <= z_1216 <= 1
 0 <= z_1217 <= 1
 0 <= z_1218 <= 1
 0 <= z_1219 <= 1
 0 <= z_1220 <= 1
 0 <= z_1221 <= 1
 0 <= z_1222 <= 1
 0 <= z_1223 <= 1
 0 <= z_1224 <= 1
 0 <= z_1225 <= 1
 0 <= z_1226 <= 1
 0 <= z_1227 <= 1
 0 <= z_1228 <= 1
 0 <= z_1229 <= 1
 0 <= z_1230 <= 1
 0 <= z_1231 <= 1
 0 <= z_1232 <= 1
 0 <= z_1233 <= 1
 0 <= z_1234 <= 1
 0 <= z_1235 <= 1
 0 <= z_1236 <= 1
 0 <= z_1237 <= 1
 0 <= z_1238 <= 1
 0 <= z_1239 <= 1
 0 <= z_1240 <= 1
 0 <= z_1241 <= 1
 0 <= z_1242 <= 1
 0 <= z_1243 <= 1
 0 <= z_1244 <= 1
 0 <= z_1245 <= 1
 0 <= z_1246 <= 1
 0 <= z_1247 <= 1
 0 <= z_1248 <= 1
 0 <= z_1249 <= 1
 0 <= z_1250 <= 1
 0 <= z_1251 <= 1
 0 <= z_1252 <= 1
 0 <= z_1253 <= 1
 0 <= z_1254 <= 1
 0 <= z_1255 <= 1
 0 <= z_1256 <= 1
 0 <= z_1257 <= 1
 0 <= z_1258 <= 1
 0 <= z_1259 <= 1
 0 <= z_1260 <= 1
 0 <= z_1261 <= 1
 0 <= z_1262 <= 1
 0 <= z_1263 <= 1
 0 <= z_1264 <= 1
 0 <= z_1265 <= 1
 0 <= z_1266 <= 1
 0 <= z_1267 <= 1
 0 <= z_1268 <= 1
 0 <= z_1269 <= 1
 0 <= z_1270 <= 1
 0 <= z_1271 <= 1
 0 <= z_1272 <= 1
 0 <= z_1273 <= 1
 0 <= z_1274 <= 1
 0 <= z_1275 <= 1
 0 <= z_1276 <= 1
 0 <= z_1277 <= 1
 0 <= z_1278 <= 1
 0 <= z_1279 <= 1
 0 <= z_1280 <= 1
 0 <= z_1281 <= 1
 0 <= z_1282 <= 1
 0 <= z_1283 <= 1
 0 <= z_1284 <= 1
 0 <= z_1285 <= 1
 0 <= z_1286 <= 1
 0 <= z_1287 <= 1
 0 <= z_1288 <= 1
 0 <= z_1289 <= 1
 0 <= z_1290 <= 1
 0 <= z_1291 <= 1
 0 <= z_1292 <= 1
 0 <= z_1293 <= 1
 0 <= z_1294 <= 1
 0 <= z_1295 <= 1
 0 <= z_1296 <= 1
 0 <= z_1297 <= 1
 0 <= z_1298 <= 1
 0 <= z_1299 <= 1
 0 <= z_1300 <= 1
 0 <= z_1301 <= 1
 0 <= z_1302 <= 1
 0 <= z_1303 <= 1
 0 <= z_1304 <= 1
 0 <= z_1305 <= 1
 0 <= z_1306 <= 1
 0 <= z_1307 <= 1
 0 <= z_1308 <= 1
 0 <= z_1309 <= 1
 0 <= z_1310 <= 1
 0 <= z_1311 <= 1
 0 <= z_1312 <= 1
 0 <= z_1313 <= 1
 0 <= z_1314 <= 1
 0 <= z_1315 <= 1
 0 <= z_1316 <= 1
 0 <= z_1317 <= 1
 0 <= z_1318 <= 1
 0 <= z_1319 <= 1
 0 <= z_1320 <= 1
 0 <= z_1321 <= 1
 0 <= z_1322 <= 1
 0 <= z_1323 <= 1
 0 <= z_1324 <= 1
 0 <= z_1325 <= 1
 0 <= z_1326 <= 1
 0 <= z_1327 <= 1
 0 <= z_1328 <= 1
 0 <= z_1329 <= 1
 0 <= z_1330 <= 1
 0 <= z_1331 <= 1
 0 <= z_1332 <= 1
 0 <= z_1333 <= 1
 0 <= z_1334 <= 1
 0 <= z_1335 <= 1
 0 <= z_1336 <= 1
 0 <= z_1337 <= 1
 0 <= z_1338 <= 1
 0 <= z_1339 <= 1
 0 <= z_1340 <= 1
 0 <= z_1341 <= 1
 0 <= z_1342 <= 1
 0 <= z_1343 <= 1
 0 <= z_1344 <= 1
 0 <= z_1345 <= 1
 0 <= z_1346 <= 1
 0 <= z_1347 <= 1
 0 <= z_1348 <= 1
 0 <= z_1349 <= 1
 0 <= z_1350 <= 1
 0 <= z_1351 <= 1
 0 <= z_1352 <= 1
 0 <= z_1353 <= 1
 0 <= z_1354 <= 1
 0 <= z_1355 <= 1
 0 <= z_1356 <= 1
 0 <= z_1357 <= 1
 0 <= z_1358 <= 1
 0 <= z_1359 <= 1
 0 <= z_1360 <= 1
 0 <= z_1361 <= 1
 0 <= z_1362 <= 1
 0 <= z_1363 <= 1
 0 <= z_1364 <= 1
 0 <= z_1365 <= 1
 0 <= z_1366 <= 1
 0 <= z_1367 <= 1
 0 <= z_1368 <= 1
 0 <= z_1369 <= 1
 0 <= z_1370 <= 1
 0 <= z_1371 <= 1
 0 <= z_1372 <= 1
 0 <= z_1373 <= 1
 0 <= z_1374 <= 1
 0 <= z_1375 <= 1
 0 <= z_1376 <= 1
 0 <= z_1377 <= 1
 0 <= z_1378 <= 1
 0 <= z_1379 <= 1
 0 <= z_1380 <= 1
 0 <= z_1381 <= 1
 0 <= z_1382 <= 1
 0 <= z_1383 <= 1
 0 <= z_1384 <= 1
 0 <= z_1385 <= 1
 0 <= z_1386 <= 1
 0 <= z_1387 <= 1
 0 <= z_1388 <= 1
 0 <= z_1389 <= 1
 0 <= z_1390 <= 1
 0 <= z_1391 <= 1
 0 <= z_1392 <= 1
 0 <= z_1393 <= 1
 0 <= z_1394 <= 1
 0 <= z_1395 <= 1
 0 <= z_1396 <= 1
 0 <= z_1397 <= 1
 0 <= z_1398 <= 1
 0 <= z_1399 <= 1
 0 <= z_1400 <= 1
 0 <= z_1401 <= 1
 0 <= z_1402 <= 1
 0 <= z_1403 <= 1
 0 <= z_1404 <= 1
 0 <= z_1405 <= 1
 0 <= z_1406 <= 1
 0 <= z_1407 <= 1
 0 <= z_1408 <= 1
 0 <= z_1409 <= 1
 0 <= z_1410 <= 1
 0 <= z_1411 <= 1
 0 <= z_1412 <= 1
 0 <= z_1413 <= 1
 0 <= z_1414 <= 1
 0 <= z_1415 <= 1
 0 <= z_1416 <= 1
 0 <= z_1417 <= 1
 0 <= z_1418 <= 1
 0 <= z_1419 <= 1
 0 <= z_1420 <= 1
 0 <= z_1421 <= 1
 0 <= z_1422 <= 1
 0 <= z_1423 <= 1
 0 <= z_1424 <= 1
 0 <= z_1425 <= 1
 0 <= z_1426 <= 1
 0 <= z_1427 <= 1
 0 <= z_1428 <= 1
 0 <= z_1429 <= 1
 0 <= z_1430 <= 1
 0 <= z_1431 <= 1
 0 <= z_1432 <= 1
 0 <= z_1433 <= 1
 0 <= z_1434 <= 1
 0 <= z_1435 <= 1
 0 <= z_1436 <= 1
 0 <= z_1437 <= 1
 0 <= z_1438 <= 1
 0 <= z_1439 <= 1
 0 <= z_1440 <= 1
 0 <= z_1441 <= 1
 0 <= z_1442 <= 1
 0 <= z_1443 <= 1
 0 <= z_1444 <= 1
 0 <= z_1445 <= 1
 0 <= z_1446 <= 1
 0 <= z_1447 <= 1
 0 <= z_1448 <= 1
 0 <= z_1449 <= 1
 0 <= z_1450 <= 1
 0 <= z_1451 <= 1
 0 <= z_1452 <= 1
 0 <= z_1453 <= 1
 0 <= z_1454 <= 1
 0 <= z_1455 <= 1
 0 <= z_1456 <= 1
 0 <= z_1457 <= 1
 0 <= z_1458 <= 1
 0 <= z_1459 <= 1
 0 <= z_1460 <= 1
 0 <= z_1461 <= 1
 0 <= z_1462 <= 1
 0 <= z_1463 <= 1
 0 <= z_1464 <= 1
 0 <= z_1465 <= 1
 0 <= z_1466 <= 1
 0 <= z_1467 <= 1
 0 <= z_1468 <= 1
 0 <= z_1469 <= 1
 0 <= z_1470 <= 1
 0 <= z_1471 <= 1
 0 <= z_1472 <= 1
 0 <= z_1473 <= 1
 0 <= z_1474 <= 1
 0 <= z_1475 <= 1
 0 <= z_1476 <= 1
 0 <= z_1477 <= 1
 0 <= z_1478 <= 1
 0 <= z_1479 <= 1
 0 <= z_1480 <= 1
 0 <= z_1481 <= 1
 0 <= z_1482 <= 1
 0 <= z_1483 <= 1
 0 <= z_1484 <= 1
 0 <= z_1485 <= 1
 0 <= z_1486 <= 1
 0 <= z_1487 <= 1
 0 <= z_1488 <= 1
 0 <= z_1489 <= 1
 0 <= z_1490 <= 1
 0 <= z_1491 <= 1
 0 <= z_1492 <= 1
 0 <= z_1493 <= 1
 0 <= z_1494 <= 1
 0 <= z_1495 <= 1
 0 <= z_1496 <= 1
 0 <= z_1497 <= 1
 0 <= z_1498 <= 1
 0 <= z_1499 <= 1
 0 <= z_1500 <= 1
 0 <= z_1501 <= 1
 0 <= z_1502 <= 1
 0 <= z_1503 <= 1
 0 <= z_1504 <= 1
 0 <= z_1505 <= 1
 0 <= z_1506 <= 1
 0 <= z_1507 <= 1
 0 <= z_1508 <= 1
 0 <= z_1509 <= 1
 0 <= z_1510 <= 1
 0 <= z_1511 <= 1
 0 <= z_1512 <= 1
 0 <= z_1513 <= 1
 0 <= z_1514 <= 1
 0 <= z_1515 <= 1
 0 <= z_1516 <= 1
 0 <= z_1517 <= 1
 0 <= z_1518 <= 1
 0 <= z_1519 <= 1
 0 <= z_1520 <= 1
 0 <= z_1521 <= 1
 0 <= z_1522 <= 1
 0 <= z_1523 <= 1
 0 <= z_1524 <= 1
 0 <= z_1525 <= 1
 0 <= z_1526 <= 1
 0 <= z_1527 <= 1
 0 <= z_1528 <= 1
 0 <= z_1529 <= 1
 0 <= z_1530 <= 1
 0 <= z_1531 <= 1
 0 <= z_1532 <= 1
 0 <= z_1533 <= 1
 0 <= z_1534 <= 1
 0 <= z_1535 <= 1
 0 <= z_1536 <= 1
 0 <= z_1537 <= 1
 0 <= z_1538 <= 1
 0 <= z_1539 <= 1
 0 <= z_1540 <= 1
 0 <= z_1541 <= 1
 0 <= z_1542 <= 1
 0 <= z_1543 <= 1
 0 <= z_1544 <= 1
 0 <= z_1545 <= 1
 0 <= z_1546 <= 1
 0 <= z_1547 <= 1
 0 <= z_1548 <= 1
 0 <= z_1549 <= 1
 0 <= z_1550 <= 1
 0 <= z_1551 <= 1
 0 <= z_1552 <= 1
 0 <= z_1553 <= 1
 0 <= z_1554 <= 1
 0 <= z_1555 <= 1
 0 <= z_1556 <= 1
 0 <= z_1557 <= 1
 0 <= z_1558 <= 1
 0 <= z_1559 <= 1
 0 <= z_1560 <= 1
 0 <= z_1561 <= 1
 0 <= z_1562 <= 1
 0 <= z_1563 <= 1
 0 <= z_1564 <= 1
 0 <= z_1565 <= 1
 0 <= z_1566 <= 1
 0 <= z_1567 <= 1
 0 <= z_1568 <= 1
 0 <= z_1569 <= 1
 0 <= z_1570 <= 1
 0 <= z_1571 <= 1
 0 <= z_1572 <= 1
 0 <= z_1573 <= 1
 0 <= z_1574 <= 1
 0 <= z_1575 <= 1
 0 <= z_1576 <= 1
 0 <= z_1577 <= 1
 0 <= z_1578 <= 1
 0 <= z_1579 <= 1
 0 <= z_1580 <= 1
 0 <= z_1581 <= 1
 0 <= z_1582 <= 1
 0 <= z_1583 <= 1
 0 <= z_1584 <= 1
 0 <= z_1585 <= 1
 0 <= z_1586 <= 1
 0 <= z_1587 <= 1
 0 <= z_1588 <= 1
 0 <= z_1589 <= 1
 0 <= z_1590 <= 1
 0 <= z_1591 <= 1
 0 <= z_1592 <= 1
 0 <= z_1593 <= 1
 0 <= z_1594 <= 1
 0 <= z_1595 <= 1
 0 <= z_1596 <= 1
 0 <= z_1597 <= 1
 0 <= z_1598 <= 1
 0 <= z_1599 <= 1
 0 <= z_1600 <= 1
 0 <= z_1601 <= 1
 0 <= z_1602 <= 1
 0 <= z_1603 <= 1
 0 <= z_1604 <= 1
 0 <= z_1605 <= 1
 0 <= z_1606 <= 1
 0 <= z_1607 <= 1
 0 <= z_1608 <= 1
 0 <= z_1609 <= 1
 0 <= z_1610 <= 1
 0 <= z_1611 <= 1
 0 <= z_1612 <= 1
 0 <= z_1613 <= 1
 0 <= z_1614 <= 1
 0 <= z_1615 <= 1
 0 <= z_1616 <= 1
 0 <= z_1617 <= 1
 0 <= z_1618 <= 1
 0 <= z_1619 <= 1
 0 <= z_1620 <= 1
 0 <= z_1621 <= 1
 0 <= z_1622 <= 1
 0 <= z_1623 <= 1
 0 <= z_1624 <= 1
 0 <= z_1625 <= 1
 0 <= z_1626 <= 1
 0 <= z_1627 <= 1
 0 <= z_1628 <= 1
 0 <= z_1629 <= 1
 0 <= z_1630 <= 1
 0 <= z_1631 <= 1
 0 <= z_1632 <= 1
 0 <= z_1633 <= 1
 0 <= z_1634 <= 1
 0 <= z_1635 <= 1
 0 <= z_1636 <= 1
 0 <= z_1637 <= 1
 0 <= z_1638 <= 1
 0 <= z_1639 <= 1
 0 <= z_1640 <= 1
 0 <= z_1641 <= 1
 0 <= z_1642 <= 1
 0 <= z_1643 <= 1
 0 <= z_1644 <= 1
 0 <= z_1645 <= 1
 0 <= z_1646 <= 1
 0 <= z_1647 <= 1
 0 <= z_1648 <= 1
 0 <= z_1649 <= 1
 0 <= z_1650 <= 1
 0 <= z_1651 <= 1
 0 <= z_1652 <= 1
 0 <= z_1653 <= 1
 0 <= z_1654 <= 1
 0 <= z_1655 <= 1
 0 <= z_1656 <= 1
 0 <= z_1657 <= 1
 0 <= z_1658 <= 1
 0 <= z_1659 <= 1
 0 <= z_1660 <= 1
 0 <= z_1661 <= 1
 0 <= z_1662 <= 1
 0 <= z_1663 <= 1
 0 <= z_1664 <= 1
 0 <= z_1665 <= 1
 0 <= z_1666 <= 1
 0 <= z_1667 <= 1
 0 <= z_1668 <= 1
 0 <= z_1669 <= 1
 0 <= z_1670 <= 1
 0 <= z_1671 <= 1
 0 <= z_1672 <= 1
 0 <= z_1673 <= 1
 0 <= z_1674 <= 1
 0 <= z_1675 <= 1
 0 <= z_1676 <= 1
 0 <= z_1677 <= 1
 0 <= z_1678 <= 1
 0 <= z_1679 <= 1
 0 <= z_1680 <= 1
 0 <= z_1681 <= 1
 0 <= z_1682 <= 1
 0 <= z_1683 <= 1
 0 <= z_1684 <= 1
 0 <= z_1685 <= 1
 0 <= z_1686 <= 1
 0 <= z_1687 <= 1
 0 <= z_1688 <= 1
 0 <= z_1689 <= 1
 0 <= z_1690 <= 1
 0 <= z_1691 <= 1
 0 <= z_1692 <= 1
 0 <= z_1693 <= 1
 0 <= z_1694 <= 1
 0 <= z_1695 <= 1
 0 <= z_1696 <= 1
 0 <= z_1697 <= 1
 0 <= z_1698 <= 1
 0 <= z_1699 <= 1
 0 <= z_1700 <= 1
 0 <= z_1701 <= 1
 0 <= z_1702 <= 1
 0 <= z_1703 <= 1
 0 <= z_1704 <= 1
 0 <= z_1705 <= 1
 0 <= z_1706 <= 1
 0 <= z_1707 <= 1
 0 <= z_1708 <= 1
 0 <= z_1709 <= 1
 0 <= z_1710 <= 1
 0 <= z_1711 <= 1
 0 <= z_1712 <= 1
 0 <= z_1713 <= 1
 0 <= z_1714 <= 1
 0 <= z_1715 <= 1
 0 <= z_1716 <= 1
 0 <= z_1717 <= 1
 0 <= z_1718 <= 1
 0 <= z_1719 <= 1
 0 <= z_1720 <= 1
 0 <= z_1721 <= 1
 0 <= z_1722 <= 1
 0 <= z_1723 <= 1
 0 <= z_1724 <= 1
 0 <= z_1725 <= 1
 0 <= z_1726 <= 1
 0 <= z_1727 <= 1
 0 <= z_1728 <= 1
 0 <= z_1729 <= 1
 0 <= z_1730 <= 1
 0 <= z_1731 <= 1
 0 <= z_1732 <= 1
 0 <= z_1733 <= 1
 0 <= z_1734 <= 1
 0 <= z_1735 <= 1
 0 <= z_1736 <= 1
 0 <= z_1737 <= 1
 0 <= z_1738 <= 1
 0 <= z_1739 <= 1
 0 <= z_1740 <= 1
 0 <= z_1741 <= 1
 0 <= z_1742 <= 1
 0 <= z_1743 <= 1
 0 <= z_1744 <= 1
 0 <= z_1745 <= 1
 0 <= z_1746 <= 1
 0 <= z_1747 <= 1
 0 <= z_1748 <= 1
 0 <= z_1749 <= 1
 0 <= z_1750 <= 1
 0 <= z_1751 <= 1
 0 <= z_1752 <= 1
 0 <= z_1753 <= 1
 0 <= z_1754 <= 1
 0 <= z_1755 <= 1
 0 <= z_1756 <= 1
 0 <= z_1757 <= 1
 0 <= z_1758 <= 1
 0 <= z_1759 <= 1
 0 <= z_1760 <= 1
 0 <= z_1761 <= 1
 0 <= z_1762 <= 1
 0 <= z_1763 <= 1
 0 <= z_1764 <= 1
 0 <= z_1765 <= 1
 0 <= z_1766 <= 1
 0 <= z_1767 <= 1
 0 <= z_1768 <= 1
 0 <= z_1769 <= 1
 0 <= z_1770 <= 1
 0 <= z_1771 <= 1
 0 <= z_1772 <= 1
 0 <= z_1773 <= 1
 0 <= z_1774 <= 1
 0 <= z_1775 <= 1
 0 <= z_1776 <= 1
 0 <= z_1777 <= 1
 0 <= z_1778 <= 1
 0 <= z_1779 <= 1
 0 <= z_1780 <= 1
 0 <= z_1781 <= 1
 0 <= z_1782 <= 1
 0 <= z_1783 <= 1
 0 <= z_1784 <= 1
 0 <= z_1785 <= 1
 0 <= z_1786 <= 1
 0 <= z_1787 <= 1
 0 <= z_1788 <= 1
 0 <= z_1789 <= 1
 0 <= z_1790 <= 1
 0 <= z_1791 <= 1
 0 <= z_1792 <= 1
 0 <= z_1793 <= 1
 0 <= z_1794 <= 1
 0 <= z_1795 <= 1
 0 <= z_1796 <= 1
 0 <= z_1797 <= 1
 0 <= z_1798 <= 1
 0 <= z_1799 <= 1
 0 <= z_1800 <= 1
 0 <= z_1801 <= 1
 0 <= z_1802 <= 1
 0 <= z_1803 <= 1
 0 <= z_1804 <= 1
 0 <= z_1805 <= 1
 0 <= z_1806 <= 1
 0 <= z_1807 <= 1
 0 <= z_1808 <= 1
 0 <= z_1809 <= 1
 0 <= z_1810 <= 1
 0 <= z_1811 <= 1
 0 <= z_1812 <= 1
 0 <= z_1813 <= 1
 0 <= z_1814 <= 1
 0 <= z_1815 <= 1
 0 <= z_1816 <= 1
 0 <= z_1817 <= 1
 0 <= z_1818 <= 1
 0 <= z_1819 <= 1
 0 <= z_1820 <= 1
 0 <= z_1821 <= 1
 0 <= z_1822 <= 1
 0 <= z_1823 <= 1
 0 <= z_1824 <= 1
 0 <= z_1825 <= 1
 0 <= z_1826 <= 1
 0 <= z_1827 <= 1
 0 <= z_1828 <= 1
 0 <= z_1829 <= 1
 0 <= z_1830 <= 1
 0 <= z_1831 <= 1
 0 <= z_1832 <= 1
 0 <= z_1833 <= 1
 0 <= z_1834 <= 1
 0 <= z_1835 <= 1
 0 <= z_1836 <= 1
 0 <= z_1837 <= 1
 0 <= z_1838 <= 1
 0 <= z_1839 <= 1
 0 <= z_1840 <= 1
 0 <= z_1841 <= 1
 0 <= z_1842 <= 1
 0 <= z_1843 <= 1
 0 <= z_1844 <= 1
 0 <= z_1845 <= 1
 0 <= z_1846 <= 1
 0 <= z_1847 <= 1
 0 <= z_1848 <= 1
 0 <= z_1849 <= 1
 0 <= z_1850 <= 1
 0 <= z_1851 <= 1
 0 <= z_1852 <= 1
 0 <= z_1853 <= 1
 0 <= z_1854 <= 1
 0 <= z_1855 <= 1
 0 <= z_1856 <= 1
 0 <= z_1857 <= 1
 0 <= z_1858 <= 1
 0 <= z_1859 <= 1
 0 <= z_1860 <= 1
 0 <= z_1861 <= 1
 0 <= z_1862 <= 1
 0 <= z_1863 <= 1
 0 <= z_1864 <= 1
 0 <= z_1865 <= 1
 0 <= z_1866 <= 1
 0 <= z_1867 <= 1
 0 <= z_1868 <= 1
 0 <= z_1869 <= 1
 0 <= z_1870 <= 1
 0 <= z_1871 <= 1
 0 <= z_1872 <= 1
 0 <= z_1873 <= 1
 0 <= z_1874 <= 1
 0 <= z_1875 <= 1
 0 <= z_1876 <= 1
 0 <= z_1877 <= 1
 0 <= z_1878 <= 1
 0 <= z_1879 <= 1
 0 <= z_1880 <= 1
 0 <= z_1881 <= 1
 0 <= z_1882 <= 1
 0 <= z_1883 <= 1
 0 <= z_1884 <= 1
 0 <= z_1885 <= 1
 0 <= z_1886 <= 1
 0 <= z_1887 <= 1
 0 <= z_1888 <= 1
 0 <= z_1889 <= 1
 0 <= z_1890 <= 1
 0 <= z_1891 <= 1
 0 <= z_1892 <= 1
 0 <= z_1893 <= 1
 0 <= z_1894 <= 1
 0 <= z_1895 <= 1
 0 <= z_1896 <= 1
 0 <= z_1897 <= 1
 0 <= z_1898 <= 1
 0 <= z_1899 <= 1
 0 <= z_1900 <= 1
 0 <= z_1901 <= 1
 0 <= z_1902 <= 1
 0 <= z_1903 <= 1
 0 <= z_1904 <= 1
 0 <= z_1905 <= 1
 0 <= z_1906 <= 1
 0 <= z_1907 <= 1
 0 <= z_1908 <= 1
 0 <= z_1909 <= 1
 0 <= z_1910 <= 1
 0 <= z_1911 <= 1
 0 <= z_1912 <= 1
 0 <= z_1913 <= 1
 0 <= z_1914 <= 1
 0 <= z_1915 <= 1
 0 <= z_1916 <= 1
 0 <= z_1917 <= 1
 0 <= z_1918 <= 1
 0 <= z_1919 <= 1
 0 <= z_1920 <= 1
 0 <= z_1921 <= 1
 0 <= z_1922 <= 1
 0 <= z_1923 <= 1
 0 <= z_1924 <= 1
 0 <= z_1925 <= 1
 0 <= z_1926 <= 1
 0 <= z_1927 <= 1
 0 <= z_1928 <= 1
 0 <= z_1929 <= 1
 0 <= z_1930 <= 1
 0 <= z_1931 <= 1
 0 <= z_1932 <= 1
 0 <= z_1933 <= 1
 0 <= z_1934 <= 1
 0 <= z_1935 <= 1
 0 <= z_1936 <= 1
 0 <= z_1937 <= 1
 0 <= z_1938 <= 1
 0 <= z_1939 <= 1
 0 <= z_1940 <= 1
 0 <= z_1941 <= 1
 0 <= z_1942 <= 1
 0 <= z_1943 <= 1
 0 <= z_1944 <= 1
 0 <= z_1945 <= 1
 0 <= z_1946 <= 1
 0 <= z_1947 <= 1
 0 <= z_1948 <= 1
 0 <= z_1949 <= 1
 0 <= z_1950 <= 1
 0 <= z_1951 <= 1
 0 <= z_1952 <= 1
 0 <= z_1953 <= 1
 0 <= z_1954 <= 1
 0 <= z_1955 <= 1
 0 <= z_1956 <= 1
 0 <= z_1957 <= 1
 0 <= z_1958 <= 1
 0 <= z_1959 <= 1
 0 <= z_1960 <= 1
 0 <= z_1961 <= 1
 0 <= z_1962 <= 1
 0 <= z_1963 <= 1
 0 <= z_1964 <= 1
 0 <= z_1965 <= 1
 0 <= z_1966 <= 1
 0 <= z_1967 <= 1
 0 <= z_1968 <= 1
 0 <= z_1969 <= 1
 0 <= z_1970 <= 1
 0 <= z_1971 <= 1
 0 <= z_1972 <= 1
 0 <= z_1973 <= 1
 0 <= z_1974 <= 1
 0 <= z_1975 <= 1
 0 <= z_1976 <= 1
 0 <= z_1977 <= 1
 0 <= z_1978 <= 1
 0 <= z_1979 <= 1
 0 <= z_1980 <= 1
 0 <= z_1981 <= 1
 0 <= z_1982 <= 1
 0 <= z_1983 <= 1
 0 <= z_1984 <= 1
 0 <= z_1985 <= 1
 0 <= z_1986 <= 1
 0 <= z_1987 <= 1
 0 <= z_1988 <= 1
 0 <= z_1989 <= 1
 0 <= z_1990 <= 1
 0 <= z_1991 <= 1
 0 <= z_1992 <= 1
 0 <= z_1993 <= 1
 0 <= z_1994 <= 1
 0 <= z_1995 <= 1
 0 <= z_1996 <= 1
 0 <= z_1997 <= 1
 0 <= z_1998 <= 1
 0 <= z_1999 <= 1
 0 <= z_2000 <= 1
 0 <= z_2001 <= 1
 0 <= z_2002 <= 1
 0 <= z_2003 <= 1
 0 <= z_2004 <= 1
 0 <= z_2005 <= 1
 0 <= z_2006 <= 1
 0 <= z_2007 <= 1
 0 <= z_2008 <= 1
 0 <= z_2009 <= 1
 0 <= z_2010 <= 1
 0 <= z_2011 <= 1
 0 <= z_2012 <= 1
 0 <= z_2013 <= 1
 0 <= z_2014 <= 1
 0 <= z_2015 <= 1
 0 <= z_2016 <= 1
 0 <= z_2017 <= 1
 0 <= z_2018 <= 1
 0 <= z_2019 <= 1
 0 <= z_2020 <= 1
 0 <= z_2021 <= 1
 0 <= z_2022 <= 1
 0 <= z_2023 <= 1
 0 <= z_2024 <= 1
 0 <= z_2025 <= 1
 0 <= z_2026 <= 1
 0 <= z_2027 <= 1
 0 <= z_2028 <= 1
 0 <= z_2029 <= 1
 0 <= z_2030 <= 1
 0 <= z_2031 <= 1
 0 <= z_2032 <= 1
 0 <= z_2033 <= 1
 0 <= z_2034 <= 1
 0 <= z_2035 <= 1
 0 <= z_2036 <= 1
 0 <= z_2037 <= 1
 0 <= z_2038 <= 1
 0 <= z_2039 <= 1
 0 <= z_2040 <= 1
 0 <= z_2041 <= 1
 0 <= z_2042 <= 1
 0 <= z_2043 <= 1
 0 <= z_2044 <= 1
 0 <= z_2045 <= 1
 0 <= z_2046 <= 1
 0 <= z_2047 <= 1
 0 <= z_2048 <= 1
 0 <= z_2049 <= 1
 0 <= z_2050 <= 1
 0 <= z_2051 <= 1
 0 <= z_2052 <= 1
 0 <= z_2053 <= 1
 0 <= z_2054 <= 1
 0 <= z_2055 <= 1
 0 <= z_2056 <= 1
 0 <= z_2057 <= 1
 0 <= z_2058 <= 1
 0 <= z_2059 <= 1
 0 <= z_2060 <= 1
 0 <= z_2061 <= 1
 0 <= z_2062 <= 1
 0 <= z_2063 <= 1
 0 <= z_2064 <= 1
 0 <= z_2065 <= 1
 0 <= z_2066 <= 1
 0 <= z_2067 <= 1
 0 <= z_2068 <= 1
 0 <= z_2069 <= 1
 0 <= z_2070 <= 1
 0 <= z_2071 <= 1
 0 <= z_2072 <= 1
 0 <= z_2073 <= 1
 0 <= z_2074 <= 1
 0 <= z_2075 <= 1
 0 <= z_2076 <= 1
 0 <= z_2077 <= 1
 0 <= z_2078 <= 1
 0 <= z_2079 <= 1
 0 <= z_2080 <= 1
 0 <= z_2081 <= 1
 0 <= z_2082 <= 1
 0 <= z_2083 <= 1
 0 <= z_2084 <= 1
 0 <= z_2085 <= 1
 0 <= z_2086 <= 1
 0 <= z_2087 <= 1
 0 <= z_2088 <= 1
 0 <= z_2089 <= 1
 0 <= z_2090 <= 1
 0 <= z_2091 <= 1
 0 <= z_2092 <= 1
 0 <= z_2093 <= 1
 0 <= z_2094 <= 1
 0 <= z_2095 <= 1
 0 <= z_2096 <= 1
 0 <= z_2097 <= 1
 0 <= z_2098 <= 1
 0 <= z_2099 <= 1
 0 <= z_2100 <= 1
 0 <= z_2101 <= 1
 0 <= z_2102 <= 1
 0 <= z_2103 <= 1
 0 <= z_2104 <= 1
 0 <= z_2105 <= 1
 0 <= z_2106 <= 1
 0 <= z_2107 <= 1
 0 <= z_2108 <= 1
 0 <= z_2109 <= 1
 0 <= z_2110 <= 1
 0 <= z_2111 <= 1
 0 <= z_2112 <= 1
 0 <= z_2113 <= 1
 0 <= z_2114 <= 1
 0 <= z_2115 <= 1
 0 <= z_2116 <= 1
 0 <= z_2117 <= 1
 0 <= z_2118 <= 1
 0 <= z_2119 <= 1
 0 <= z_2120 <= 1
 0 <= z_2121 <= 1
 0 <= z_2122 <= 1
 0 <= z_2123 <= 1
 0 <= z_2124 <= 1
 0 <= z_2125 <= 1
 0 <= z_2126 <= 1
 0 <= z_2127 <= 1
 0 <= z_2128 <= 1
 0 <= z_2129 <= 1
 0 <= z_2130 <= 1
 0 <= z_2131 <= 1
 0 <= z_2132 <= 1
 0 <= z_2133 <= 1
 0 <= z_2134 <= 1
 0 <= z_2135 <= 1
 0 <= z_2136 <= 1
 0 <= z_2137 <= 1
 0 <= z_2138 <= 1
 0 <= z_2139 <= 1
 0 <= z_2140 <= 1
 0 <= z_2141 <= 1
 0 <= z_2142 <= 1
 0 <= z_2143 <= 1
 0 <= z_2144 <= 1
 0 <= z_2145 <= 1
 0 <= z_2146 <= 1
 0 <= z_2147 <= 1
 0 <= z_2148 <= 1
 0 <= z_2149 <= 1
 0 <= z_2150 <= 1
 0 <= z_2151 <= 1
 0 <= z_2152 <= 1
 0 <= z_2153 <= 1
 0 <= z_2154 <= 1
 0 <= z_2155 <= 1
 0 <= z_2156 <= 1
 0 <= z_2157 <= 1
 0 <= z_2158 <= 1
 0 <= z_2159 <= 1
 0 <= z_2160 <= 1
 0 <= z_2161 <= 1
 0 <= z_2162 <= 1
 0 <= z_2163 <= 1
 0 <= z_2164 <= 1
 0 <= z_2165 <= 1
 0 <= z_2166 <= 1
 0 <= z_2167 <= 1
 0 <= z_2168 <= 1
 0 <= z_2169 <= 1
 0 <= z_2170 <= 1
 0 <= z_2171 <= 1
 0 <= z_2172 <= 1
 0 <= z_2173 <= 1
 0 <= z_2174 <= 1
 0 <= z_2175 <= 1
 0 <= z_2176 <= 1
 0 <= z_2177 <= 1
 0 <= z_2178 <= 1
 0 <= z_2179 <= 1
 0 <= z_2180 <= 1
 0 <= z_2181 <= 1
 0 <= z_2182 <= 1
 0 <= z_2183 <= 1
 0 <= z_2184 <= 1
 0 <= z_2185 <= 1
 0 <= z_2186 <= 1
 0 <= z_2187 <= 1
 0 <= z_2188 <= 1
 0 <= z_2189 <= 1
 0 <= z_2190 <= 1
 0 <= z_2191 <= 1
 0 <= z_2192 <= 1
 0 <= z_2193 <= 1
 0 <= z_2194 <= 1
 0 <= z_2195 <= 1
 0 <= z_2196 <= 1
 0 <= z_2197 <= 1
 0 <= z_2198 <= 1
 0 <= z_2199 <= 1
 0 <= z_2200 <= 1
 0 <= z_2201 <= 1
 0 <= z_2202 <= 1
 0 <= z_2203 <= 1
 0 <= z_2204 <= 1
 0 <= z_2205 <= 1
 0 <= z_2206 <= 1
 0 <= z_2207 <= 1
 0 <= z_2208 <= 1
 0 <= z_2209 <= 1
 0 <= z_2210 <= 1
 0 <= z_2211 <= 1
 0 <= z_2212 <= 1
 0 <= z_2213 <= 1
 0 <= z_2214 <= 1
 0 <= z_2215 <= 1
 0 <= z_2216 <= 1
 0 <= z_2217 <= 1
 0 <= z_2218 <= 1
 0 <= z_2219 <= 1
 0 <= z_2220 <= 1
 0 <= z_2221 <= 1
 0 <= z_2222 <= 1
 0 <= z_2223 <= 1
 0 <= z_2224 <= 1
 0 <= z_2225 <= 1
 0 <= z_2226 <= 1
 0 <= z_2227 <= 1
 0 <= z_2228 <= 1
 0 <= z_2229 <= 1
 0 <= z_2230 <= 1
 0 <= z_2231 <= 1
 0 <= z_2232 <= 1
 0 <= z_2233 <= 1
 0 <= z_2234 <= 1
 0 <= z_2235 <= 1
 0 <= z_2236 <= 1
 0 <= z_2237 <= 1
 0 <= z_2238 <= 1
 0 <= z_2239 <= 1
 0 <= z_2240 <= 1
 0 <= z_2241 <= 1
 0 <= z_2242 <= 1
 0 <= z_2243 <= 1
 0 <= z_2244 <= 1
 0 <= z_2245 <= 1
 0 <= z_2246 <= 1
 0 <= z_2247 <= 1
 0 <= z_2248 <= 1
 0 <= z_2249 <= 1
 0 <= z_2250 <= 1
 0 <= z_2251 <= 1
 0 <= z_2252 <= 1
 0 <= z_2253 <= 1
 0 <= z_2254 <= 1
 0 <= z_2255 <= 1
 0 <= z_2256 <= 1
 0 <= z_2257 <= 1
 0 <= z_2258 <= 1
 0 <= z_2259 <= 1
 0 <= z_2260 <= 1
 0 <= z_2261 <= 1
 0 <= z_2262 <= 1
 0 <= z_2263 <= 1
 0 <= z_2264 <= 1
 0 <= z_2265 <= 1
 0 <= z_2266 <= 1
 0 <= z_2267 <= 1
 0 <= z_2268 <= 1
 0 <= z_2269 <= 1
 0 <= z_2270 <= 1
 0 <= z_2271 <= 1
 0 <= z_2272 <= 1
 0 <= z_2273 <= 1
 0 <= z_2274 <= 1
 0 <= z_2275 <= 1
 0 <= z_2276 <= 1
 0 <= z_2277 <= 1
 0 <= z_2278 <= 1
 0 <= z_2279 <= 1
 0 <= z_2280 <= 1
 0 <= z_2281 <= 1
 0 <= z_2282 <= 1
 0 <= z_2283 <= 1
 0 <= z_2284 <= 1
 0 <= z_2285 <= 1
 0 <= z_2286 <= 1
 0 <= z_2287 <= 1
 0 <= z_2288 <= 1
 0 <= z_2289 <= 1
 0 <= z_2290 <= 1
 0 <= z_2291 <= 1
 0 <= z_2292 <= 1
 0 <= z_2293 <= 1
 0 <= z_2294 <= 1
 0 <= z_2295 <= 1
 0 <= z_2296 <= 1
 0 <= z_2297 <= 1
 0 <= z_2298 <= 1
 0 <= z_2299 <= 1
 0 <= z_2300 <= 1
 0 <= z_2301 <= 1
 0 <= z_2302 <= 1
 0 <= z_2303 <= 1
 0 <= z_2304 <= 1
 0 <= z_2305 <= 1
 0 <= z_2306 <= 1
 0 <= z_2307 <= 1
 0 <= z_2308 <= 1
 0 <= z_2309 <= 1
 0 <= z_2310 <= 1
 0 <= z_2311 <= 1
 0 <= z_2312 <= 1
 0 <= z_2313 <= 1
 0 <= z_2314 <= 1
 0 <= z_2315 <= 1
 0 <= z_2316 <= 1
 0 <= z_2317 <= 1
 0 <= z_2318 <= 1
 0 <= z_2319 <= 1
 0 <= z_2320 <= 1
 0 <= z_2321 <= 1
 0 <= z_2322 <= 1
 0 <= z_2323 <= 1
 0 <= z_2324 <= 1
 0 <= z_2325 <= 1
 0 <= z_2326 <= 1
 0 <= z_2327 <= 1
 0 <= z_2328 <= 1
 0 <= z_2329 <= 1
 0 <= z_2330 <= 1
 0 <= z_2331 <= 1
 0 <= z_2332 <= 1
 0 <= z_2333 <= 1
 0 <= z_2334 <= 1
 0 <= z_2335 <= 1
 0 <= z_2336 <= 1
 0 <= z_2337 <= 1
 0 <= z_2338 <= 1
 0 <= z_2339 <= 1
 0 <= z_2340 <= 1
 0 <= z_2341 <= 1
 0 <= z_2342 <= 1
 0 <= z_2343 <= 1
 0 <= z_2344 <= 1
 0 <= z_2345 <= 1
 0 <= z_2346 <= 1
 0 <= z_2347 <= 1
 0 <= z_2348 <= 1
 0 <= z_2349 <= 1
 0 <= z_2350 <= 1
 0 <= z_2351 <= 1
 0 <= z_2352 <= 1
 0 <= z_2353 <= 1
 0 <= z_2354 <= 1
 0 <= z_2355 <= 1
 0 <= z_2356 <= 1
 0 <= z_2357 <= 1
 0 <= z_2358 <= 1
 0 <= z_2359 <= 1
 0 <= z_2360 <= 1
 0 <= z_2361 <= 1
 0 <= z_2362 <= 1
 0 <= z_2363 <= 1
 0 <= z_2364 <= 1
 0 <= z_2365 <= 1
 0 <= z_2366 <= 1
 0 <= z_2367 <= 1
 0 <= z_2368 <= 1
 0 <= z_2369 <= 1
 0 <= z_2370 <= 1
 0 <= z_2371 <= 1
 0 <= z_2372 <= 1
 0 <= z_2373 <= 1
 0 <= z_2374 <= 1
 0 <= z_2375 <= 1
 0 <= z_2376 <= 1
 0 <= z_2377 <= 1
 0 <= z_2378 <= 1
 0 <= z_2379 <= 1
 0 <= z_2380 <= 1
 0 <= z_2381 <= 1
 0 <= z_2382 <= 1
 0 <= z_2383 <= 1
 0 <= z_2384 <= 1
 0 <= z_2385 <= 1
 0 <= z_2386 <= 1
 0 <= z_2387 <= 1
 0 <= z_2388 <= 1
 0 <= z_2389 <= 1
 0 <= z_2390 <= 1
 0 <= z_2391 <= 1
 0 <= z_2392 <= 1
 0 <= z_2393 <= 1
 0 <= z_2394 <= 1
 0 <= z_2395 <= 1
 0 <= z_2396 <= 1
 0 <= z_2397 <= 1
 0 <= z_2398 <= 1
 0 <= z_2399 <= 1
 0 <= z_2400 <= 1
 0 <= z_2401 <= 1
 0 <= z_2402 <= 1
 0 <= z_2403 <= 1
 0 <= z_2404 <= 1
 0 <= z_2405 <= 1
 0 <= z_2406 <= 1
 0 <= z_2407 <= 1
 0 <= z_2408 <= 1
 0 <= z_2409 <= 1
 0 <= z_2410 <= 1
 0 <= z_2411 <= 1
 0 <= z_2412 <= 1
 0 <= z_2413 <= 1
 0 <= z_2414 <= 1
 0 <= z_2415 <= 1
 0 <= z_2416 <= 1
 0 <= z_2417 <= 1
 0 <= z_2418 <= 1
 0 <= z_2419 <= 1
 0 <= z_2420 <= 1
 0 <= z_2421 <= 1
 0 <= z_2422 <= 1
 0 <= z_2423 <= 1
 0 <= z_2424 <= 1
 0 <= z_2425 <= 1
 0 <= z_2426 <= 1
 0 <= z_2427 <= 1
 0 <= z_2428 <= 1
 0 <= z_2429 <= 1
 0 <= z_2430 <= 1
 0 <= z_2431 <= 1
 0 <= z_2432 <= 1
 0 <= z_2433 <= 1
 0 <= z_2434 <= 1
 0 <= z_2435 <= 1
 0 <= z_2436 <= 1
 0 <= z_2437 <= 1
 0 <= z_2438 <= 1
 0 <= z_2439 <= 1
 0 <= z_2440 <= 1
 0 <= z_2441 <= 1
 0 <= z_2442 <= 1
 0 <= z_2443 <= 1
 0 <= z_2444 <= 1
 0 <= z_2445 <= 1
 0 <= z_2446 <= 1
 0 <= z_2447 <= 1
 0 <= z_2448 <= 1
 0 <= z_2449 <= 1
 0 <= z_2450 <= 1
 0 <= z_2451 <= 1
 0 <= z_2452 <= 1
 0 <= z_2453 <= 1
 0 <= z_2454 <= 1
 0 <= z_2455 <= 1
 0 <= z_2456 <= 1
 0 <= z_2457 <= 1
 0 <= z_2458 <= 1
 0 <= z_2459 <= 1
 0 <= z_2460 <= 1
 0 <= z_2461 <= 1
 0 <= z_2462 <= 1
 0 <= z_2463 <= 1
 0 <= z_2464 <= 1
 0 <= z_2465 <= 1
 0 <= z_2466 <= 1
 0 <= z_2467 <= 1
 0 <= z_2468 <= 1
 0 <= z_2469 <= 1
 0 <= z_2470 <= 1
 0 <= z_2471 <= 1
 0 <= z_2472 <= 1
 0 <= z_2473 <= 1
 0 <= z_2474 <= 1
 0 <= z_2475 <= 1
 0 <= z_2476 <= 1
 0 <= z_2477 <= 1
 0 <= z_2478 <= 1
 0 <= z_2479 <= 1
 0 <= z_2480 <= 1
 0 <= z_2481 <= 1
 0 <= z_2482 <= 1
 0 <= z_2483 <= 1
 0 <= z_2484 <= 1
 0 <= z_2485 <= 1
 0 <= z_2486 <= 1
 0 <= z_2487 <= 1
 0 <= z_2488 <= 1
 0 <= z_2489 <= 1
 0 <= z_2490 <= 1
 0 <= z_2491 <= 1
 0 <= z_2492 <= 1
 0 <= z_2493 <= 1
 0 <= z_2494 <= 1
 0 <= z_2495 <= 1
 0 <= z_2496 <= 1
 0 <= z_2497 <= 1
 0 <= z_2498 <= 1
 0 <= z_2499 <= 1
 0 <= z_2500 <= 1
 0 <= z_2501 <= 1
 0 <= z_2502 <= 1
 0 <= z_2503 <= 1
 0 <= z_2504 <= 1
 0 <= z_2505 <= 1
 0 <= z_2506 <= 1
 0 <= z_2507 <= 1
 0 <= z_2508 <= 1
 0 <= z_2509 <= 1
 0 <= z_2510 <= 1
 0 <= z_2511 <= 1
 0 <= z_2512 <= 1
 0 <= z_2513 <= 1
 0 <= z_2514 <= 1
 0 <= z_2515 <= 1
 0 <= z_2516 <= 1
 0 <= z_2517 <= 1
 0 <= z_2518 <= 1
 0 <= z_2519 <= 1
 0 <= z_2520 <= 1
 0 <= z_2521 <= 1
 0 <= z_2522 <= 1
 0 <= z_2523 <= 1
 0 <= z_2524 <= 1
 0 <= z_2525 <= 1
 0 <= z_2526 <= 1
 0 <= z_2527 <= 1
 0 <= z_2528 <= 1
 0 <= z_2529 <= 1
 0 <= z_2530 <= 1
 0 <= z_2531 <= 1
 0 <= z_2532 <= 1
 0 <= z_2533 <= 1
 0 <= z_2534 <= 1
 0 <= z_2535 <= 1
 0 <= z_2536 <= 1
 0 <= z_2537 <= 1
 0 <= z_2538 <= 1
 0 <= z_2539 <= 1
 0 <= z_2540 <= 1
 0 <= z_2541 <= 1
 0 <= z_2542 <= 1
 0 <= z_2543 <= 1
 0 <= z_2544 <= 1
 0 <= z_2545 <= 1
 0 <= z_2546 <= 1
 0 <= z_2547 <= 1
 0 <= z_2548 <= 1
 0 <= z_2549 <= 1
 0 <= z_2550 <= 1
 0 <= z_2551 <= 1
 0 <= z_2552 <= 1
 0 <= z_2553 <= 1
 0 <= z_2554 <= 1
 0 <= z_2555 <= 1
 0 <= z_2556 <= 1
 0 <= z_2557 <= 1
 0 <= z_2558 <= 1
 0 <= z_2559 <= 1
 0 <= z_2560 <= 1
 0 <= z_2561 <= 1
 0 <= z_2562 <= 1
 0 <= z_2563 <= 1
 0 <= z_2564 <= 1
 0 <= z_2565 <= 1
 0 <= z_2566 <= 1
 0 <= z_2567 <= 1
 0 <= z_2568 <= 1
 0 <= z_2569 <= 1
 0 <= z_2570 <= 1
 0 <= z_2571 <= 1
 0 <= z_2572 <= 1
 0 <= z_2573 <= 1
 0 <= z_2574 <= 1
 0 <= z_2575 <= 1
 0 <= z_2576 <= 1
 0 <= z_2577 <= 1
 0 <= z_2578 <= 1
 0 <= z_2579 <= 1
 0 <= z_2580 <= 1
 0 <= z_2581 <= 1
 0 <= z_2582 <= 1
 0 <= z_2583 <= 1
 0 <= z_2584 <= 1
 0 <= z_2585 <= 1
 0 <= z_2586 <= 1
 0 <= z_2587 <= 1
 0 <= z_2588 <= 1
 0 <= z_2589 <= 1
 0 <= z_2590 <= 1
 0 <= z_2591 <= 1
 0 <= z_2592 <= 1
 0 <= z_2593 <= 1
 0 <= z_2594 <= 1
 0 <= z_2595 <= 1
 0 <= z_2596 <= 1
 0 <= z_2597 <= 1
 0 <= z_2598 <= 1
 0 <= z_2599 <= 1
 0 <= z_2600 <= 1
 0 <= z_2601 <= 1
 0 <= z_2602 <= 1
 0 <= z_2603 <= 1
 0 <= z_2604 <= 1
 0 <= z_2605 <= 1
 0 <= z_2606 <= 1
 0 <= z_2607 <= 1
 0 <= z_2608 <= 1
 0 <= z_2609 <= 1
 0 <= z_2610 <= 1
 0 <= z_2611 <= 1
 0 <= z_2612 <= 1
 0 <= z_2613 <= 1
 0 <= z_2614 <= 1
 0 <= z_2615 <= 1
 0 <= z_2616 <= 1
 0 <= z_2617 <= 1
 0 <= z_2618 <= 1
 0 <= z_2619 <= 1
 0 <= z_2620 <= 1
 0 <= z_2621 <= 1
 0 <= z_2622 <= 1
 0 <= z_2623 <= 1
 0 <= z_2624 <= 1
 0 <= z_2625 <= 1
 0 <= z_2626 <= 1
 0 <= z_2627 <= 1
 0 <= z_2628 <= 1
 0 <= z_2629 <= 1
 0 <= z_2630 <= 1
 0 <= z_2631 <= 1
 0 <= z_2632 <= 1
 0 <= z_2633 <= 1
 0 <= z_2634 <= 1
 0 <= z_2635 <= 1
 0 <= z_2636 <= 1
 0 <= z_2637 <= 1
 0 <= z_2638 <= 1
 0 <= z_2639 <= 1
 0 <= z_2640 <= 1
 0 <= z_2641 <= 1
 0 <= z_2642 <= 1
 0 <= z_2643 <= 1
 0 <= z_2644 <= 1
 0 <= z_2645 <= 1
 0 <= z_2646 <= 1
 0 <= z_2647 <= 1
 0 <= z_2648 <= 1
 0 <= z_2649 <= 1
 0 <= z_2650 <= 1
 0 <= z_2651 <= 1
 0 <= z_2652 <= 1
 0 <= z_2653 <= 1
 0 <= z_2654 <= 1
 0 <= z_2655 <= 1
 0 <= z_2656 <= 1
 0 <= z_2657 <= 1
 0 <= z_2658 <= 1
 0 <= z_2659 <= 1
 0 <= z_2660 <= 1
 0 <= z_2661 <= 1
 0 <= z_2662 <= 1
 0 <= z_2663 <= 1
 0 <= z_2664 <= 1
 0 <= z_2665 <= 1
 0 <= z_2666 <= 1
 0 <= z_2667 <= 1
 0 <= z_2668 <= 1
 0 <= z_2669 <= 1
 0 <= z_2670 <= 1
 0 <= z_2671 <= 1
 0 <= z_2672 <= 1
 0 <= z_2673 <= 1
 0 <= z_2674 <= 1
 0 <= z_2675 <= 1
 0 <= z_2676 <= 1
 0 <= z_2677 <= 1
 0 <= z_2678 <= 1
 0 <= z_2679 <= 1
 0 <= z_2680 <= 1
 0 <= z_2681 <= 1
 0 <= z_2682 <= 1
 0 <= z_2683 <= 1
 0 <= z_2684 <= 1
 0 <= z_2685 <= 1
 0 <= z_2686 <= 1
 0 <= z_2687 <= 1
 0 <= z_2688 <= 1
 0 <= z_2689 <= 1
 0 <= z_2690 <= 1
 0 <= z_2691 <= 1
 0 <= z_2692 <= 1
 0 <= z_2693 <= 1
 0 <= z_2694 <= 1
 0 <= z_2695 <= 1
 0 <= z_2696 <= 1
 0 <= z_2697 <= 1
 0 <= z_2698 <= 1
 0 <= z_2699 <= 1
 0 <= z_2700 <= 1
 0 <= z_2701 <= 1
 0 <= z_2702 <= 1
 0 <= z_2703 <= 1
 0 <= z_2704 <= 1
 0 <= z_2705 <= 1
 0 <= z_2706 <= 1
 0 <= z_2707 <= 1
 0 <= z_2708 <= 1
 0 <= z_2709 <= 1
 0 <= z_2710 <= 1
 0 <= z_2711 <= 1
 0 <= z_2712 <= 1
 0 <= z_2713 <= 1
 0 <= z_2714 <= 1
 0 <= z_2715 <= 1
 0 <= z_2716 <= 1
 0 <= z_2717 <= 1
 0 <= z_2718 <= 1
 0 <= z_2719 <= 1
 0 <= z_2720 <= 1
 0 <= z_2721 <= 1
 0 <= z_2722 <= 1
 0 <= z_2723 <= 1
 0 <= z_2724 <= 1
 0 <= z_2725 <= 1
 0 <= z_2726 <= 1
 0 <= z_2727 <= 1
 0 <= z_2728 <= 1
 0 <= z_2729 <= 1
 0 <= z_2730 <= 1
 0 <= z_2731 <= 1
 0 <= z_2732 <= 1
 0 <= z_2733 <= 1
 0 <= z_2734 <= 1
 0 <= z_2735 <= 1
 0 <= z_2736 <= 1
 0 <= z_2737 <= 1
 0 <= z_2738 <= 1
 0 <= z_2739 <= 1
 0 <= z_2740 <= 1
 0 <= z_2741 <= 1
 0 <= z_2742 <= 1
 0 <= z_2743 <= 1
 0 <= z_2744 <= 1
 0 <= z_2745 <= 1
 0 <= z_2746 <= 1
 0 <= z_2747 <= 1
 0 <= z_2748 <= 1
 0 <= z_2749 <= 1
 0 <= z_2750 <= 1
 0 <= z_2751 <= 1
 0 <= z_2752 <= 1
 0 <= z_2753 <= 1
 0 <= z_2754 <= 1
 0 <= z_2755 <= 1
 0 <= z_2756 <= 1
 0 <= z_2757 <= 1
 0 <= z_2758 <= 1
 0 <= z_2759 <= 1
 0 <= z_2760 <= 1
 0 <= z_2761 <= 1
 0 <= z_2762 <= 1
 0 <= z_2763 <= 1
 0 <= z_2764 <= 1
 0 <= z_2765 <= 1
 0 <= z_2766 <= 1
 0 <= z_2767 <= 1
 0 <= z_2768 <= 1
 0 <= z_2769 <= 1
 0 <= z_2770 <= 1
 0 <= z_2771 <= 1
 0 <= z_2772 <= 1
 0 <= z_2773 <= 1
 0 <= z_2774 <= 1
 0 <= z_2775 <= 1
 0 <= z_2776 <= 1
 0 <= z_2777 <= 1
 0 <= z_2778 <= 1
 0 <= z_2779 <= 1
 0 <= z_2780 <= 1
 0 <= z_2781 <= 1
 0 <= z_2782 <= 1
 0 <= z_2783 <= 1
 0 <= z_2784 <= 1
 0 <= z_2785 <= 1
 0 <= z_2786 <= 1
 0 <= z_2787 <= 1
 0 <= z_2788 <= 1
 0 <= z_2789 <= 1
 0 <= z_2790 <= 1
 0 <= z_2791 <= 1
 0 <= z_2792 <= 1
 0 <= z_2793 <= 1
 0 <= z_2794 <= 1
 0 <= z_2795 <= 1
 0 <= z_2796 <= 1
 0 <= z_2797 <= 1
 0 <= z_2798 <= 1
 0 <= z_2799 <= 1
 0 <= z_2800 <= 1
 0 <= z_2801 <= 1
 0 <= z_2802 <= 1
 0 <= z_2803 <= 1
 0 <= z_2804 <= 1
 0 <= z_2805 <= 1
 0 <= z_2806 <= 1
 0 <= z_2807 <= 1
 0 <= z_2808 <= 1
 0 <= z_2809 <= 1
 0 <= z_2810 <= 1
 0 <= z_2811 <= 1
 0 <= z_2812 <= 1
 0 <= z_2813 <= 1
 0 <= z_2814 <= 1
 0 <= z_2815 <= 1
 0 <= z_2816 <= 1
 0 <= z_2817 <= 1
 0 <= z_2818 <= 1
 0 <= z_2819 <= 1
 0 <= z_2820 <= 1
 0 <= z_2821 <= 1
 0 <= z_2822 <= 1
 0 <= z_2823 <= 1
 0 <= z_2824 <= 1
 0 <= z_2825 <= 1
 0 <= z_2826 <= 1
 0 <= z_2827 <= 1
 0 <= z_2828 <= 1
 0 <= z_2829 <= 1
 0 <= z_2830 <= 1
 0 <= z_2831 <= 1
 0 <= z_2832 <= 1
 0 <= z_2833 <= 1
 0 <= z_2834 <= 1
 0 <= z_2835 <= 1
 0 <= z_2836 <= 1
 0 <= z_2837 <= 1
 0 <= z_2838 <= 1
 0 <= z_2839 <= 1
 0 <= z_2840 <= 1
 0 <= z_2841 <= 1
 0 <= z_2842 <= 1
 0 <= z_2843 <= 1
 0 <= z_2844 <= 1
 0 <= z_2845 <= 1
 0 <= z_2846 <= 1
 0 <= z_2847 <= 1
 0 <= z_2848 <= 1
 0 <= z_2849 <= 1
 0 <= z_2850 <= 1
 0 <= z_2851 <= 1
 0 <= z_2852 <= 1
 0 <= z_2853 <= 1
 0 <= z_2854 <= 1
 0 <= z_2855 <= 1
 0 <= z_2856 <= 1
 0 <= z_2857 <= 1
 0 <= z_2858 <= 1
 0 <= z_2859 <= 1
 0 <= z_2860 <= 1
 0 <= z_2861 <= 1
 0 <= z_2862 <= 1
 0 <= z_2863 <= 1
 0 <= z_2864 <= 1
 0 <= z_2865 <= 1
 0 <= z_2866 <= 1
 0 <= z_2867 <= 1
 0 <= z_2868 <= 1
 0 <= z_2869 <= 1
 0 <= z_2870 <= 1
 0 <= z_2871 <= 1
 0 <= z_2872 <= 1
 0 <= z_2873 <= 1
 0 <= z_2874 <= 1
 0 <= z_2875 <= 1
 0 <= z_2876 <= 1
 0 <= z_2877 <= 1
 0 <= z_2878 <= 1
 0 <= z_2879 <= 1
 0 <= z_2880 <= 1
 0 <= z_2881 <= 1
 0 <= z_2882 <= 1
 0 <= z_2883 <= 1
 0 <= z_2884 <= 1
 0 <= z_2885 <= 1
 0 <= z_2886 <= 1
 0 <= z_2887 <= 1
 0 <= z_2888 <= 1
 0 <= z_2889 <= 1
 0 <= z_2890 <= 1
 0 <= z_2891 <= 1
 0 <= z_2892 <= 1
 0 <= z_2893 <= 1
 0 <= z_2894 <= 1
 0 <= z_2895 <= 1
 0 <= z_2896 <= 1
 0 <= z_2897 <= 1
 0 <= z_2898 <= 1
 0 <= z_2899 <= 1
 0 <= z_2900 <= 1
 0 <= z_2901 <= 1
 0 <= z_2902 <= 1
 0 <= z_2903 <= 1
 0 <= z_2904 <= 1
 0 <= z_2905 <= 1
 0 <= z_2906 <= 1
 0 <= z_2907 <= 1
 0 <= z_2908 <= 1
 0 <= z_2909 <= 1
 0 <= z_2910 <= 1
 0 <= z_2911 <= 1
 0 <= z_2912 <= 1
 0 <= z_2913 <= 1
 0 <= z_2914 <= 1
 0 <= z_2915 <= 1
 0 <= z_2916 <= 1
 0 <= z_2917 <= 1
 0 <= z_2918 <= 1
 0 <= z_2919 <= 1
 0 <= z_2920 <= 1
 0 <= z_2921 <= 1
 0 <= z_2922 <= 1
 0 <= z_2923 <= 1
 0 <= z_2924 <= 1
 0 <= z_2925 <= 1
 0 <= z_2926 <= 1
 0 <= z_2927 <= 1
 0 <= z_2928 <= 1
 0 <= z_2929 <= 1
 0 <= z_2930 <= 1
 0 <= z_2931 <= 1
 0 <= z_2932 <= 1
 0 <= z_2933 <= 1
 0 <= z_2934 <= 1
 0 <= z_2935 <= 1
 0 <= z_2936 <= 1
 0 <= z_2937 <= 1
 0 <= z_2938 <= 1
 0 <= z_2939 <= 1
 0 <= z_2940 <= 1
 0 <= z_2941 <= 1
 0 <= z_2942 <= 1
 0 <= z_2943 <= 1
 0 <= z_2944 <= 1
 0 <= z_2945 <= 1
 0 <= z_2946 <= 1
 0 <= z_2947 <= 1
 0 <= z_2948 <= 1
 0 <= z_2949 <= 1
 0 <= z_2950 <= 1
 0 <= z_2951 <= 1
 0 <= z_2952 <= 1
 0 <= z_2953 <= 1
 0 <= z_2954 <= 1
 0 <= z_2955 <= 1
 0 <= z_2956 <= 1
 0 <= z_2957 <= 1
 0 <= z_2958 <= 1
 0 <= z_2959 <= 1
 0 <= z_2960 <= 1
 0 <= z_2961 <= 1
 0 <= z_2962 <= 1
 0 <= z_2963 <= 1
 0 <= z_2964 <= 1
 0 <= z_2965 <= 1
 0 <= z_2966 <= 1
 0 <= z_2967 <= 1
 0 <= z_2968 <= 1
 0 <= z_2969 <= 1
 0 <= z_2970 <= 1
 0 <= z_2971 <= 1
 0 <= z_2972 <= 1
 0 <= z_2973 <= 1
 0 <= z_2974 <= 1
 0 <= z_2975 <= 1
 0 <= z_2976 <= 1
 0 <= z_2977 <= 1
 0 <= z_2978 <= 1
 0 <= z_2979 <= 1
 0 <= z_2980 <= 1
 0 <= z_2981 <= 1
 0 <= z_2982 <= 1
 0 <= z_2983 <= 1
 0 <= z_2984 <= 1
 0 <= z_2985 <= 1
 0 <= z_2986 <= 1
 0 <= z_2987 <= 1
 0 <= z_2988 <= 1
 0 <= z_2989 <= 1
 0 <= z_2990 <= 1
 0 <= z_2991 <= 1
 0 <= z_2992 <= 1
 0 <= z_2993 <= 1
 0 <= z_2994 <= 1
 0 <= z_2995 <= 1
 0 <= z_2996 <= 1
 0 <= z_2997 <= 1
 0 <= z_2998 <= 1
 0 <= z_2999 <= 1
 0 <= z_3000 <= 1
 0 <= z_3001 <= 1
 0 <= z_3002 <= 1
 0 <= z_3003 <= 1
 0 <= z_3004 <= 1
 0 <= z_3005 <= 1
 0 <= z_3006 <= 1
 0 <= z_3007 <= 1
 0 <= z_3008 <= 1
 0 <= z_3009 <= 1
 0 <= z_3010 <= 1
 0 <= z_3011 <= 1
 0 <= z_3012 <= 1
 0 <= z_3013 <= 1
 0 <= z_3014 <= 1
 0 <= z_3015 <= 1
 0 <= z_3016 <= 1
 0 <= z_3017 <= 1
 0 <= z_3018 <= 1
 0 <= z_3019 <= 1
 0 <= z_3020 <= 1
 0 <= z_3021 <= 1
 0 <= z_3022 <= 1
 0 <= z_3023 <= 1
 0 <= z_3024 <= 1
 0 <= z_3025 <= 1
 0 <= z_3026 <= 1
 0 <= z_3027 <= 1
 0 <= z_3028 <= 1
 0 <= z_3029 <= 1
 0 <= z_3030 <= 1
 0 <= z_3031 <= 1
 0 <= z_3032 <= 1
 0 <= z_3033 <= 1
 0 <= z_3034 <= 1
 0 <= z_3035 <= 1
 0 <= z_3036 <= 1
 0 <= z_3037 <= 1
 0 <= z_3038 <= 1
 0 <= z_3039 <= 1
 0 <= z_3040 <= 1
 0 <= z_3041 <= 1
 0 <= z_3042 <= 1
 0 <= z_3043 <= 1
 0 <= z_3044 <= 1
 0 <= z_3045 <= 1
 0 <= z_3046 <= 1
 0 <= z_3047 <= 1
 0 <= z_3048 <= 1
 0 <= z_3049 <= 1
 0 <= z_3050 <= 1
 0 <= z_3051 <= 1
 0 <= z_3052 <= 1
 0 <= z_3053 <= 1
 0 <= z_3054 <= 1
 0 <= z_3055 <= 1
 0 <= z_3056 <= 1
 0 <= z_3057 <= 1
 0 <= z_3058 <= 1
 0 <= z_3059 <= 1
 0 <= z_3060 <= 1
 0 <= z_3061 <= 1
 0 <= z_3062 <= 1
 0 <= z_3063 <= 1
 0 <= z_3064 <= 1
 0 <= z_3065 <= 1
 0 <= z_3066 <= 1
 0 <= z_3067 <= 1
 0 <= z_3068 <= 1
 0 <= z_3069 <= 1
 0 <= z_3070 <= 1
 0 <= z_3071 <= 1
 0 <= z_3072 <= 1
 0 <= z_3073 <= 1
 0 <= z_3074 <= 1
 0 <= z_3075 <= 1
 0 <= z_3076 <= 1
 0 <= z_3077 <= 1
 0 <= z_3078 <= 1
 0 <= z_3079 <= 1
 0 <= z_3080 <= 1
 0 <= z_3081 <= 1
 0 <= z_3082 <= 1
 0 <= z_3083 <= 1
 0 <= z_3084 <= 1
 0 <= z_3085 <= 1
 0 <= z_3086 <= 1
 0 <= z_3087 <= 1
 0 <= z_3088 <= 1
 0 <= z_3089 <= 1
 0 <= z_3090 <= 1
 0 <= z_3091 <= 1
 0 <= z_3092 <= 1
 0 <= z_3093 <= 1
 0 <= z_3094 <= 1
 0 <= z_3095 <= 1
 0 <= z_3096 <= 1
 0 <= z_3097 <= 1
 0 <= z_3098 <= 1
 0 <= z_3099 <= 1
 0 <= z_3100 <= 1
 0 <= z_3101 <= 1
 0 <= z_3102 <= 1
 0 <= z_3103 <= 1
 0 <= z_3104 <= 1
 0 <= z_3105 <= 1
 0 <= z_3106 <= 1
 0 <= z_3107 <= 1
 0 <= z_3108 <= 1
 0 <= z_3109 <= 1
 0 <= z_3110 <= 1
 0 <= z_3111 <= 1
 0 <= z_3112 <= 1
 0 <= z_3113 <= 1
 0 <= z_3114 <= 1
 0 <= z_3115 <= 1
 0 <= z_3116 <= 1
 0 <= z_3117 <= 1
 0 <= z_3118 <= 1
 0 <= z_3119 <= 1
 0 <= z_3120 <= 1
 0 <= z_3121 <= 1
 0 <= z_3122 <= 1
 0 <= z_3123 <= 1
 0 <= z_3124 <= 1
 0 <= z_3125 <= 1
 0 <= z_3126 <= 1
 0 <= z_3127 <= 1
 0 <= z_3128 <= 1
 0 <= z_3129 <= 1
 0 <= z_3130 <= 1
 0 <= z_3131 <= 1
 0 <= z_3132 <= 1
 0 <= z_3133 <= 1
 0 <= z_3134 <= 1
 0 <= z_3135 <= 1
 0 <= z_3136 <= 1
 0 <= z_3137 <= 1
 0 <= z_3138 <= 1
 0 <= z_3139 <= 1
 0 <= z_3140 <= 1
 0 <= z_3141 <= 1
 0 <= z_3142 <= 1
 0 <= z_3143 <= 1
 0 <= z_3144 <= 1
 0 <= z_3145 <= 1
 0 <= z_3146 <= 1
 0 <= z_3147 <= 1
 0 <= z_3148 <= 1
 0 <= z_3149 <= 1
 0 <= z_3150 <= 1
 0 <= z_3151 <= 1
 0 <= z_3152 <= 1
 0 <= z_3153 <= 1
 0 <= z_3154 <= 1
 0 <= z_3155 <= 1
 0 <= z_3156 <= 1
 0 <= z_3157 <= 1
 0 <= z_3158 <= 1
 0 <= z_3159 <= 1
 0 <= z_3160 <= 1
 0 <= z_3161 <= 1
 0 <= z_3162 <= 1
 0 <= z_3163 <= 1
 0 <= z_3164 <= 1
 0 <= z_3165 <= 1
 0 <= z_3166 <= 1
 0 <= z_3167 <= 1
 0 <= z_3168 <= 1
 0 <= z_3169 <= 1
 0 <= z_3170 <= 1
 0 <= z_3171 <= 1
 0 <= z_3172 <= 1
 0 <= z_3173 <= 1
 0 <= z_3174 <= 1
 0 <= z_3175 <= 1
 0 <= z_3176 <= 1
 0 <= z_3177 <= 1
 0 <= z_3178 <= 1
 0 <= z_3179 <= 1
 0 <= z_3180 <= 1
 0 <= z_3181 <= 1
 0 <= z_3182 <= 1
 0 <= z_3183 <= 1
 0 <= z_3184 <= 1
 0 <= z_3185 <= 1
 0 <= z_3186 <= 1
 0 <= z_3187 <= 1
 0 <= z_3188 <= 1
 0 <= z_3189 <= 1
 0 <= z_3190 <= 1
 0 <= z_3191 <= 1
 0 <= z_3192 <= 1
 0 <= z_3193 <= 1
 0 <= z_3194 <= 1
 0 <= z_3195 <= 1
 0 <= z_3196 <= 1
 0 <= z_3197 <= 1
 0 <= z_3198 <= 1
 0 <= z_3199 <= 1
 0 <= z_3200 <= 1
 0 <= z_3201 <= 1
 0 <= z_3202 <= 1
 0 <= z_3203 <= 1
 0 <= z_3204 <= 1
 0 <= z_3205 <= 1
 0 <= z_3206 <= 1
 0 <= z_3207 <= 1
 0 <= z_3208 <= 1
 0 <= z_3209 <= 1
 0 <= z_3210 <= 1
 0 <= z_3211 <= 1
 0 <= z_3212 <= 1
 0 <= z_3213 <= 1
 0 <= z_3214 <= 1
 0 <= z_3215 <= 1
 0 <= z_3216 <= 1
 0 <= z_3217 <= 1
 0 <= z_3218 <= 1
 0 <= z_3219 <= 1
 0 <= z_3220 <= 1
 0 <= z_3221 <= 1
 0 <= z_3222 <= 1
 0 <= z_3223 <= 1
 0 <= z_3224 <= 1
 0 <= z_3225 <= 1
 0 <= z_3226 <= 1
 0 <= z_3227 <= 1
 0 <= z_3228 <= 1
 0 <= z_3229 <= 1
 0 <= z_3230 <= 1
 0 <= z_3231 <= 1
 0 <= z_3232 <= 1
 0 <= z_3233 <= 1
 0 <= z_3234 <= 1
 0 <= z_3235 <= 1
 0 <= z_3236 <= 1
 0 <= z_3237 <= 1
 0 <= z_3238 <= 1
 0 <= z_3239 <= 1
 0 <= z_3240 <= 1
 0 <= z_3241 <= 1
 0 <= z_3242 <= 1
 0 <= z_3243 <= 1
 0 <= z_3244 <= 1
 0 <= z_3245 <= 1
 0 <= z_3246 <= 1
 0 <= z_3247 <= 1
 0 <= z_3248 <= 1
 0 <= z_3249 <= 1
 0 <= z_3250 <= 1
 0 <= z_3251 <= 1
 0 <= z_3252 <= 1
 0 <= z_3253 <= 1
 0 <= z_3254 <= 1
 0 <= z_3255 <= 1
 0 <= z_3256 <= 1
 0 <= z_3257 <= 1
 0 <= z_3258 <= 1
 0 <= z_3259 <= 1
 0 <= z_3260 <= 1
 0 <= z_3261 <= 1
 0 <= z_3262 <= 1
 0 <= z_3263 <= 1
 0 <= z_3264 <= 1
 0 <= z_3265 <= 1
 0 <= z_3266 <= 1
 0 <= z_3267 <= 1
 0 <= z_3268 <= 1
 0 <= z_3269 <= 1
 0 <= z_3270 <= 1
 0 <= z_3271 <= 1
 0 <= z_3272 <= 1
 0 <= z_3273 <= 1
 0 <= z_3274 <= 1
 0 <= z_3275 <= 1
 0 <= z_3276 <= 1
 0 <= z_3277 <= 1
 0 <= z_3278 <= 1
 0 <= z_3279 <= 1
 0 <= z_3280 <= 1
 0 <= z_3281 <= 1
 0 <= z_3282 <= 1
 0 <= z_3283 <= 1
 0 <= z_3284 <= 1
 0 <= z_3285 <= 1
 0 <= z_3286 <= 1
 0 <= z_3287 <= 1
 0 <= z_3288 <= 1
 0 <= z_3289 <= 1
 0 <= z_3290 <= 1
 0 <= z_3291 <= 1
 0 <= z_3292 <= 1
 0 <= z_3293 <= 1
 0 <= z_3294 <= 1
 0 <= z_3295 <= 1
 0 <= z_3296 <= 1
 0 <= z_3297 <= 1
 0 <= z_3298 <= 1
 0 <= z_3299 <= 1
 0 <= z_3300 <= 1
 0 <= z_3301 <= 1
 0 <= z_3302 <= 1
 0 <= z_3303 <= 1
 0 <= z_3304 <= 1
 0 <= z_3305 <= 1
 0 <= z_3306 <= 1
 0 <= z_3307 <= 1
 0 <= z_3308 <= 1
 0 <= z_3309 <= 1
 0 <= z_3310 <= 1
 0 <= z_3311 <= 1
 0 <= z_3312 <= 1
 0 <= z_3313 <= 1
 0 <= z_3314 <= 1
 0 <= z_3315 <= 1
 0 <= z_3316 <= 1
 0 <= z_3317 <= 1
 0 <= z_3318 <= 1
 0 <= z_3319 <= 1
 0 <= z_3320 <= 1
 0 <= z_3321 <= 1
 0 <= z_3322 <= 1
 0 <= z_3323 <= 1
 0 <= z_3324 <= 1
 0 <= z_3325 <= 1
 0 <= z_3326 <= 1
 0 <= z_3327 <= 1
 0 <= z_3328 <= 1
 0 <= z_3329 <= 1
 0 <= z_3330 <= 1
 0 <= z_3331 <= 1
 0 <= z_3332 <= 1
 0 <= z_3333 <= 1
 0 <= z_3334 <= 1
 0 <= z_3335 <= 1
 0 <= z_3336 <= 1
 0 <= z_3337 <= 1
 0 <= z_3338 <= 1
 0 <= z_3339 <= 1
 0 <= z_3340 <= 1
 0 <= z_3341 <= 1
 0 <= z_3342 <= 1
 0 <= z_3343 <= 1
 0 <= z_3344 <= 1
 0 <= z_3345 <= 1
 0 <= z_3346 <= 1
 0 <= z_3347 <= 1
 0 <= z_3348 <= 1
 0 <= z_3349 <= 1
 0 <= z_3350 <= 1
 0 <= z_3351 <= 1
 0 <= z_3352 <= 1
 0 <= z_3353 <= 1
 0 <= z_3354 <= 1
 0 <= z_3355 <= 1
 0 <= z_3356 <= 1
 0 <= z_3357 <= 1
 0 <= z_3358 <= 1
 0 <= z_3359 <= 1
 0 <= z_3360 <= 1
 0 <= z_3361 <= 1
 0 <= z_3362 <= 1
 0 <= z_3363 <= 1
 0 <= z_3364 <= 1
 0 <= z_3365 <= 1
 0 <= z_3366 <= 1
 0 <= z_3367 <= 1
 0 <= z_3368 <= 1
 0 <= z_3369 <= 1
 0 <= z_3370 <= 1
 0 <= z_3371 <= 1
 0 <= z_3372 <= 1
 0 <= z_3373 <= 1
 0 <= z_3374 <= 1
 0 <= z_3375 <= 1
 0 <= z_3376 <= 1
 0 <= z_3377 <= 1
 0 <= z_3378 <= 1
 0 <= z_3379 <= 1
 0 <= z_3380 <= 1
 0 <= z_3381 <= 1
 0 <= z_3382 <= 1
 0 <= z_3383 <= 1
 0 <= z_3384 <= 1
 0 <= z_3385 <= 1
 0 <= z_3386 <= 1
 0 <= z_3387 <= 1
 0 <= z_3388 <= 1
 0 <= z_3389 <= 1
 0 <= z_3390 <= 1
 0 <= z_3391 <= 1
 0 <= z_3392 <= 1
 0 <= z_3393 <= 1
 0 <= z_3394 <= 1
 0 <= z_3395 <= 1
 0 <= z_3396 <= 1
 0 <= z_3397 <= 1
 0 <= z_3398 <= 1
 0 <= z_3399 <= 1
 0 <= z_3400 <= 1
 0 <= z_3401 <= 1
 0 <= z_3402 <= 1
 0 <= z_3403 <= 1
 0 <= z_3404 <= 1
 0 <= z_3405 <= 1
 0 <= z_3406 <= 1
 0 <= z_3407 <= 1
 0 <= z_3408 <= 1
 0 <= z_3409 <= 1
 0 <= z_3410 <= 1
 0 <= z_3411 <= 1
 0 <= z_3412 <= 1
 0 <= z_3413 <= 1
 0 <= z_3414 <= 1
 0 <= z_3415 <= 1
 0 <= z_3416 <= 1
 0 <= z_3417 <= 1
 0 <= z_3418 <= 1
 0 <= z_3419 <= 1
 0 <= z_3420 <= 1
 0 <= z_3421 <= 1
 0 <= z_3422 <= 1
 0 <= z_3423 <= 1
 0 <= z_3424 <= 1
 0 <= z_3425 <= 1
 0 <= z_3426 <= 1
 0 <= z_3427 <= 1
 0 <= z_3428 <= 1
 0 <= z_3429 <= 1
 0 <= z_3430 <= 1
 0 <= z_3431 <= 1
 0 <= z_3432 <= 1
 0 <= z_3433 <= 1
 0 <= z_3434 <= 1
 0 <= z_3435 <= 1
 0 <= z_3436 <= 1
 0 <= z_3437 <= 1
 0 <= z_3438 <= 1
 0 <= z_3439 <= 1
 0 <= z_3440 <= 1
 0 <= z_3441 <= 1
 0 <= z_3442 <= 1
 0 <= z_3443 <= 1
 0 <= z_3444 <= 1
 0 <= z_3445 <= 1
 0 <= z_3446 <= 1
 0 <= z_3447 <= 1
 0 <= z_3448 <= 1
 0 <= z_3449 <= 1
 0 <= z_3450 <= 1
 0 <= z_3451 <= 1
 0 <= z_3452 <= 1
 0 <= z_3453 <= 1
 0 <= z_3454 <= 1
 0 <= z_3455 <= 1
 0 <= z_3456 <= 1
 0 <= z_3457 <= 1
 0 <= z_3458 <= 1
 0 <= z_3459 <= 1
 0 <= z_3460 <= 1
 0 <= z_3461 <= 1
 0 <= z_3462 <= 1
 0 <= z_3463 <= 1
 0 <= z_3464 <= 1
 0 <= z_3465 <= 1
 0 <= z_3466 <= 1
 0 <= z_3467 <= 1
 0 <= z_3468 <= 1
 0 <= z_3469 <= 1
 0 <= z_3470 <= 1
 0 <= z_3471 <= 1
 0 <= z_3472 <= 1
 0 <= z_3473 <= 1
 0 <= z_3474 <= 1
 0 <= z_3475 <= 1
 0 <= z_3476 <= 1
 0 <= z_3477 <= 1
 0 <= z_3478 <= 1
 0 <= z_3479 <= 1
 0 <= z_3480 <= 1
 0 <= z_3481 <= 1
 0 <= z_3482 <= 1
 0 <= z_3483 <= 1
 0 <= z_3484 <= 1
 0 <= z_3485 <= 1
 0 <= z_3486 <= 1
 0 <= z_3487 <= 1
 0 <= z_3488 <= 1
 0 <= z_3489 <= 1
 0 <= z_3490 <= 1
 0 <= z_3491 <= 1
 0 <= z_3492 <= 1
 0 <= z_3493 <= 1
 0 <= z_3494 <= 1
 0 <= z_3495 <= 1
 0 <= z_3496 <= 1
 0 <= z_3497 <= 1
 0 <= z_3498 <= 1
 0 <= z_3499 <= 1
 0 <= z_3500 <= 1
 0 <= z_3501 <= 1
 0 <= z_3502 <= 1
 0 <= z_3503 <= 1
 0 <= z_3504 <= 1
 0 <= z_3505 <= 1
 0 <= z_3506 <= 1
 0 <= z_3507 <= 1
 0 <= z_3508 <= 1
 0 <= z_3509 <= 1
 0 <= z_3510 <= 1
 0 <= z_3511 <= 1
 0 <= z_3512 <= 1
 0 <= z_3513 <= 1
 0 <= z_3514 <= 1
 0 <= z_3515 <= 1
 0 <= z_3516 <= 1
 0 <= z_3517 <= 1
 0 <= z_3518 <= 1
 0 <= z_3519 <= 1
 0 <= z_3520 <= 1
 0 <= z_3521 <= 1
 0 <= z_3522 <= 1
 0 <= z_3523 <= 1
 0 <= z_3524 <= 1
 0 <= z_3525 <= 1
 0 <= z_3526 <= 1
 0 <= z_3527 <= 1
 0 <= z_3528 <= 1
 0 <= z_3529 <= 1
 0 <= z_3530 <= 1
 0 <= z_3531 <= 1
 0 <= z_3532 <= 1
 0 <= z_3533 <= 1
 0 <= z_3534 <= 1
 0 <= z_3535 <= 1
 0 <= z_3536 <= 1
 0 <= z_3537 <= 1
 0 <= z_3538 <= 1
 0 <= z_3539 <= 1
 0 <= z_3540 <= 1
 0 <= z_3541 <= 1
 0 <= z_3542 <= 1
 0 <= z_3543 <= 1
 0 <= z_3544 <= 1
 0 <= z_3545 <= 1
 0 <= z_3546 <= 1
 0 <= z_3547 <= 1
 0 <= z_3548 <= 1
 0 <= z_3549 <= 1
 0 <= z_3550 <= 1
 0 <= z_3551 <= 1
 0 <= z_3552 <= 1
 0 <= z_3553 <= 1
 0 <= z_3554 <= 1
 0 <= z_3555 <= 1
 0 <= z_3556 <= 1
 0 <= z_3557 <= 1
 0 <= z_3558 <= 1
 0 <= z_3559 <= 1
 0 <= z_3560 <= 1
 0 <= z_3561 <= 1
 0 <= z_3562 <= 1
 0 <= z_3563 <= 1
 0 <= z_3564 <= 1
 0 <= z_3565 <= 1
 0 <= z_3566 <= 1
 0 <= z_3567 <= 1
 0 <= z_3568 <= 1
 0 <= z_3569 <= 1
 0 <= z_3570 <= 1
 0 <= z_3571 <= 1
 0 <= z_3572 <= 1
 0 <= z_3573 <= 1
 0 <= z_3574 <= 1
 0 <= z_3575 <= 1
 0 <= z_3576 <= 1
 0 <= z_3577 <= 1
 0 <= z_3578 <= 1
 0 <= z_3579 <= 1
 0 <= z_3580 <= 1
 0 <= z_3581 <= 1
 0 <= z_3582 <= 1
 0 <= z_3583 <= 1
 0 <= z_3584 <= 1
 0 <= z_3585 <= 1
 0 <= z_3586 <= 1
 0 <= z_3587 <= 1
 0 <= z_3588 <= 1
 0 <= z_3589 <= 1
 0 <= z_3590 <= 1
 0 <= z_3591 <= 1
 0 <= z_3592 <= 1
 0 <= z_3593 <= 1
 0 <= z_3594 <= 1
 0 <= z_3595 <= 1
 0 <= z_3596 <= 1
 0 <= z_3597 <= 1
 0 <= z_3598 <= 1
 0 <= z_3599 <= 1
 0 <= z_3600 <= 1
 0 <= z_3601 <= 1
 0 <= z_3602 <= 1
 0 <= z_3603 <= 1
 0 <= z_3604 <= 1
 0 <= z_3605 <= 1
 0 <= z_3606 <= 1
 0 <= z_3607 <= 1
 0 <= z_3608 <= 1
 0 <= z_3609 <= 1
 0 <= z_3610 <= 1
 0 <= z_3611 <= 1
 0 <= z_3612 <= 1
 0 <= z_3613 <= 1
 0 <= z_3614 <= 1
 0 <= z_3615 <= 1
 0 <= z_3616 <= 1
 0 <= z_3617 <= 1
 0 <= z_3618 <= 1
 0 <= z_3619 <= 1
 0 <= z_3620 <= 1
 0 <= z_3621 <= 1
 0 <= z_3622 <= 1
 0 <= z_3623 <= 1
 0 <= z_3624 <= 1
 0 <= z_3625 <= 1
 0 <= z_3626 <= 1
 0 <= z_3627 <= 1
 0 <= z_3628 <= 1
 0 <= z_3629 <= 1
 0 <= z_3630 <= 1
 0 <= z_3631 <= 1
 0 <= z_3632 <= 1
 0 <= z_3633 <= 1
 0 <= z_3634 <= 1
 0 <= z_3635 <= 1
 0 <= z_3636 <= 1
 0 <= z_3637 <= 1
 0 <= z_3638 <= 1
 0 <= z_3639 <= 1
 0 <= z_3640 <= 1
 0 <= z_3641 <= 1
 0 <= z_3642 <= 1
 0 <= z_3643 <= 1
 0 <= z_3644 <= 1
 0 <= z_3645 <= 1
 0 <= z_3646 <= 1
 0 <= z_3647 <= 1
 0 <= z_3648 <= 1
 0 <= z_3649 <= 1
 0 <= z_3650 <= 1
 0 <= z_3651 <= 1
 0 <= z_3652 <= 1
 0 <= z_3653 <= 1
 0 <= z_3654 <= 1
 0 <= z_3655 <= 1
 0 <= z_3656 <= 1
 0 <= z_3657 <= 1
 0 <= z_3658 <= 1
 0 <= z_3659 <= 1
 0 <= z_3660 <= 1
 0 <= z_3661 <= 1
 0 <= z_3662 <= 1
 0 <= z_3663 <= 1
 0 <= z_3664 <= 1
 0 <= z_3665 <= 1
 0 <= z_3666 <= 1
 0 <= z_3667 <= 1
 0 <= z_3668 <= 1
 0 <= z_3669 <= 1
 0 <= z_3670 <= 1
 0 <= z_3671 <= 1
 0 <= z_3672 <= 1
 0 <= z_3673 <= 1
 0 <= z_3674 <= 1
 0 <= z_3675 <= 1
 0 <= z_3676 <= 1
 0 <= z_3677 <= 1
 0 <= z_3678 <= 1
 0 <= z_3679 <= 1
 0 <= z_3680 <= 1
 0 <= z_3681 <= 1
 0 <= z_3682 <= 1
 0 <= z_3683 <= 1
 0 <= z_3684 <= 1
 0 <= z_3685 <= 1
 0 <= z_3686 <= 1
 0 <= z_3687 <= 1
 0 <= z_3688 <= 1
 0 <= z_3689 <= 1
 0 <= z_3690 <= 1
 0 <= z_3691 <= 1
 0 <= z_3692 <= 1
 0 <= z_3693 <= 1
 0 <= z_3694 <= 1
 0 <= z_3695 <= 1
 0 <= z_3696 <= 1
 0 <= z_3697 <= 1
 0 <= z_3698 <= 1
 0 <= z_3699 <= 1
 0 <= z_3700 <= 1
 0 <= z_3701 <= 1
 0 <= z_3702 <= 1
 0 <= z_3703 <= 1
 0 <= z_3704 <= 1
 0 <= z_3705 <= 1
 0 <= z_3706 <= 1
 0 <= z_3707 <= 1
 0 <= z_3708 <= 1
 0 <= z_3709 <= 1
 0 <= z_3710 <= 1
 0 <= z_3711 <= 1
 0 <= z_3712 <= 1
 0 <= z_3713 <= 1
 0 <= z_3714 <= 1
 0 <= z_3715 <= 1
 0 <= z_3716 <= 1
 0 <= z_3717 <= 1
 0 <= z_3718 <= 1
 0 <= z_3719 <= 1
 0 <= z_3720 <= 1
 0 <= z_3721 <= 1
 0 <= z_3722 <= 1
 0 <= z_3723 <= 1
 0 <= z_3724 <= 1
 0 <= z_3725 <= 1
 0 <= z_3726 <= 1
 0 <= z_3727 <= 1
 0 <= z_3728 <= 1
 0 <= z_3729 <= 1
 0 <= z_3730 <= 1
 0 <= z_3731 <= 1
 0 <= z_3732 <= 1
 0 <= z_3733 <= 1
 0 <= z_3734 <= 1
 0 <= z_3735 <= 1
 0 <= z_3736 <= 1
 0 <= z_3737 <= 1
 0 <= z_3738 <= 1
 0 <= z_3739 <= 1
 0 <= z_3740 <= 1
 0 <= z_3741 <= 1
 0 <= z_3742 <= 1
 0 <= z_3743 <= 1
 0 <= z_3744 <= 1
 0 <= z_3745 <= 1
 0 <= z_3746 <= 1
 0 <= z_3747 <= 1
 0 <= z_3748 <= 1
 0 <= z_3749 <= 1
 0 <= z_3750 <= 1
 0 <= z_3751 <= 1
 0 <= z_3752 <= 1
 0 <= z_3753 <= 1
 0 <= z_3754 <= 1
 0 <= z_3755 <= 1
 0 <= z_3756 <= 1
 0 <= z_3757 <= 1
 0 <= z_3758 <= 1
 0 <= z_3759 <= 1
 0 <= z_3760 <= 1
 0 <= z_3761 <= 1
 0 <= z_3762 <= 1
 0 <= z_3763 <= 1
 0 <= z_3764 <= 1
 0 <= z_3765 <= 1
 0 <= z_3766 <= 1
 0 <= z_3767 <= 1
 0 <= z_3768 <= 1
 0 <= z_3769 <= 1
 0 <= z_3770 <= 1
 0 <= z_3771 <= 1
 0 <= z_3772 <= 1
 0 <= z_3773 <= 1
 0 <= z_3774 <= 1
 0 <= z_3775 <= 1
 0 <= z_3776 <= 1
 0 <= z_3777 <= 1
 0 <= z_3778 <= 1
 0 <= z_3779 <= 1
 0 <= z_3780 <= 1
 0 <= z_3781 <= 1
 0 <= z_3782 <= 1
 0 <= z_3783 <= 1
 0 <= z_3784 <= 1
 0 <= z_3785 <= 1
 0 <= z_3786 <= 1
 0 <= z_3787 <= 1
 0 <= z_3788 <= 1
 0 <= z_3789 <= 1
 0 <= z_3790 <= 1
 0 <= z_3791 <= 1
 0 <= z_3792 <= 1
 0 <= z_3793 <= 1
 0 <= z_3794 <= 1
 0 <= z_3795 <= 1
 0 <= z_3796 <= 1
 0 <= z_3797 <= 1
 0 <= z_3798 <= 1
 0 <= z_3799 <= 1
 0 <= z_3800 <= 1
 0 <= z_3801 <= 1
 0 <= z_3802 <= 1
 0 <= z_3803 <= 1
 0 <= z_3804 <= 1
 0 <= z_3805 <= 1
 0 <= z_3806 <= 1
 0 <= z_3807 <= 1
 0 <= z_3808 <= 1
 0 <= z_3809 <= 1
 0 <= z_3810 <= 1
 0 <= z_3811 <= 1
 0 <= z_3812 <= 1
 0 <= z_3813 <= 1
 0 <= z_3814 <= 1
 0 <= z_3815 <= 1
 0 <= z_3816 <= 1
 0 <= z_3817 <= 1
 0 <= z_3818 <= 1
 0 <= z_3819 <= 1
 0 <= z_3820 <= 1
 0 <= z_3821 <= 1
 0 <= z_3822 <= 1
 0 <= z_3823 <= 1
 0 <= z_3824 <= 1
 0 <= z_3825 <= 1
 0 <= z_3826 <= 1
 0 <= z_3827 <= 1
 0 <= z_3828 <= 1
 0 <= z_3829 <= 1
 0 <= z_3830 <= 1
 0 <= z_3831 <= 1
 0 <= z_3832 <= 1
 0 <= z_3833 <= 1
 0 <= z_3834 <= 1
 0 <= z_3835 <= 1
 0 <= z_3836 <= 1
 0 <= z_3837 <= 1
 0 <= z_3838 <= 1
 0 <= z_3839 <= 1
 0 <= z_3840 <= 1
 0 <= z_3841 <= 1
 0 <= z_3842 <= 1
 0 <= z_3843 <= 1
 0 <= z_3844 <= 1
 0 <= z_3845 <= 1
 0 <= z_3846 <= 1
 0 <= z_3847 <= 1
 0 <= z_3848 <= 1
 0 <= z_3849 <= 1
 0 <= z_3850 <= 1
 0 <= z_3851 <= 1
 0 <= z_3852 <= 1
 0 <= z_3853 <= 1
 0 <= z_3854 <= 1
 0 <= z_3855 <= 1
 0 <= z_3856 <= 1
 0 <= z_3857 <= 1
 0 <= z_3858 <= 1
 0 <= z_3859 <= 1
 0 <= z_3860 <= 1
 0 <= z_3861 <= 1
 0 <= z_3862 <= 1
 0 <= z_3863 <= 1
 0 <= z_3864 <= 1
 0 <= z_3865 <= 1
 0 <= z_3866 <= 1
 0 <= z_3867 <= 1
 0 <= z_3868 <= 1
 0 <= z_3869 <= 1
 0 <= z_3870 <= 1
 0 <= z_3871 <= 1
 0 <= z_3872 <= 1
 0 <= z_3873 <= 1
 0 <= z_3874 <= 1
 0 <= z_3875 <= 1
 0 <= z_3876 <= 1
 0 <= z_3877 <= 1
 0 <= z_3878 <= 1
 0 <= z_3879 <= 1
 0 <= z_3880 <= 1
 0 <= z_3881 <= 1
 0 <= z_3882 <= 1
 0 <= z_3883 <= 1
 0 <= z_3884 <= 1
 0 <= z_3885 <= 1
 0 <= z_3886 <= 1
 0 <= z_3887 <= 1
 0 <= z_3888 <= 1
 0 <= z_3889 <= 1
 0 <= z_3890 <= 1
 0 <= z_3891 <= 1
 0 <= z_3892 <= 1
 0 <= z_3893 <= 1
 0 <= z_3894 <= 1
 0 <= z_3895 <= 1
 0 <= z_3896 <= 1
 0 <= z_3897 <= 1
 0 <= z_3898 <= 1
 0 <= z_3899 <= 1
 0 <= z_3900 <= 1
 0 <= z_3901 <= 1
 0 <= z_3902 <= 1
 0 <= z_3903 <= 1
 0 <= z_3904 <= 1
 0 <= z_3905 <= 1
 0 <= z_3906 <= 1
 0 <= z_3907 <= 1
 0 <= z_3908 <= 1
 0 <= z_3909 <= 1
 0 <= z_3910 <= 1
 0 <= z_3911 <= 1
 0 <= z_3912 <= 1
 0 <= z_3913 <= 1
 0 <= z_3914 <= 1
 0 <= z_3915 <= 1
 0 <= z_3916 <= 1
 0 <= z_3917 <= 1
 0 <= z_3918 <= 1
 0 <= z_3919 <= 1
 0 <= z_3920 <= 1
 0 <= z_3921 <= 1
 0 <= z_3922 <= 1
 0 <= z_3923 <= 1
 0 <= z_3924 <= 1
 0 <= z_3925 <= 1
 0 <= z_3926 <= 1
 0 <= z_3927 <= 1
 0 <= z_3928 <= 1
 0 <= z_3929 <= 1
 0 <= z_3930 <= 1
 0 <= z_3931 <= 1
 0 <= z_3932 <= 1
 0 <= z_3933 <= 1
 0 <= z_3934 <= 1
 0 <= z_3935 <= 1
 0 <= z_3936 <= 1
 0 <= z_3937 <= 1
 0 <= z_3938 <= 1
 0 <= z_3939 <= 1
 0 <= z_3940 <= 1
 0 <= z_3941 <= 1
 0 <= z_3942 <= 1
 0 <= z_3943 <= 1
 0 <= z_3944 <= 1
 0 <= z_3945 <= 1
 0 <= z_3946 <= 1
 0 <= z_3947 <= 1
 0 <= z_3948 <= 1
 0 <= z_3949 <= 1
 0 <= z_3950 <= 1
 0 <= z_3951 <= 1
 0 <= z_3952 <= 1
 0 <= z_3953 <= 1
 0 <= z_3954 <= 1
 0 <= z_3955 <= 1
 0 <= z_3956 <= 1
 0 <= z_3957 <= 1
 0 <= z_3958 <= 1
 0 <= z_3959 <= 1
 0 <= z_3960 <= 1
 0 <= z_3961 <= 1
 0 <= z_3962 <= 1
 0 <= z_3963 <= 1
 0 <= z_3964 <= 1
 0 <= z_3965 <= 1
 0 <= z_3966 <= 1
 0 <= z_3967 <= 1
 0 <= z_3968 <= 1
 0 <= z_3969 <= 1
 0 <= z_3970 <= 1
 0 <= z_3971 <= 1
 0 <= z_3972 <= 1
 0 <= z_3973 <= 1
 0 <= z_3974 <= 1
 0 <= z_3975 <= 1
 0 <= z_3976 <= 1
 0 <= z_3977 <= 1
 0 <= z_3978 <= 1
 0 <= z_3979 <= 1
 0 <= z_3980 <= 1
 0 <= z_3981 <= 1
 0 <= z_3982 <= 1
 0 <= z_3983 <= 1
 0 <= z_3984 <= 1
 0 <= z_3985 <= 1
 0 <= z_3986 <= 1
 0 <= z_3987 <= 1
 0 <= z_3988 <= 1
 0 <= z_3989 <= 1
 0 <= z_3990 <= 1
 0 <= z_3991 <= 1
 0 <= z_3992 <= 1
 0 <= z_3993 <= 1
 0 <= z_3994 <= 1
 0 <= z_3995 <= 1
 0 <= z_3996 <= 1
 0 <= z_3997 <= 1
 0 <= z_3998 <= 1
 0 <= z_3999 <= 1
 0 <= z_4000 <= 1
 0 <= z_4001 <= 1
 0 <= z_4002 <= 1
 0 <= z_4003 <= 1
 0 <= z_4004 <= 1
 0 <= z_4005 <= 1
 0 <= z_4006 <= 1
 0 <= z_4007 <= 1
 0 <= z_4008 <= 1
 0 <= z_4009 <= 1
 0 <= z_4010 <= 1
 0 <= z_4011 <= 1
 0 <= z_4012 <= 1
 0 <= z_4013 <= 1
 0 <= z_4014 <= 1
 0 <= z_4015 <= 1
 0 <= z_4016 <= 1
 0 <= z_4017 <= 1
 0 <= z_4018 <= 1
 0 <= z_4019 <= 1
 0 <= z_4020 <= 1
 0 <= z_4021 <= 1
 0 <= z_4022 <= 1
 0 <= z_4023 <= 1
 0 <= z_4024 <= 1
 0 <= z_4025 <= 1
 0 <= z_4026 <= 1
 0 <= z_4027 <= 1
 0 <= z_4028 <= 1
 0 <= z_4029 <= 1
 0 <= z_4030 <= 1
 0 <= z_4031 <= 1
 0 <= z_4032 <= 1
 0 <= z_4033 <= 1
 0 <= z_4034 <= 1
 0 <= z_4035 <= 1
 0 <= z_4036 <= 1
 0 <= z_4037 <= 1
 0 <= z_4038 <= 1
 0 <= z_4039 <= 1
 0 <= z_4040 <= 1
 0 <= z_4041 <= 1
 0 <= z_4042 <= 1
 0 <= z_4043 <= 1
 0 <= z_4044 <= 1
 0 <= z_4045 <= 1
 0 <= z_4046 <= 1
 0 <= z_4047 <= 1
 0 <= z_4048 <= 1
 0 <= z_4049 <= 1
 0 <= z_4050 <= 1
 0 <= z_4051 <= 1
 0 <= z_4052 <= 1
 0 <= z_4053 <= 1
 0 <= z_4054 <= 1
 0 <= z_4055 <= 1
 0 <= z_4056 <= 1
 0 <= z_4057 <= 1
 0 <= z_4058 <= 1
 0 <= z_4059 <= 1
 0 <= z_4060 <= 1
 0 <= z_4061 <= 1
 0 <= z_4062 <= 1
 0 <= z_4063 <= 1
 0 <= z_4064 <= 1
 0 <= z_4065 <= 1
 0 <= z_4066 <= 1
 0 <= z_4067 <= 1
 0 <= z_4068 <= 1
 0 <= z_4069 <= 1
 0 <= z_4070 <= 1
 0 <= z_4071 <= 1
 0 <= z_4072 <= 1
 0 <= z_4073 <= 1
 0 <= z_4074 <= 1
 0 <= z_4075 <= 1
 0 <= z_4076 <= 1
 0 <= z_4077 <= 1
 0 <= z_4078 <= 1
 0 <= z_4079 <= 1
 0 <= z_4080 <= 1
 0 <= z_4081 <= 1
 0 <= z_4082 <= 1
 0 <= z_4083 <= 1
 0 <= z_4084 <= 1
 0 <= z_4085 <= 1
 0 <= z_4086 <= 1
 0 <= z_4087 <= 1
 0 <= z_4088 <= 1
 0 <= z_4089 <= 1
 0 <= z_4090 <= 1
 0 <= z_4091 <= 1
 0 <= z_4092 <= 1
 0 <= z_4093 <= 1
 0 <= z_4094 <= 1
 0 <= z_4095 <= 1
 0 <= z_4096 <= 1
 0 <= z_4097 <= 1
 0 <= z_4098 <= 1
 0 <= z_4099 <= 1
 0 <= z_4100 <= 1
 0 <= z_4101 <= 1
 0 <= z_4102 <= 1
 0 <= z_4103 <= 1
 0 <= z_4104 <= 1
 0 <= z_4105 <= 1
 0 <= z_4106 <= 1
 0 <= z_4107 <= 1
 0 <= z_4108 <= 1
 0 <= z_4109 <= 1
 0 <= z_4110 <= 1
 0 <= z_4111 <= 1
 0 <= z_4112 <= 1
 0 <= z_4113 <= 1
 0 <= z_4114 <= 1
 0 <= z_4115 <= 1
 0 <= z_4116 <= 1
 0 <= z_4117 <= 1
 0 <= z_4118 <= 1
 0 <= z_4119 <= 1
 0 <= z_4120 <= 1
 0 <= z_4121 <= 1
 0 <= z_4122 <= 1
 0 <= z_4123 <= 1
 0 <= z_4124 <= 1
 0 <= z_4125 <= 1
 0 <= z_4126 <= 1
 0 <= z_4127 <= 1
 0 <= z_4128 <= 1
 0 <= z_4129 <= 1
 0 <= z_4130 <= 1
 0 <= z_4131 <= 1
 0 <= z_4132 <= 1
 0 <= z_4133 <= 1
 0 <= z_4134 <= 1
 0 <= z_4135 <= 1
 0 <= z_4136 <= 1
 0 <= z_4137 <= 1
 0 <= z_4138 <= 1
 0 <= z_4139 <= 1
 0 <= z_4140 <= 1
 0 <= z_4141 <= 1
 0 <= z_4142 <= 1
 0 <= z_4143 <= 1
 0 <= z_4144 <= 1
 0 <= z_4145 <= 1
 0 <= z_4146 <= 1
 0 <= z_4147 <= 1
 0 <= z_4148 <= 1
 0 <= z_4149 <= 1
 0 <= z_4150 <= 1
 0 <= z_4151 <= 1
 0 <= z_4152 <= 1
 0 <= z_4153 <= 1
 0 <= z_4154 <= 1
 0 <= z_4155 <= 1
 0 <= z_4156 <= 1
 0 <= z_4157 <= 1
 0 <= z_4158 <= 1
 0 <= z_4159 <= 1
 0 <= z_4160 <= 1
 0 <= z_4161 <= 1
 0 <= z_4162 <= 1
 0 <= z_4163 <= 1
 0 <= z_4164 <= 1
 0 <= z_4165 <= 1
 0 <= z_4166 <= 1
 0 <= z_4167 <= 1
 0 <= z_4168 <= 1
 0 <= z_4169 <= 1
 0 <= z_4170 <= 1
 0 <= z_4171 <= 1
 0 <= z_4172 <= 1
 0 <= z_4173 <= 1
 0 <= z_4174 <= 1
 0 <= z_4175 <= 1
 0 <= z_4176 <= 1
 0 <= z_4177 <= 1
 0 <= z_4178 <= 1
 0 <= z_4179 <= 1
 0 <= z_4180 <= 1
 0 <= z_4181 <= 1
 0 <= z_4182 <= 1
 0 <= z_4183 <= 1
 0 <= z_4184 <= 1
 0 <= z_4185 <= 1
 0 <= z_4186 <= 1
 0 <= z_4187 <= 1
 0 <= z_4188 <= 1
 0 <= z_4189 <= 1
 0 <= z_4190 <= 1
 0 <= z_4191 <= 1
 0 <= z_4192 <= 1
 0 <= z_4193 <= 1
 0 <= z_4194 <= 1
 0 <= z_4195 <= 1
 0 <= z_4196 <= 1
 0 <= z_4197 <= 1
 0 <= z_4198 <= 1
 0 <= z_4199 <= 1
 0 <= z_4200 <= 1
 0 <= z_4201 <= 1
 0 <= z_4202 <= 1
 0 <= z_4203 <= 1
 0 <= z_4204 <= 1
 0 <= z_4205 <= 1
 0 <= z_4206 <= 1
 0 <= z_4207 <= 1
 0 <= z_4208 <= 1
 0 <= z_4209 <= 1
 0 <= z_4210 <= 1
 0 <= z_4211 <= 1
 0 <= z_4212 <= 1
 0 <= z_4213 <= 1
 0 <= z_4214 <= 1
 0 <= z_4215 <= 1
 0 <= z_4216 <= 1
 0 <= z_4217 <= 1
 0 <= z_4218 <= 1
 0 <= z_4219 <= 1
 0 <= z_4220 <= 1
 0 <= z_4221 <= 1
 0 <= z_4222 <= 1
 0 <= z_4223 <= 1
 0 <= z_4224 <= 1
 0 <= z_4225 <= 1
 0 <= z_4226 <= 1
 0 <= z_4227 <= 1
 0 <= z_4228 <= 1
 0 <= z_4229 <= 1
 0 <= z_4230 <= 1
 0 <= z_4231 <= 1
 0 <= z_4232 <= 1
 0 <= z_4233 <= 1
 0 <= z_4234 <= 1
 0 <= z_4235 <= 1
 0 <= z_4236 <= 1
 0 <= z_4237 <= 1
 0 <= z_4238 <= 1
 0 <= z_4239 <= 1
 0 <= z_4240 <= 1
 0 <= z_4241 <= 1
 0 <= z_4242 <= 1
 0 <= z_4243 <= 1
 0 <= z_4244 <= 1
 0 <= z_4245 <= 1
 0 <= z_4246 <= 1
 0 <= z_4247 <= 1
 0 <= z_4248 <= 1
 0 <= z_4249 <= 1
 0 <= z_4250 <= 1
 0 <= z_4251 <= 1
 0 <= z_4252 <= 1
 0 <= z_4253 <= 1
 0 <= z_4254 <= 1
 0 <= z_4255 <= 1
 0 <= z_4256 <= 1
 0 <= z_4257 <= 1
 0 <= z_4258 <= 1
 0 <= z_4259 <= 1
 0 <= z_4260 <= 1
 0 <= z_4261 <= 1
 0 <= z_4262 <= 1
 0 <= z_4263 <= 1
 0 <= z_4264 <= 1
 0 <= z_4265 <= 1
 0 <= z_4266 <= 1
 0 <= z_4267 <= 1
 0 <= z_4268 <= 1
 0 <= z_4269 <= 1
 0 <= z_4270 <= 1
 0 <= z_4271 <= 1
 0 <= z_4272 <= 1
 0 <= z_4273 <= 1
 0 <= z_4274 <= 1
 0 <= z_4275 <= 1
 0 <= z_4276 <= 1
 0 <= z_4277 <= 1
 0 <= z_4278 <= 1
 0 <= z_4279 <= 1
 0 <= z_4280 <= 1
 0 <= z_4281 <= 1
 0 <= z_4282 <= 1
 0 <= z_4283 <= 1
 0 <= z_4284 <= 1
 0 <= z_4285 <= 1
 0 <= z_4286 <= 1
 0 <= z_4287 <= 1
 0 <= z_4288 <= 1
 0 <= z_4289 <= 1
 0 <= z_4290 <= 1
 0 <= z_4291 <= 1
 0 <= z_4292 <= 1
 0 <= z_4293 <= 1
 0 <= z_4294 <= 1
 0 <= z_4295 <= 1
 0 <= z_4296 <= 1
 0 <= z_4297 <= 1
 0 <= z_4298 <= 1
 0 <= z_4299 <= 1
 0 <= z_4300 <= 1
 0 <= z_4301 <= 1
 0 <= z_4302 <= 1
 0 <= z_4303 <= 1
 0 <= z_4304 <= 1
 0 <= z_4305 <= 1
 0 <= z_4306 <= 1
 0 <= z_4307 <= 1
 0 <= z_4308 <= 1
 0 <= z_4309 <= 1
 0 <= z_4310 <= 1
 0 <= z_4311 <= 1
 0 <= z_4312 <= 1
 0 <= z_4313 <= 1
 0 <= z_4314 <= 1
 0 <= z_4315 <= 1
 0 <= z_4316 <= 1
 0 <= z_4317 <= 1
 0 <= z_4318 <= 1
 0 <= z_4319 <= 1
 0 <= z_4320 <= 1
 0 <= z_4321 <= 1
 0 <= z_4322 <= 1
 0 <= z_4323 <= 1
 0 <= z_4324 <= 1
 0 <= z_4325 <= 1
 0 <= z_4326 <= 1
 0 <= z_4327 <= 1
 0 <= z_4328 <= 1
 0 <= z_4329 <= 1
 0 <= z_4330 <= 1
 0 <= z_4331 <= 1
 0 <= z_4332 <= 1
 0 <= z_4333 <= 1
 0 <= z_4334 <= 1
 0 <= z_4335 <= 1
 0 <= z_4336 <= 1
 0 <= z_4337 <= 1
 0 <= z_4338 <= 1
 0 <= z_4339 <= 1
 0 <= z_4340 <= 1
 0 <= z_4341 <= 1
 0 <= z_4342 <= 1
 0 <= z_4343 <= 1
 0 <= z_4344 <= 1
 0 <= z_4345 <= 1
 0 <= z_4346 <= 1
 0 <= z_4347 <= 1
 0 <= z_4348 <= 1
 0 <= z_4349 <= 1
 0 <= z_4350 <= 1
 0 <= z_4351 <= 1
 0 <= z_4352 <= 1
 0 <= z_4353 <= 1
 0 <= z_4354 <= 1
 0 <= z_4355 <= 1
 0 <= z_4356 <= 1
 0 <= z_4357 <= 1
 0 <= z_4358 <= 1
 0 <= z_4359 <= 1
 0 <= z_4360 <= 1
 0 <= z_4361 <= 1
 0 <= z_4362 <= 1
 0 <= z_4363 <= 1
 0 <= z_4364 <= 1
 0 <= z_4365 <= 1
 0 <= z_4366 <= 1
 0 <= z_4367 <= 1
 0 <= z_4368 <= 1
 0 <= z_4369 <= 1
 0 <= z_4370 <= 1
 0 <= z_4371 <= 1
 0 <= z_4372 <= 1
 0 <= z_4373 <= 1
 0 <= z_4374 <= 1
 0 <= z_4375 <= 1
 0 <= z_4376 <= 1
 0 <= z_4377 <= 1
 0 <= z_4378 <= 1
 0 <= z_4379 <= 1
 0 <= z_4380 <= 1
 0 <= z_4381 <= 1
 0 <= z_4382 <= 1
 0 <= z_4383 <= 1
 0 <= z_4384 <= 1
 0 <= z_4385 <= 1
 0 <= z_4386 <= 1
 0 <= z_4387 <= 1
 0 <= z_4388 <= 1
 0 <= z_4389 <= 1
 0 <= z_4390 <= 1
 0 <= z_4391 <= 1
 0 <= z_4392 <= 1
 0 <= z_4393 <= 1
 0 <= z_4394 <= 1
 0 <= z_4395 <= 1
 0 <= z_4396 <= 1
 0 <= z_4397 <= 1
 0 <= z_4398 <= 1
 0 <= z_4399 <= 1
 0 <= z_4400 <= 1
 0 <= z_4401 <= 1
 0 <= z_4402 <= 1
 0 <= z_4403 <= 1
 0 <= z_4404 <= 1
 0 <= z_4405 <= 1
 0 <= z_4406 <= 1
 0 <= z_4407 <= 1
 0 <= z_4408 <= 1
 0 <= z_4409 <= 1
 0 <= z_4410 <= 1
 0 <= z_4411 <= 1
 0 <= z_4412 <= 1
 0 <= z_4413 <= 1
 0 <= z_4414 <= 1
 0 <= z_4415 <= 1
 0 <= z_4416 <= 1
 0 <= z_4417 <= 1
 0 <= z_4418 <= 1
 0 <= z_4419 <= 1
 0 <= z_4420 <= 1
 0 <= z_4421 <= 1
 0 <= z_4422 <= 1
 0 <= z_4423 <= 1
 0 <= z_4424 <= 1
 0 <= z_4425 <= 1
 0 <= z_4426 <= 1
 0 <= z_4427 <= 1
 0 <= z_4428 <= 1
 0 <= z_4429 <= 1
 0 <= z_4430 <= 1
 0 <= z_4431 <= 1
 0 <= z_4432 <= 1
 0 <= z_4433 <= 1
 0 <= z_4434 <= 1
 0 <= z_4435 <= 1
 0 <= z_4436 <= 1
 0 <= z_4437 <= 1
 0 <= z_4438 <= 1
 0 <= z_4439 <= 1
 0 <= z_4440 <= 1
 0 <= z_4441 <= 1
 0 <= z_4442 <= 1
 0 <= z_4443 <= 1
 0 <= z_4444 <= 1
 0 <= z_4445 <= 1
 0 <= z_4446 <= 1
 0 <= z_4447 <= 1
 0 <= z_4448 <= 1
 0 <= z_4449 <= 1
 0 <= z_4450 <= 1
 0 <= z_4451 <= 1
 0 <= z_4452 <= 1
 0 <= z_4453 <= 1
 0 <= z_4454 <= 1
 0 <= z_4455 <= 1
 0 <= z_4456 <= 1
 0 <= z_4457 <= 1
 0 <= z_4458 <= 1
 0 <= z_4459 <= 1
 0 <= z_4460 <= 1
 0 <= z_4461 <= 1
 0 <= z_4462 <= 1
 0 <= z_4463 <= 1
 0 <= z_4464 <= 1
 0 <= z_4465 <= 1
 0 <= z_4466 <= 1
 0 <= z_4467 <= 1
 0 <= z_4468 <= 1
 0 <= z_4469 <= 1
 0 <= z_4470 <= 1
 0 <= z_4471 <= 1
 0 <= z_4472 <= 1
 0 <= z_4473 <= 1
 0 <= z_4474 <= 1
 0 <= z_4475 <= 1
 0 <= z_4476 <= 1
 0 <= z_4477 <= 1
 0 <= z_4478 <= 1
 0 <= z_4479 <= 1
 0 <= z_4480 <= 1
 0 <= z_4481 <= 1
 0 <= z_4482 <= 1
 0 <= z_4483 <= 1
 0 <= z_4484 <= 1
 0 <= z_4485 <= 1
 0 <= z_4486 <= 1
 0 <= z_4487 <= 1
 0 <= z_4488 <= 1
 0 <= z_4489 <= 1
 0 <= z_4490 <= 1
 0 <= z_4491 <= 1
 0 <= z_4492 <= 1
 0 <= z_4493 <= 1
 0 <= z_4494 <= 1
 0 <= z_4495 <= 1
 0 <= z_4496 <= 1
 0 <= z_4497 <= 1
 0 <= z_4498 <= 1
 0 <= z_4499 <= 1
 0 <= z_4500 <= 1
 0 <= z_4501 <= 1
 0 <= z_4502 <= 1
 0 <= z_4503 <= 1
 0 <= z_4504 <= 1
 0 <= z_4505 <= 1
 0 <= z_4506 <= 1
 0 <= z_4507 <= 1
 0 <= z_4508 <= 1
 0 <= z_4509 <= 1
 0 <= z_4510 <= 1
 0 <= z_4511 <= 1
 0 <= z_4512 <= 1
 0 <= z_4513 <= 1
 0 <= z_4514 <= 1
 0 <= z_4515 <= 1
 0 <= z_4516 <= 1
 0 <= z_4517 <= 1
 0 <= z_4518 <= 1
 0 <= z_4519 <= 1
 0 <= z_4520 <= 1
 0 <= z_4521 <= 1
 0 <= z_4522 <= 1
 0 <= z_4523 <= 1
 0 <= z_4524 <= 1
 0 <= z_4525 <= 1
 0 <= z_4526 <= 1
 0 <= z_4527 <= 1
 0 <= z_4528 <= 1
 0 <= z_4529 <= 1
 0 <= z_4530 <= 1
 0 <= z_4531 <= 1
 0 <= z_4532 <= 1
 0 <= z_4533 <= 1
 0 <= z_4534 <= 1
 0 <= z_4535 <= 1
 0 <= z_4536 <= 1
 0 <= z_4537 <= 1
 0 <= z_4538 <= 1
 0 <= z_4539 <= 1
 0 <= z_4540 <= 1
 0 <= z_4541 <= 1
 0 <= z_4542 <= 1
 0 <= z_4543 <= 1
 0 <= z_4544 <= 1
 0 <= z_4545 <= 1
 0 <= z_4546 <= 1
 0 <= z_4547 <= 1
 0 <= z_4548 <= 1
 0 <= z_4549 <= 1
 0 <= z_4550 <= 1
 0 <= z_4551 <= 1
 0 <= z_4552 <= 1
 0 <= z_4553 <= 1
 0 <= z_4554 <= 1
 0 <= z_4555 <= 1
 0 <= z_4556 <= 1
 0 <= z_4557 <= 1
 0 <= z_4558 <= 1
 0 <= z_4559 <= 1
 0 <= z_4560 <= 1
 0 <= z_4561 <= 1
 0 <= z_4562 <= 1
 0 <= z_4563 <= 1
 0 <= z_4564 <= 1
 0 <= z_4565 <= 1
 0 <= z_4566 <= 1
 0 <= z_4567 <= 1
 0 <= z_4568 <= 1
 0 <= z_4569 <= 1
 0 <= z_4570 <= 1
 0 <= z_4571 <= 1
 0 <= z_4572 <= 1
 0 <= z_4573 <= 1
 0 <= z_4574 <= 1
 0 <= z_4575 <= 1
 0 <= z_4576 <= 1
 0 <= z_4577 <= 1
 0 <= z_4578 <= 1
 0 <= z_4579 <= 1
 0 <= z_4580 <= 1
 0 <= z_4581 <= 1
 0 <= z_4582 <= 1
 0 <= z_4583 <= 1
 0 <= z_4584 <= 1
 0 <= z_4585 <= 1
 0 <= z_4586 <= 1
 0 <= z_4587 <= 1
 0 <= z_4588 <= 1
 0 <= z_4589 <= 1
 0 <= z_4590 <= 1
 0 <= z_4591 <= 1
 0 <= z_4592 <= 1
 0 <= z_4593 <= 1
 0 <= z_4594 <= 1
 0 <= z_4595 <= 1
 0 <= z_4596 <= 1
 0 <= z_4597 <= 1
 0 <= z_4598 <= 1
 0 <= z_4599 <= 1
 0 <= z_4600 <= 1
 0 <= z_4601 <= 1
 0 <= z_4602 <= 1
 0 <= z_4603 <= 1
 0 <= z_4604 <= 1
 0 <= z_4605 <= 1
 0 <= z_4606 <= 1
 0 <= z_4607 <= 1
 0 <= z_4608 <= 1
 0 <= z_4609 <= 1
 0 <= z_4610 <= 1
 0 <= z_4611 <= 1
 0 <= z_4612 <= 1
 0 <= z_4613 <= 1
 0 <= z_4614 <= 1
 0 <= z_4615 <= 1
 0 <= z_4616 <= 1
 0 <= z_4617 <= 1
 0 <= z_4618 <= 1
 0 <= z_4619 <= 1
 0 <= z_4620 <= 1
 0 <= z_4621 <= 1
 0 <= z_4622 <= 1
 0 <= z_4623 <= 1
 0 <= z_4624 <= 1
 0 <= z_4625 <= 1
 0 <= z_4626 <= 1
 0 <= z_4627 <= 1
 0 <= z_4628 <= 1
 0 <= z_4629 <= 1
 0 <= z_4630 <= 1
 0 <= z_4631 <= 1
 0 <= z_4632 <= 1
 0 <= z_4633 <= 1
 0 <= z_4634 <= 1
 0 <= z_4635 <= 1
 0 <= z_4636 <= 1
 0 <= z_4637 <= 1
 0 <= z_4638 <= 1
 0 <= z_4639 <= 1
 0 <= z_4640 <= 1
 0 <= z_4641 <= 1
 0 <= z_4642 <= 1
 0 <= z_4643 <= 1
 0 <= z_4644 <= 1
 0 <= z_4645 <= 1
 0 <= z_4646 <= 1
 0 <= z_4647 <= 1
 0 <= z_4648 <= 1
 0 <= z_4649 <= 1
 0 <= z_4650 <= 1
 0 <= z_4651 <= 1
 0 <= z_4652 <= 1
 0 <= z_4653 <= 1
 0 <= z_4654 <= 1
 0 <= z_4655 <= 1
 0 <= z_4656 <= 1
 0 <= z_4657 <= 1
 0 <= z_4658 <= 1
 0 <= z_4659 <= 1
 0 <= z_4660 <= 1
 0 <= z_4661 <= 1
 0 <= z_4662 <= 1
 0 <= z_4663 <= 1
 0 <= z_4664 <= 1
 0 <= z_4665 <= 1
 0 <= z_4666 <= 1
 0 <= z_4667 <= 1
 0 <= z_4668 <= 1
 0 <= z_4669 <= 1
 0 <= z_4670 <= 1
 0 <= z_4671 <= 1
 0 <= z_4672 <= 1
 0 <= z_4673 <= 1
 0 <= z_4674 <= 1
 0 <= z_4675 <= 1
 0 <= z_4676 <= 1
 0 <= z_4677 <= 1
 0 <= z_4678 <= 1
 0 <= z_4679 <= 1
 0 <= z_4680 <= 1
 0 <= z_4681 <= 1
 0 <= z_4682 <= 1
 0 <= z_4683 <= 1
 0 <= z_4684 <= 1
 0 <= z_4685 <= 1
 0 <= z_4686 <= 1
 0 <= z_4687 <= 1
 0 <= z_4688 <= 1
 0 <= z_4689 <= 1
 0 <= z_4690 <= 1
 0 <= z_4691 <= 1
 0 <= z_4692 <= 1
 0 <= z_4693 <= 1
 0 <= z_4694 <= 1
 0 <= z_4695 <= 1
 0 <= z_4696 <= 1
 0 <= z_4697 <= 1
 0 <= z_4698 <= 1
 0 <= z_4699 <= 1
 0 <= z_4700 <= 1
 0 <= z_4701 <= 1
 0 <= z_4702 <= 1
 0 <= z_4703 <= 1
 0 <= z_4704 <= 1
 0 <= z_4705 <= 1
 0 <= z_4706 <= 1
 0 <= z_4707 <= 1
 0 <= z_4708 <= 1
 0 <= z_4709 <= 1
 0 <= z_4710 <= 1
 0 <= z_4711 <= 1
 0 <= z_4712 <= 1
 0 <= z_4713 <= 1
 0 <= z_4714 <= 1
 0 <= z_4715 <= 1
 0 <= z_4716 <= 1
 0 <= z_4717 <= 1
 0 <= z_4718 <= 1
 0 <= z_4719 <= 1
 0 <= z_4720 <= 1
 0 <= z_4721 <= 1
 0 <= z_4722 <= 1
 0 <= z_4723 <= 1
 0 <= z_4724 <= 1
 0 <= z_4725 <= 1
 0 <= z_4726 <= 1
 0 <= z_4727 <= 1
 0 <= z_4728 <= 1
 0 <= z_4729 <= 1
 0 <= z_4730 <= 1
 0 <= z_4731 <= 1
 0 <= z_4732 <= 1
 0 <= z_4733 <= 1
 0 <= z_4734 <= 1
 0 <= z_4735 <= 1
 0 <= z_4736 <= 1
 0 <= z_4737 <= 1
 0 <= z_4738 <= 1
 0 <= z_4739 <= 1
 0 <= z_4740 <= 1
 0 <= z_4741 <= 1
 0 <= z_4742 <= 1
 0 <= z_4743 <= 1
 0 <= z_4744 <= 1
 0 <= z_4745 <= 1
 0 <= z_4746 <= 1
 0 <= z_4747 <= 1
 0 <= z_4748 <= 1
 0 <= z_4749 <= 1
 0 <= z_4750 <= 1
 0 <= z_4751 <= 1
 0 <= z_4752 <= 1
 0 <= z_4753 <= 1
 0 <= z_4754 <= 1
 0 <= z_4755 <= 1
 0 <= z_4756 <= 1
 0 <= z_4757 <= 1
 0 <= z_4758 <= 1
 0 <= z_4759 <= 1
 0 <= z_4760 <= 1
 0 <= z_4761 <= 1
 0 <= z_4762 <= 1
 0 <= z_4763 <= 1
 0 <= z_4764 <= 1
 0 <= z_4765 <= 1
 0 <= z_4766 <= 1
 0 <= z_4767 <= 1
 0 <= z_4768 <= 1
 0 <= z_4769 <= 1
 0 <= z_4770 <= 1
 0 <= z_4771 <= 1
 0 <= z_4772 <= 1
 0 <= z_4773 <= 1
 0 <= z_4774 <= 1
 0 <= z_4775 <= 1
 0 <= z_4776 <= 1
 0 <= z_4777 <= 1
 0 <= z_4778 <= 1
 0 <= z_4779 <= 1
 0 <= z_4780 <= 1
 0 <= z_4781 <= 1
 0 <= z_4782 <= 1
 0 <= z_4783 <= 1
 0 <= z_4784 <= 1
 0 <= z_4785 <= 1
 0 <= z_4786 <= 1
 0 <= z_4787 <= 1
 0 <= z_4788 <= 1
 0 <= z_4789 <= 1
 0 <= z_4790 <= 1
 0 <= z_4791 <= 1
 0 <= z_4792 <= 1
 0 <= z_4793 <= 1
 0 <= z_4794 <= 1
 0 <= z_4795 <= 1
 0 <= z_4796 <= 1
 0 <= z_4797 <= 1
 0 <= z_4798 <= 1
 0 <= z_4799 <= 1
 0 <= z_4800 <= 1
 0 <= z_4801 <= 1
 0 <= z_4802 <= 1
 0 <= z_4803 <= 1
 0 <= z_4804 <= 1
 0 <= z_4805 <= 1
 0 <= z_4806 <= 1
 0 <= z_4807 <= 1
 0 <= z_4808 <= 1
 0 <= z_4809 <= 1
 0 <= z_4810 <= 1
 0 <= z_4811 <= 1
 0 <= z_4812 <= 1
 0 <= z_4813 <= 1
 0 <= z_4814 <= 1
 0 <= z_4815 <= 1
 0 <= z_4816 <= 1
 0 <= z_4817 <= 1
 0 <= z_4818 <= 1
 0 <= z_4819 <= 1
 0 <= z_4820 <= 1
 0 <= z_4821 <= 1
 0 <= z_4822 <= 1
 0 <= z_4823 <= 1
 0 <= z_4824 <= 1
 0 <= z_4825 <= 1
 0 <= z_4826 <= 1
 0 <= z_4827 <= 1
 0 <= z_4828 <= 1
 0 <= z_4829 <= 1
 0 <= z_4830 <= 1
 0 <= z_4831 <= 1
 0 <= z_4832 <= 1
 0 <= z_4833 <= 1
 0 <= z_4834 <= 1
 0 <= z_4835 <= 1
 0 <= z_4836 <= 1
 0 <= z_4837 <= 1
 0 <= z_4838 <= 1
 0 <= z_4839 <= 1
 0 <= z_4840 <= 1
 0 <= z_4841 <= 1
 0 <= z_4842 <= 1
 0 <= z_4843 <= 1
 0 <= z_4844 <= 1
 0 <= z_4845 <= 1
 0 <= z_4846 <= 1
 0 <= z_4847 <= 1
 0 <= z_4848 <= 1
 0 <= z_4849 <= 1
 0 <= z_4850 <= 1
 0 <= z_4851 <= 1
 0 <= z_4852 <= 1
 0 <= z_4853 <= 1
 0 <= z_4854 <= 1
 0 <= z_4855 <= 1
 0 <= z_4856 <= 1
 0 <= z_4857 <= 1
 0 <= z_4858 <= 1
 0 <= z_4859 <= 1
 0 <= z_4860 <= 1
 0 <= z_4861 <= 1
 0 <= z_4862 <= 1
 0 <= z_4863 <= 1
 0 <= z_4864 <= 1
 0 <= z_4865 <= 1
 0 <= z_4866 <= 1
 0 <= z_4867 <= 1
 0 <= z_4868 <= 1
 0 <= z_4869 <= 1
 0 <= z_4870 <= 1
 0 <= z_4871 <= 1
 0 <= z_4872 <= 1
 0 <= z_4873 <= 1
 0 <= z_4874 <= 1
 0 <= z_4875 <= 1
 0 <= z_4876 <= 1
 0 <= z_4877 <= 1
 0 <= z_4878 <= 1
 0 <= z_4879 <= 1
 0 <= z_4880 <= 1
 0 <= z_4881 <= 1
 0 <= z_4882 <= 1
 0 <= z_4883 <= 1
 0 <= z_4884 <= 1
 0 <= z_4885 <= 1
 0 <= z_4886 <= 1
 0 <= z_4887 <= 1
 0 <= z_4888 <= 1
 0 <= z_4889 <= 1
 0 <= z_4890 <= 1
 0 <= z_4891 <= 1
 0 <= z_4892 <= 1
 0 <= z_4893 <= 1
 0 <= z_4894 <= 1
 0 <= z_4895 <= 1
 0 <= z_4896 <= 1
 0 <= z_4897 <= 1
 0 <= z_4898 <= 1
 0 <= z_4899 <= 1
 0 <= z_4900 <= 1
 0 <= z_4901 <= 1
 0 <= z_4902 <= 1
 0 <= z_4903 <= 1
 0 <= z_4904 <= 1
 0 <= z_4905 <= 1
 0 <= z_4906 <= 1
 0 <= z_4907 <= 1
 0 <= z_4908 <= 1
 0 <= z_4909 <= 1
 0 <= z_4910 <= 1
 0 <= z_4911 <= 1
 0 <= z_4912 <= 1
 0 <= z_4913 <= 1
 0 <= z_4914 <= 1
 0 <= z_4915 <= 1
 0 <= z_4916 <= 1
 0 <= z_4917 <= 1
 0 <= z_4918 <= 1
 0 <= z_4919 <= 1
 0 <= z_4920 <= 1
 0 <= z_4921 <= 1
 0 <= z_4922 <= 1
 0 <= z_4923 <= 1
 0 <= z_4924 <= 1
 0 <= z_4925 <= 1
 0 <= z_4926 <= 1
 0 <= z_4927 <= 1
 0 <= z_4928 <= 1
 0 <= z_4929 <= 1
 0 <= z_4930 <= 1
 0 <= z_4931 <= 1
 0 <= z_4932 <= 1
 0 <= z_4933 <= 1
 0 <= z_4934 <= 1
 0 <= z_4935 <= 1
 0 <= z_4936 <= 1
 0 <= z_4937 <= 1
 0 <= z_4938 <= 1
 0 <= z_4939 <= 1
 0 <= z_4940 <= 1
 0 <= z_4941 <= 1
 0 <= z_4942 <= 1
 0 <= z_4943 <= 1
 0 <= z_4944 <= 1
 0 <= z_4945 <= 1
 0 <= z_4946 <= 1
 0 <= z_4947 <= 1
 0 <= z_4948 <= 1
 0 <= z_4949 <= 1
 0 <= z_4950 <= 1
 0 <= z_4951 <= 1
 0 <= z_4952 <= 1
 0 <= z_4953 <= 1
 0 <= z_4954 <= 1
 0 <= z_4955 <= 1
 0 <= z_4956 <= 1
 0 <= z_4957 <= 1
 0 <= z_4958 <= 1
 0 <= z_4959 <= 1
 0 <= z_4960 <= 1
 0 <= z_4961 <= 1
 0 <= z_4962 <= 1
 0 <= z_4963 <= 1
 0 <= z_4964 <= 1
 0 <= z_4965 <= 1
 0 <= z_4966 <= 1
 0 <= z_4967 <= 1
 0 <= z_4968 <= 1
 0 <= z_4969 <= 1
 0 <= z_4970 <= 1
 0 <= z_4971 <= 1
 0 <= z_4972 <= 1
 0 <= z_4973 <= 1
 0 <= z_4974 <= 1
 0 <= z_4975 <= 1
 0 <= z_4976 <= 1
 0 <= z_4977 <= 1
 0 <= z_4978 <= 1
 0 <= z_4979 <= 1
 0 <= z_4980 <= 1
 0 <= z_4981 <= 1
 0 <= z_4982 <= 1
 0 <= z_4983 <= 1
 0 <= z_4984 <= 1
 0 <= z_4985 <= 1
 0 <= z_4986 <= 1
 0 <= z_4987 <= 1
 0 <= z_4988 <= 1
 0 <= z_4989 <= 1
 0 <= z_4990 <= 1
 0 <= z_4991 <= 1
 0 <= z_4992 <= 1
 0 <= z_4993 <= 1
 0 <= z_4994 <= 1
 0 <= z_4995 <= 1
 0 <= z_4996 <= 1
 0 <= z_4997 <= 1
 0 <= z_4998 <= 1
 0 <= z_4999 <= 1
 0 <= z_5000 <= 1
 0 <= z_5001 <= 1
 0 <= z_5002 <= 1
 0 <= z_5003 <= 1
 0 <= z_5004 <= 1
 0 <= z_5005 <= 1
 0 <= z_5006 <= 1
 0 <= z_5007 <= 1
 0 <= z_5008 <= 1
 0 <= z_5009 <= 1
 0 <= z_5010 <= 1
 0 <= z_5011 <= 1
 0 <= z_5012 <= 1
 0 <= z_5013 <= 1
 0 <= z_5014 <= 1
 0 <= z_5015 <= 1
 0 <= z_5016 <= 1
 0 <= z_5017 <= 1
 0 <= z_5018 <= 1
 0 <= z_5019 <= 1
 0 <= z_5020 <= 1
 0 <= z_5021 <= 1
 0 <= z_5022 <= 1
 0 <= z_5023 <= 1
 0 <= z_5024 <= 1
 0 <= z_5025 <= 1
 0 <= z_5026 <= 1
 0 <= z_5027 <= 1
 0 <= z_5028 <= 1
 0 <= z_5029 <= 1
 0 <= z_5030 <= 1
 0 <= z_5031 <= 1
 0 <= z_5032 <= 1
 0 <= z_5033 <= 1
 0 <= z_5034 <= 1
 0 <= z_5035 <= 1
 0 <= z_5036 <= 1
 0 <= z_5037 <= 1
 0 <= z_5038 <= 1
 0 <= z_5039 <= 1
 0 <= z_5040 <= 1
 0 <= z_5041 <= 1
 0 <= z_5042 <= 1
 0 <= z_5043 <= 1
 0 <= z_5044 <= 1
 0 <= z_5045 <= 1
 0 <= z_5046 <= 1
 0 <= z_5047 <= 1
 0 <= z_5048 <= 1
 0 <= z_5049 <= 1
 0 <= z_5050 <= 1
 0 <= z_5051 <= 1
 0 <= z_5052 <= 1
 0 <= z_5053 <= 1
 0 <= z_5054 <= 1
 0 <= z_5055 <= 1
 0 <= z_5056 <= 1
 0 <= z_5057 <= 1
 0 <= z_5058 <= 1
 0 <= z_5059 <= 1
 0 <= z_5060 <= 1
 0 <= z_5061 <= 1
 0 <= z_5062 <= 1
 0 <= z_5063 <= 1
 0 <= z_5064 <= 1
 0 <= z_5065 <= 1
 0 <= z_5066 <= 1
 0 <= z_5067 <= 1
 0 <= z_5068 <= 1
 0 <= z_5069 <= 1
 0 <= z_5070 <= 1
 0 <= z_5071 <= 1
 0 <= z_5072 <= 1
 0 <= z_5073 <= 1
 0 <= z_5074 <= 1
 0 <= z_5075 <= 1
 0 <= z_5076 <= 1
 0 <= z_5077 <= 1
 0 <= z_5078 <= 1
 0 <= z_5079 <= 1
 0 <= z_5080 <= 1
 0 <= z_5081 <= 1
 0 <= z_5082 <= 1
 0 <= z_5083 <= 1
 0 <= z_5084 <= 1
 0 <= z_5085 <= 1
 0 <= z_5086 <= 1
 0 <= z_5087 <= 1
 0 <= z_5088 <= 1
 0 <= z_5089 <= 1
 0 <= z_5090 <= 1
 0 <= z_5091 <= 1
 0 <= z_5092 <= 1
 0 <= z_5093 <= 1
 0 <= z_5094 <= 1
 0 <= z_5095 <= 1
 0 <= z_5096 <= 1
 0 <= z_5097 <= 1
 0 <= z_5098 <= 1
 0 <= z_5099 <= 1
 0 <= z_5100 <= 1
 0 <= z_5101 <= 1
 0 <= z_5102 <= 1
 0 <= z_5103 <= 1
 0 <= z_5104 <= 1
 0 <= z_5105 <= 1
 0 <= z_5106 <= 1
 0 <= z_5107 <= 1
 0 <= z_5108 <= 1
 0 <= z_5109 <= 1
 0 <= z_5110 <= 1
 0 <= z_5111 <= 1
 0 <= z_5112 <= 1
 0 <= z_5113 <= 1
 0 <= z_5114 <= 1
 0 <= z_5115 <= 1
 0 <= z_5116 <= 1
 0 <= z_5117 <= 1
 0 <= z_5118 <= 1
 0 <= z_5119 <= 1
 0 <= z_5120 <= 1
 0 <= z_5121 <= 1
 0 <= z_5122 <= 1
 0 <= z_5123 <= 1
 0 <= z_5124 <= 1
 0 <= z_5125 <= 1
 0 <= z_5126 <= 1
 0 <= z_5127 <= 1
 0 <= z_5128 <= 1
 0 <= z_5129 <= 1
 0 <= z_5130 <= 1
 0 <= z_5131 <= 1
 0 <= z_5132 <= 1
 0 <= z_5133 <= 1
 0 <= z_5134 <= 1
 0 <= z_5135 <= 1
 0 <= z_5136 <= 1
 0 <= z_5137 <= 1
 0 <= z_5138 <= 1
 0 <= z_5139 <= 1
 0 <= z_5140 <= 1
 0 <= z_5141 <= 1
 0 <= z_5142 <= 1
 0 <= z_5143 <= 1
 0 <= z_5144 <= 1
 0 <= z_5145 <= 1
 0 <= z_5146 <= 1
 0 <= z_5147 <= 1
 0 <= z_5148 <= 1
 0 <= z_5149 <= 1
 0 <= z_5150 <= 1
 0 <= z_5151 <= 1
 0 <= z_5152 <= 1
 0 <= z_5153 <= 1
 0 <= z_5154 <= 1
 0 <= z_5155 <= 1
 0 <= z_5156 <= 1
 0 <= z_5157 <= 1
 0 <= z_5158 <= 1
 0 <= z_5159 <= 1
 0 <= z_5160 <= 1
 0 <= z_5161 <= 1
 0 <= z_5162 <= 1
 0 <= z_5163 <= 1
 0 <= z_5164 <= 1
 0 <= z_5165 <= 1
 0 <= z_5166 <= 1
 0 <= z_5167 <= 1
 0 <= z_5168 <= 1
 0 <= z_5169 <= 1
 0 <= z_5170 <= 1
 0 <= z_5171 <= 1
 0 <= z_5172 <= 1
 0 <= z_5173 <= 1
 0 <= z_5174 <= 1
 0 <= z_5175 <= 1
 0 <= z_5176 <= 1
 0 <= z_5177 <= 1
 0 <= z_5178 <= 1
 0 <= z_5179 <= 1
 0 <= z_5180 <= 1
 0 <= z_5181 <= 1
 0 <= z_5182 <= 1
 0 <= z_5183 <= 1
 0 <= z_5184 <= 1
 0 <= z_5185 <= 1
 0 <= z_5186 <= 1
 0 <= z_5187 <= 1
 0 <= z_5188 <= 1
 0 <= z_5189 <= 1
 0 <= z_5190 <= 1
 0 <= z_5191 <= 1
 0 <= z_5192 <= 1
 0 <= z_5193 <= 1
 0 <= z_5194 <= 1
 0 <= z_5195 <= 1
 0 <= z_5196 <= 1
 0 <= z_5197 <= 1
 0 <= z_5198 <= 1
 0 <= z_5199 <= 1
 0 <= z_5200 <= 1
 0 <= z_5201 <= 1
 0 <= z_5202 <= 1
 0 <= z_5203 <= 1
 0 <= z_5204 <= 1
 0 <= z_5205 <= 1
 0 <= z_5206 <= 1
 0 <= z_5207 <= 1
 0 <= z_5208 <= 1
 0 <= z_5209 <= 1
 0 <= z_5210 <= 1
 0 <= z_5211 <= 1
 0 <= z_5212 <= 1
 0 <= z_5213 <= 1
 0 <= z_5214 <= 1
 0 <= z_5215 <= 1
 0 <= z_5216 <= 1
 0 <= z_5217 <= 1
 0 <= z_5218 <= 1
 0 <= z_5219 <= 1
 0 <= z_5220 <= 1
 0 <= z_5221 <= 1
 0 <= z_5222 <= 1
 0 <= z_5223 <= 1
 0 <= z_5224 <= 1
 0 <= z_5225 <= 1
 0 <= z_5226 <= 1
 0 <= z_5227 <= 1
 0 <= z_5228 <= 1
 0 <= z_5229 <= 1
 0 <= z_5230 <= 1
 0 <= z_5231 <= 1
 0 <= z_5232 <= 1
 0 <= z_5233 <= 1
 0 <= z_5234 <= 1
 0 <= z_5235 <= 1
 0 <= z_5236 <= 1
 0 <= z_5237 <= 1
 0 <= z_5238 <= 1
 0 <= z_5239 <= 1
 0 <= z_5240 <= 1
 0 <= z_5241 <= 1
 0 <= z_5242 <= 1
 0 <= z_5243 <= 1
 0 <= z_5244 <= 1
 0 <= z_5245 <= 1
 0 <= z_5246 <= 1
 0 <= z_5247 <= 1
 0 <= z_5248 <= 1
 0 <= z_5249 <= 1
 0 <= z_5250 <= 1
 0 <= z_5251 <= 1
 0 <= z_5252 <= 1
 0 <= z_5253 <= 1
 0 <= z_5254 <= 1
 0 <= z_5255 <= 1
 0 <= z_5256 <= 1
 0 <= z_5257 <= 1
 0 <= z_5258 <= 1
 0 <= z_5259 <= 1
 0 <= z_5260 <= 1
 0 <= z_5261 <= 1
 0 <= z_5262 <= 1
 0 <= z_5263 <= 1
 0 <= z_5264 <= 1
 0 <= z_5265 <= 1
 0 <= z_5266 <= 1
 0 <= z_5267 <= 1
 0 <= z_5268 <= 1
 0 <= z_5269 <= 1
 0 <= z_5270 <= 1
 0 <= z_5271 <= 1
 0 <= z_5272 <= 1
 0 <= z_5273 <= 1
 0 <= z_5274 <= 1
 0 <= z_5275 <= 1
 0 <= z_5276 <= 1
 0 <= z_5277 <= 1
 0 <= z_5278 <= 1
 0 <= z_5279 <= 1
 0 <= z_5280 <= 1
 0 <= z_5281 <= 1
 0 <= z_5282 <= 1
 0 <= z_5283 <= 1
 0 <= z_5284 <= 1
 0 <= z_5285 <= 1
 0 <= z_5286 <= 1
 0 <= z_5287 <= 1
 0 <= z_5288 <= 1
 0 <= z_5289 <= 1
 0 <= z_5290 <= 1
 0 <= z_5291 <= 1
 0 <= z_5292 <= 1
 0 <= z_5293 <= 1
 0 <= z_5294 <= 1
 0 <= z_5295 <= 1
 0 <= z_5296 <= 1
 0 <= z_5297 <= 1
 0 <= z_5298 <= 1
 0 <= z_5299 <= 1
 0 <= z_5300 <= 1
 0 <= z_5301 <= 1
 0 <= z_5302 <= 1
 0 <= z_5303 <= 1
 0 <= z_5304 <= 1
 0 <= z_5305 <= 1
 0 <= z_5306 <= 1
 0 <= z_5307 <= 1
 0 <= z_5308 <= 1
 0 <= z_5309 <= 1
 0 <= z_5310 <= 1
 0 <= z_5311 <= 1
 0 <= z_5312 <= 1
 0 <= z_5313 <= 1
 0 <= z_5314 <= 1
 0 <= z_5315 <= 1
 0 <= z_5316 <= 1
 0 <= z_5317 <= 1
 0 <= z_5318 <= 1
 0 <= z_5319 <= 1
 0 <= z_5320 <= 1
 0 <= z_5321 <= 1
 0 <= z_5322 <= 1
 0 <= z_5323 <= 1
 0 <= z_5324 <= 1
 0 <= z_5325 <= 1
 0 <= z_5326 <= 1
 0 <= z_5327 <= 1
 0 <= z_5328 <= 1
 0 <= z_5329 <= 1
 0 <= z_5330 <= 1
 0 <= z_5331 <= 1
 0 <= z_5332 <= 1
 0 <= z_5333 <= 1
 0 <= z_5334 <= 1
 0 <= z_5335 <= 1
 0 <= z_5336 <= 1
 0 <= z_5337 <= 1
 0 <= z_5338 <= 1
 0 <= z_5339 <= 1
 0 <= z_5340 <= 1
 0 <= z_5341 <= 1
 0 <= z_5342 <= 1
 0 <= z_5343 <= 1
 0 <= z_5344 <= 1
 0 <= z_5345 <= 1
 0 <= z_5346 <= 1
 0 <= z_5347 <= 1
 0 <= z_5348 <= 1
 0 <= z_5349 <= 1
 0 <= z_5350 <= 1
 0 <= z_5351 <= 1
 0 <= z_5352 <= 1
 0 <= z_5353 <= 1
 0 <= z_5354 <= 1
 0 <= z_5355 <= 1
 0 <= z_5356 <= 1
 0 <= z_5357 <= 1
 0 <= z_5358 <= 1
 0 <= z_5359 <= 1
 0 <= z_5360 <= 1
 0 <= z_5361 <= 1
 0 <= z_5362 <= 1
 0 <= z_5363 <= 1
 0 <= z_5364 <= 1
 0 <= z_5365 <= 1
 0 <= z_5366 <= 1
 0 <= z_5367 <= 1
 0 <= z_5368 <= 1
 0 <= z_5369 <= 1
 0 <= z_5370 <= 1
 0 <= z_5371 <= 1
 0 <= z_5372 <= 1
 0 <= z_5373 <= 1
 0 <= z_5374 <= 1
 0 <= z_5375 <= 1
 0 <= z_5376 <= 1
 0 <= z_5377 <= 1
 0 <= z_5378 <= 1
 0 <= z_5379 <= 1
 0 <= z_5380 <= 1
 0 <= z_5381 <= 1
 0 <= z_5382 <= 1
 0 <= z_5383 <= 1
 0 <= z_5384 <= 1
 0 <= z_5385 <= 1
 0 <= z_5386 <= 1
 0 <= z_5387 <= 1
 0 <= z_5388 <= 1
 0 <= z_5389 <= 1
 0 <= z_5390 <= 1
 0 <= z_5391 <= 1
 0 <= z_5392 <= 1
 0 <= z_5393 <= 1
 0 <= z_5394 <= 1
 0 <= z_5395 <= 1
 0 <= z_5396 <= 1
 0 <= z_5397 <= 1
 0 <= z_5398 <= 1
 0 <= z_5399 <= 1
 0 <= z_5400 <= 1
 0 <= z_5401 <= 1
 0 <= z_5402 <= 1
 0 <= z_5403 <= 1
 0 <= z_5404 <= 1
 0 <= z_5405 <= 1
 0 <= z_5406 <= 1
 0 <= z_5407 <= 1
 0 <= z_5408 <= 1
 0 <= z_5409 <= 1
 0 <= z_5410 <= 1
 0 <= z_5411 <= 1
 0 <= z_5412 <= 1
 0 <= z_5413 <= 1
 0 <= z_5414 <= 1
 0 <= z_5415 <= 1
 0 <= z_5416 <= 1
 0 <= z_5417 <= 1
 0 <= z_5418 <= 1
 0 <= z_5419 <= 1
 0 <= z_5420 <= 1
 0 <= z_5421 <= 1
 0 <= z_5422 <= 1
 0 <= z_5423 <= 1
 0 <= z_5424 <= 1
 0 <= z_5425 <= 1
 0 <= z_5426 <= 1
 0 <= z_5427 <= 1
 0 <= z_5428 <= 1
 0 <= z_5429 <= 1
 0 <= z_5430 <= 1
 0 <= z_5431 <= 1
 0 <= z_5432 <= 1
 0 <= z_5433 <= 1
 0 <= z_5434 <= 1
 0 <= z_5435 <= 1
 0 <= z_5436 <= 1
 0 <= z_5437 <= 1
 0 <= z_5438 <= 1
 0 <= z_5439 <= 1
 0 <= z_5440 <= 1
 0 <= z_5441 <= 1
 0 <= z_5442 <= 1
 0 <= z_5443 <= 1
 0 <= z_5444 <= 1
 0 <= z_5445 <= 1
 0 <= z_5446 <= 1
 0 <= z_5447 <= 1
 0 <= z_5448 <= 1
 0 <= z_5449 <= 1
 0 <= z_5450 <= 1
 0 <= z_5451 <= 1
 0 <= z_5452 <= 1
 0 <= z_5453 <= 1
 0 <= z_5454 <= 1
 0 <= z_5455 <= 1
 0 <= z_5456 <= 1
 0 <= z_5457 <= 1
 0 <= z_5458 <= 1
 0 <= z_5459 <= 1
 0 <= z_5460 <= 1
 0 <= z_5461 <= 1
 0 <= z_5462 <= 1
 0 <= z_5463 <= 1
 0 <= z_5464 <= 1
 0 <= z_5465 <= 1
 0 <= z_5466 <= 1
 0 <= z_5467 <= 1
 0 <= z_5468 <= 1
 0 <= z_5469 <= 1
 0 <= z_5470 <= 1
 0 <= z_5471 <= 1
 0 <= z_5472 <= 1
 0 <= z_5473 <= 1
 0 <= z_5474 <= 1
 0 <= z_5475 <= 1
 0 <= z_5476 <= 1
 0 <= z_5477 <= 1
 0 <= z_5478 <= 1
 0 <= z_5479 <= 1
 0 <= z_5480 <= 1
 0 <= z_5481 <= 1
 0 <= z_5482 <= 1
 0 <= z_5483 <= 1
 0 <= z_5484 <= 1
 0 <= z_5485 <= 1
 0 <= z_5486 <= 1
 0 <= z_5487 <= 1
 0 <= z_5488 <= 1
 0 <= z_5489 <= 1
 0 <= z_5490 <= 1
 0 <= z_5491 <= 1
 0 <= z_5492 <= 1
 0 <= z_5493 <= 1
 0 <= z_5494 <= 1
 0 <= z_5495 <= 1
 0 <= z_5496 <= 1
 0 <= z_5497 <= 1
 0 <= z_5498 <= 1
 0 <= z_5499 <= 1
 0 <= z_5500 <= 1
 0 <= z_5501 <= 1
 0 <= z_5502 <= 1
 0 <= z_5503 <= 1
 0 <= z_5504 <= 1
 0 <= z_5505 <= 1
 0 <= z_5506 <= 1
 0 <= z_5507 <= 1
 0 <= z_5508 <= 1
 0 <= z_5509 <= 1
 0 <= z_5510 <= 1
 0 <= z_5511 <= 1
 0 <= z_5512 <= 1
 0 <= z_5513 <= 1
 0 <= z_5514 <= 1
 0 <= z_5515 <= 1
 0 <= z_5516 <= 1
 0 <= z_5517 <= 1
 0 <= z_5518 <= 1
 0 <= z_5519 <= 1
 0 <= z_5520 <= 1
 0 <= z_5521 <= 1
 0 <= z_5522 <= 1
 0 <= z_5523 <= 1
 0 <= z_5524 <= 1
 0 <= z_5525 <= 1
 0 <= z_5526 <= 1
 0 <= z_5527 <= 1
 0 <= z_5528 <= 1
 0 <= z_5529 <= 1
 0 <= z_5530 <= 1
 0 <= z_5531 <= 1
 0 <= z_5532 <= 1
 0 <= z_5533 <= 1
 0 <= z_5534 <= 1
 0 <= z_5535 <= 1
 0 <= z_5536 <= 1
 0 <= z_5537 <= 1
 0 <= z_5538 <= 1
 0 <= z_5539 <= 1
 0 <= z_5540 <= 1
 0 <= z_5541 <= 1
 0 <= z_5542 <= 1
 0 <= z_5543 <= 1
 0 <= z_5544 <= 1
 0 <= z_5545 <= 1
 0 <= z_5546 <= 1
 0 <= z_5547 <= 1
 0 <= z_5548 <= 1
 0 <= z_5549 <= 1
 0 <= z_5550 <= 1
 0 <= z_5551 <= 1
 0 <= z_5552 <= 1
 0 <= z_5553 <= 1
 0 <= z_5554 <= 1
 0 <= z_5555 <= 1
 0 <= z_5556 <= 1
 0 <= z_5557 <= 1
 0 <= z_5558 <= 1
 0 <= z_5559 <= 1
 0 <= z_5560 <= 1
 0 <= z_5561 <= 1
 0 <= z_5562 <= 1
 0 <= z_5563 <= 1
 0 <= z_5564 <= 1
 0 <= z_5565 <= 1
 0 <= z_5566 <= 1
 0 <= z_5567 <= 1
 0 <= z_5568 <= 1
 0 <= z_5569 <= 1
 0 <= z_5570 <= 1
 0 <= z_5571 <= 1
 0 <= z_5572 <= 1
 0 <= z_5573 <= 1
 0 <= z_5574 <= 1
 0 <= z_5575 <= 1
 0 <= z_5576 <= 1
 0 <= z_5577 <= 1
 0 <= z_5578 <= 1
 0 <= z_5579 <= 1
 0 <= z_5580 <= 1
 0 <= z_5581 <= 1
 0 <= z_5582 <= 1
 0 <= z_5583 <= 1
 0 <= z_5584 <= 1
 0 <= z_5585 <= 1
 0 <= z_5586 <= 1
 0 <= z_5587 <= 1
 0 <= z_5588 <= 1
 0 <= z_5589 <= 1
 0 <= z_5590 <= 1
 0 <= z_5591 <= 1
 0 <= z_5592 <= 1
 0 <= z_5593 <= 1
 0 <= z_5594 <= 1
 0 <= z_5595 <= 1
 0 <= z_5596 <= 1
 0 <= z_5597 <= 1
 0 <= z_5598 <= 1
 0 <= z_5599 <= 1
 0 <= z_5600 <= 1
 0 <= z_5601 <= 1
 0 <= z_5602 <= 1
 0 <= z_5603 <= 1
 0 <= z_5604 <= 1
 0 <= z_5605 <= 1
 0 <= z_5606 <= 1
 0 <= z_5607 <= 1
 0 <= z_5608 <= 1
 0 <= z_5609 <= 1
 0 <= z_5610 <= 1
 0 <= z_5611 <= 1
 0 <= z_5612 <= 1
 0 <= z_5613 <= 1
 0 <= z_5614 <= 1
 0 <= z_5615 <= 1
 0 <= z_5616 <= 1
 0 <= z_5617 <= 1
 0 <= z_5618 <= 1
 0 <= z_5619 <= 1
 0 <= z_5620 <= 1
 0 <= z_5621 <= 1
 0 <= z_5622 <= 1
 0 <= z_5623 <= 1
 0 <= z_5624 <= 1
 0 <= z_5625 <= 1
 0 <= z_5626 <= 1
 0 <= z_5627 <= 1
 0 <= z_5628 <= 1
 0 <= z_5629 <= 1
 0 <= z_5630 <= 1
 0 <= z_5631 <= 1
 0 <= z_5632 <= 1
 0 <= z_5633 <= 1
 0 <= z_5634 <= 1
 0 <= z_5635 <= 1
 0 <= z_5636 <= 1
 0 <= z_5637 <= 1
 0 <= z_5638 <= 1
 0 <= z_5639 <= 1
 0 <= z_5640 <= 1
 0 <= z_5641 <= 1
 0 <= z_5642 <= 1
 0 <= z_5643 <= 1
 0 <= z_5644 <= 1
 0 <= z_5645 <= 1
 0 <= z_5646 <= 1
 0 <= z_5647 <= 1
 0 <= z_5648 <= 1
 0 <= z_5649 <= 1
 0 <= z_5650 <= 1
 0 <= z_5651 <= 1
 0 <= z_5652 <= 1
 0 <= z_5653 <= 1
 0 <= z_5654 <= 1
 0 <= z_5655 <= 1
 0 <= z_5656 <= 1
 0 <= z_5657 <= 1
 0 <= z_5658 <= 1
 0 <= z_5659 <= 1
 0 <= z_5660 <= 1
 0 <= z_5661 <= 1
 0 <= z_5662 <= 1
 0 <= z_5663 <= 1
 0 <= z_5664 <= 1
 0 <= z_5665 <= 1
 0 <= z_5666 <= 1
 0 <= z_5667 <= 1
 0 <= z_5668 <= 1
 0 <= z_5669 <= 1
 0 <= z_5670 <= 1
 0 <= z_5671 <= 1
 0 <= z_5672 <= 1
 0 <= z_5673 <= 1
 0 <= z_5674 <= 1
 0 <= z_5675 <= 1
 0 <= z_5676 <= 1
 0 <= z_5677 <= 1
 0 <= z_5678 <= 1
 0 <= z_5679 <= 1
 0 <= z_5680 <= 1
 0 <= z_5681 <= 1
 0 <= z_5682 <= 1
 0 <= z_5683 <= 1
 0 <= z_5684 <= 1
 0 <= z_5685 <= 1
 0 <= z_5686 <= 1
 0 <= z_5687 <= 1
 0 <= z_5688 <= 1
 0 <= z_5689 <= 1
 0 <= z_5690 <= 1
 0 <= z_5691 <= 1
 0 <= z_5692 <= 1
 0 <= z_5693 <= 1
 0 <= z_5694 <= 1
 0 <= z_5695 <= 1
 0 <= z_5696 <= 1
 0 <= z_5697 <= 1
 0 <= z_5698 <= 1
 0 <= z_5699 <= 1
 0 <= z_5700 <= 1
 0 <= z_5701 <= 1
 0 <= z_5702 <= 1
 0 <= z_5703 <= 1
 0 <= z_5704 <= 1
 0 <= z_5705 <= 1
 0 <= z_5706 <= 1
 0 <= z_5707 <= 1
 0 <= z_5708 <= 1
 0 <= z_5709 <= 1
 0 <= z_5710 <= 1
 0 <= z_5711 <= 1
 0 <= z_5712 <= 1
 0 <= z_5713 <= 1
 0 <= z_5714 <= 1
 0 <= z_5715 <= 1
 0 <= z_5716 <= 1
 0 <= z_5717 <= 1
 0 <= z_5718 <= 1
 0 <= z_5719 <= 1
 0 <= z_5720 <= 1
 0 <= z_5721 <= 1
 0 <= z_5722 <= 1
 0 <= z_5723 <= 1
 0 <= z_5724 <= 1
 0 <= z_5725 <= 1
 0 <= z_5726 <= 1
 0 <= z_5727 <= 1
 0 <= z_5728 <= 1
 0 <= z_5729 <= 1
 0 <= z_5730 <= 1
 0 <= z_5731 <= 1
 0 <= z_5732 <= 1
 0 <= z_5733 <= 1
 0 <= z_5734 <= 1
 0 <= z_5735 <= 1
 0 <= z_5736 <= 1
 0 <= z_5737 <= 1
 0 <= z_5738 <= 1
 0 <= z_5739 <= 1
 0 <= z_5740 <= 1
 0 <= z_5741 <= 1
 0 <= z_5742 <= 1
 0 <= z_5743 <= 1
 0 <= z_5744 <= 1
 0 <= z_5745 <= 1
 0 <= z_5746 <= 1
 0 <= z_5747 <= 1
 0 <= z_5748 <= 1
 0 <= z_5749 <= 1
 0 <= z_5750 <= 1
 0 <= z_5751 <= 1
 0 <= z_5752 <= 1
 0 <= z_5753 <= 1
 0 <= z_5754 <= 1
 0 <= z_5755 <= 1
 0 <= z_5756 <= 1
 0 <= z_5757 <= 1
 0 <= z_5758 <= 1
 0 <= z_5759 <= 1
 0 <= z_5760 <= 1
 0 <= z_5761 <= 1
 0 <= z_5762 <= 1
 0 <= z_5763 <= 1
 0 <= z_5764 <= 1
 0 <= z_5765 <= 1
 0 <= z_5766 <= 1
 0 <= z_5767 <= 1
 0 <= z_5768 <= 1
 0 <= z_5769 <= 1
 0 <= z_5770 <= 1
 0 <= z_5771 <= 1
 0 <= z_5772 <= 1
 0 <= z_5773 <= 1
 0 <= z_5774 <= 1
 0 <= z_5775 <= 1
 0 <= z_5776 <= 1
 0 <= z_5777 <= 1
 0 <= z_5778 <= 1
 0 <= z_5779 <= 1
 0 <= z_5780 <= 1
 0 <= z_5781 <= 1
 0 <= z_5782 <= 1
 0 <= z_5783 <= 1
 0 <= z_5784 <= 1
 0 <= z_5785 <= 1
 0 <= z_5786 <= 1
 0 <= z_5787 <= 1
 0 <= z_5788 <= 1
 0 <= z_5789 <= 1
 0 <= z_5790 <= 1
 0 <= z_5791 <= 1
 0 <= z_5792 <= 1
 0 <= z_5793 <= 1
 0 <= z_5794 <= 1
 0 <= z_5795 <= 1
 0 <= z_5796 <= 1
 0 <= z_5797 <= 1
 0 <= z_5798 <= 1
 0 <= z_5799 <= 1
 0 <= z_5800 <= 1
 0 <= z_5801 <= 1
 0 <= z_5802 <= 1
 0 <= z_5803 <= 1
 0 <= z_5804 <= 1
 0 <= z_5805 <= 1
 0 <= z_5806 <= 1
 0 <= z_5807 <= 1
 0 <= z_5808 <= 1
 0 <= z_5809 <= 1
 0 <= z_5810 <= 1
 0 <= z_5811 <= 1
 0 <= z_5812 <= 1
 0 <= z_5813 <= 1
 0 <= z_5814 <= 1
 0 <= z_5815 <= 1
 0 <= z_5816 <= 1
 0 <= z_5817 <= 1
 0 <= z_5818 <= 1
 0 <= z_5819 <= 1
 0 <= z_5820 <= 1
 0 <= z_5821 <= 1
 0 <= z_5822 <= 1
 0 <= z_5823 <= 1
 0 <= z_5824 <= 1
 0 <= z_5825 <= 1
 0 <= z_5826 <= 1
 0 <= z_5827 <= 1
 0 <= z_5828 <= 1
 0 <= z_5829 <= 1
 0 <= z_5830 <= 1
 0 <= z_5831 <= 1
 0 <= z_5832 <= 1
 0 <= z_5833 <= 1
 0 <= z_5834 <= 1
 0 <= z_5835 <= 1
 0 <= z_5836 <= 1
 0 <= z_5837 <= 1
 0 <= z_5838 <= 1
 0 <= z_5839 <= 1
 0 <= z_5840 <= 1
 0 <= z_5841 <= 1
 0 <= z_5842 <= 1
 0 <= z_5843 <= 1
 0 <= z_5844 <= 1
 0 <= z_5845 <= 1
 0 <= z_5846 <= 1
 0 <= z_5847 <= 1
 0 <= z_5848 <= 1
 0 <= z_5849 <= 1
 0 <= z_5850 <= 1
 0 <= z_5851 <= 1
 0 <= z_5852 <= 1
 0 <= z_5853 <= 1
 0 <= z_5854 <= 1
 0 <= z_5855 <= 1
 0 <= z_5856 <= 1
 0 <= z_5857 <= 1
 0 <= z_5858 <= 1
 0 <= z_5859 <= 1
 0 <= z_5860 <= 1
 0 <= z_5861 <= 1
 0 <= z_5862 <= 1
 0 <= z_5863 <= 1
 0 <= z_5864 <= 1
 0 <= z_5865 <= 1
 0 <= z_5866 <= 1
 0 <= z_5867 <= 1
 0 <= z_5868 <= 1
 0 <= z_5869 <= 1
 0 <= z_5870 <= 1
 0 <= z_5871 <= 1
 0 <= z_5872 <= 1
 0 <= z_5873 <= 1
 0 <= z_5874 <= 1
 0 <= z_5875 <= 1
 0 <= z_5876 <= 1
 0 <= z_5877 <= 1
 0 <= z_5878 <= 1
 0 <= z_5879 <= 1
 0 <= z_5880 <= 1
 0 <= z_5881 <= 1
 0 <= z_5882 <= 1
 0 <= z_5883 <= 1
 0 <= z_5884 <= 1
 0 <= z_5885 <= 1
 0 <= z_5886 <= 1
 0 <= z_5887 <= 1
 0 <= z_5888 <= 1
 0 <= z_5889 <= 1
 0 <= z_5890 <= 1
 0 <= z_5891 <= 1
 0 <= z_5892 <= 1
 0 <= z_5893 <= 1
 0 <= z_5894 <= 1
 0 <= z_5895 <= 1
 0 <= z_5896 <= 1
 0 <= z_5897 <= 1
 0 <= z_5898 <= 1
 0 <= z_5899 <= 1
 0 <= z_5900 <= 1
 0 <= z_5901 <= 1
 0 <= z_5902 <= 1
 0 <= z_5903 <= 1
 0 <= z_5904 <= 1
 0 <= z_5905 <= 1
 0 <= z_5906 <= 1
 0 <= z_5907 <= 1
 0 <= z_5908 <= 1
 0 <= z_5909 <= 1
 0 <= z_5910 <= 1
 0 <= z_5911 <= 1
 0 <= z_5912 <= 1
 0 <= z_5913 <= 1
 0 <= z_5914 <= 1
 0 <= z_5915 <= 1
 0 <= z_5916 <= 1
 0 <= z_5917 <= 1
 0 <= z_5918 <= 1
 0 <= z_5919 <= 1
 0 <= z_5920 <= 1
 0 <= z_5921 <= 1
 0 <= z_5922 <= 1
 0 <= z_5923 <= 1
 0 <= z_5924 <= 1
 0 <= z_5925 <= 1
 0 <= z_5926 <= 1
 0 <= z_5927 <= 1
 0 <= z_5928 <= 1
 0 <= z_5929 <= 1
 0 <= z_5930 <= 1
 0 <= z_5931 <= 1
 0 <= z_5932 <= 1
 0 <= z_5933 <= 1
 0 <= z_5934 <= 1
 0 <= z_5935 <= 1
 0 <= z_5936 <= 1
 0 <= z_5937 <= 1
 0 <= z_5938 <= 1
 0 <= z_5939 <= 1
 0 <= z_5940 <= 1
 0 <= z_5941 <= 1
 0 <= z_5942 <= 1
 0 <= z_5943 <= 1
 0 <= z_5944 <= 1
 0 <= z_5945 <= 1
 0 <= z_5946 <= 1
 0 <= z_5947 <= 1
 0 <= z_5948 <= 1
 0 <= z_5949 <= 1
 0 <= z_5950 <= 1
 0 <= z_5951 <= 1
 0 <= z_5952 <= 1
 0 <= z_5953 <= 1
 0 <= z_5954 <= 1
 0 <= z_5955 <= 1
 0 <= z_5956 <= 1
 0 <= z_5957 <= 1
 0 <= z_5958 <= 1
 0 <= z_5959 <= 1
 0 <= z_5960 <= 1
 0 <= z_5961 <= 1
 0 <= z_5962 <= 1
 0 <= z_5963 <= 1
 0 <= z_5964 <= 1
 0 <= z_5965 <= 1
 0 <= z_5966 <= 1
 0 <= z_5967 <= 1
 0 <= z_5968 <= 1
 0 <= z_5969 <= 1
 0 <= z_5970 <= 1
 0 <= z_5971 <= 1
 0 <= z_5972 <= 1
 0 <= z_5973 <= 1
 0 <= z_5974 <= 1
 0 <= z_5975 <= 1
 0 <= z_5976 <= 1
 0 <= z_5977 <= 1
 0 <= z_5978 <= 1
 0 <= z_5979 <= 1
 0 <= z_5980 <= 1
 0 <= z_5981 <= 1
 0 <= z_5982 <= 1
 0 <= z_5983 <= 1
 0 <= z_5984 <= 1
 0 <= z_5985 <= 1
 0 <= z_5986 <= 1
 0 <= z_5987 <= 1
 0 <= z_5988 <= 1
 0 <= z_5989 <= 1
 0 <= z_5990 <= 1
 0 <= z_5991 <= 1
 0 <= z_5992 <= 1
 0 <= z_5993 <= 1
 0 <= z_5994 <= 1
 0 <= z_5995 <= 1
 0 <= z_5996 <= 1
 0 <= z_5997 <= 1
 0 <= z_5998 <= 1
 0 <= z_5999 <= 1
 0 <= z_6000 <= 1
 0 <= z_6001 <= 1
 0 <= z_6002 <= 1
 0 <= z_6003 <= 1
 0 <= z_6004 <= 1
 0 <= z_6005 <= 1
 0 <= z_6006 <= 1
 0 <= z_6007 <= 1
 0 <= z_6008 <= 1
 0 <= z_6009 <= 1
 0 <= z_6010 <= 1
 0 <= z_6011 <= 1
 0 <= z_6012 <= 1
 0 <= z_6013 <= 1
 0 <= z_6014 <= 1
 0 <= z_6015 <= 1
 0 <= z_6016 <= 1
 0 <= z_6017 <= 1
 0 <= z_6018 <= 1
 0 <= z_6019 <= 1
 0 <= z_6020 <= 1
 0 <= z_6021 <= 1
 0 <= z_6022 <= 1
 0 <= z_6023 <= 1
 0 <= z_6024 <= 1
 0 <= z_6025 <= 1
 0 <= z_6026 <= 1
 0 <= z_6027 <= 1
 0 <= z_6028 <= 1
 0 <= z_6029 <= 1
 0 <= z_6030 <= 1
 0 <= z_6031 <= 1
 0 <= z_6032 <= 1
 0 <= z_6033 <= 1
 0 <= z_6034 <= 1
 0 <= z_6035 <= 1
 0 <= z_6036 <= 1
 0 <= z_6037 <= 1
 0 <= z_6038 <= 1
 0 <= z_6039 <= 1
 0 <= z_6040 <= 1
 0 <= z_6041 <= 1
 0 <= z_6042 <= 1
 0 <= z_6043 <= 1
 0 <= z_6044 <= 1
 0 <= z_6045 <= 1
 0 <= z_6046 <= 1
 0 <= z_6047 <= 1
 0 <= z_6048 <= 1
 0 <= z_6049 <= 1
 0 <= z_6050 <= 1
 0 <= z_6051 <= 1
 0 <= z_6052 <= 1
 0 <= z_6053 <= 1
 0 <= z_6054 <= 1
 0 <= z_6055 <= 1
 0 <= z_6056 <= 1
 0 <= z_6057 <= 1
 0 <= z_6058 <= 1
 0 <= z_6059 <= 1
 0 <= z_6060 <= 1
 0 <= z_6061 <= 1
 0 <= z_6062 <= 1
 0 <= z_6063 <= 1
 0 <= z_6064 <= 1
 0 <= z_6065 <= 1
 0 <= z_6066 <= 1
 0 <= z_6067 <= 1
 0 <= z_6068 <= 1
 0 <= z_6069 <= 1
 0 <= z_6070 <= 1
 0 <= z_6071 <= 1
 0 <= z_6072 <= 1
 0 <= z_6073 <= 1
 0 <= z_6074 <= 1
 0 <= z_6075 <= 1
 0 <= z_6076 <= 1
 0 <= z_6077 <= 1
 0 <= z_6078 <= 1
 0 <= z_6079 <= 1
 0 <= z_6080 <= 1
 0 <= z_6081 <= 1
 0 <= z_6082 <= 1
 0 <= z_6083 <= 1
 0 <= z_6084 <= 1
 0 <= z_6085 <= 1
 0 <= z_6086 <= 1
 0 <= z_6087 <= 1
 0 <= z_6088 <= 1
 0 <= z_6089 <= 1
 0 <= z_6090 <= 1
 0 <= z_6091 <= 1
 0 <= z_6092 <= 1
 0 <= z_6093 <= 1
 0 <= z_6094 <= 1
 0 <= z_6095 <= 1
 0 <= z_6096 <= 1
 0 <= z_6097 <= 1
 0 <= z_6098 <= 1
 0 <= z_6099 <= 1
 0 <= z_6100 <= 1
 0 <= z_6101 <= 1
 0 <= z_6102 <= 1
 0 <= z_6103 <= 1
 0 <= z_6104 <= 1
 0 <= z_6105 <= 1
 0 <= z_6106 <= 1
 0 <= z_6107 <= 1
 0 <= z_6108 <= 1
 0 <= z_6109 <= 1
 0 <= z_6110 <= 1
 0 <= z_6111 <= 1
 0 <= z_6112 <= 1
 0 <= z_6113 <= 1
 0 <= z_6114 <= 1
 0 <= z_6115 <= 1
 0 <= z_6116 <= 1
 0 <= z_6117 <= 1
 0 <= z_6118 <= 1
 0 <= z_6119 <= 1
 0 <= z_6120 <= 1
 0 <= z_6121 <= 1
 0 <= z_6122 <= 1
 0 <= z_6123 <= 1
 0 <= z_6124 <= 1
 0 <= z_6125 <= 1
 0 <= z_6126 <= 1
 0 <= z_6127 <= 1
 0 <= z_6128 <= 1
 0 <= z_6129 <= 1
 0 <= z_6130 <= 1
 0 <= z_6131 <= 1
 0 <= z_6132 <= 1
 0 <= z_6133 <= 1
 0 <= z_6134 <= 1
 0 <= z_6135 <= 1
 0 <= z_6136 <= 1
 0 <= z_6137 <= 1
 0 <= z_6138 <= 1
 0 <= z_6139 <= 1
 0 <= z_6140 <= 1
 0 <= z_6141 <= 1
 0 <= z_6142 <= 1
 0 <= z_6143 <= 1
 0 <= z_6144 <= 1
 0 <= z_6145 <= 1
 0 <= z_6146 <= 1
 0 <= z_6147 <= 1
 0 <= z_6148 <= 1
 0 <= z_6149 <= 1
 0 <= z_6150 <= 1
 0 <= z_6151 <= 1
 0 <= z_6152 <= 1
 0 <= z_6153 <= 1
 0 <= z_6154 <= 1
 0 <= z_6155 <= 1
 0 <= z_6156 <= 1
 0 <= z_6157 <= 1
 0 <= z_6158 <= 1
 0 <= z_6159 <= 1
 0 <= z_6160 <= 1
 0 <= z_6161 <= 1
 0 <= z_6162 <= 1
 0 <= z_6163 <= 1
 0 <= z_6164 <= 1
 0 <= z_6165 <= 1
 0 <= z_6166 <= 1
 0 <= z_6167 <= 1
 0 <= z_6168 <= 1
 0 <= z_6169 <= 1
 0 <= z_6170 <= 1
 0 <= z_6171 <= 1
 0 <= z_6172 <= 1
 0 <= z_6173 <= 1
 0 <= z_6174 <= 1
 0 <= z_6175 <= 1
 0 <= z_6176 <= 1
 0 <= z_6177 <= 1
 0 <= z_6178 <= 1
 0 <= z_6179 <= 1
 0 <= z_6180 <= 1
 0 <= z_6181 <= 1
 0 <= z_6182 <= 1
 0 <= z_6183 <= 1
 0 <= z_6184 <= 1
 0 <= z_6185 <= 1
 0 <= z_6186 <= 1
 0 <= z_6187 <= 1
 0 <= z_6188 <= 1
 0 <= z_6189 <= 1
 0 <= z_6190 <= 1
 0 <= z_6191 <= 1
 0 <= z_6192 <= 1
 0 <= z_6193 <= 1
 0 <= z_6194 <= 1
 0 <= z_6195 <= 1
 0 <= z_6196 <= 1
 0 <= z_6197 <= 1
 0 <= z_6198 <= 1
 0 <= z_6199 <= 1
 0 <= z_6200 <= 1
 0 <= z_6201 <= 1
 0 <= z_6202 <= 1
 0 <= z_6203 <= 1
 0 <= z_6204 <= 1
 0 <= z_6205 <= 1
 0 <= z_6206 <= 1
 0 <= z_6207 <= 1
 0 <= z_6208 <= 1
 0 <= z_6209 <= 1
 0 <= z_6210 <= 1
 0 <= z_6211 <= 1
 0 <= z_6212 <= 1
 0 <= z_6213 <= 1
 0 <= z_6214 <= 1
 0 <= z_6215 <= 1
 0 <= z_6216 <= 1
 0 <= z_6217 <= 1
 0 <= z_6218 <= 1
 0 <= z_6219 <= 1
 0 <= z_6220 <= 1
 0 <= z_6221 <= 1
 0 <= z_6222 <= 1
 0 <= z_6223 <= 1
 0 <= z_6224 <= 1
 0 <= z_6225 <= 1
 0 <= z_6226 <= 1
 0 <= z_6227 <= 1
 0 <= z_6228 <= 1
 0 <= z_6229 <= 1
 0 <= z_6230 <= 1
 0 <= z_6231 <= 1
 0 <= z_6232 <= 1
 0 <= z_6233 <= 1
 0 <= z_6234 <= 1
 0 <= z_6235 <= 1
 0 <= z_6236 <= 1
 0 <= z_6237 <= 1
 0 <= z_6238 <= 1
 0 <= z_6239 <= 1
 0 <= z_6240 <= 1
 0 <= z_6241 <= 1
 0 <= z_6242 <= 1
 0 <= z_6243 <= 1
 0 <= z_6244 <= 1
 0 <= z_6245 <= 1
 0 <= z_6246 <= 1
 0 <= z_6247 <= 1
 0 <= z_6248 <= 1
 0 <= z_6249 <= 1
 0 <= z_6250 <= 1
 0 <= z_6251 <= 1
 0 <= z_6252 <= 1
 0 <= z_6253 <= 1
 0 <= z_6254 <= 1
 0 <= z_6255 <= 1
 0 <= z_6256 <= 1
 0 <= z_6257 <= 1
 0 <= z_6258 <= 1
 0 <= z_6259 <= 1
 0 <= z_6260 <= 1
 0 <= z_6261 <= 1
 0 <= z_6262 <= 1
 0 <= z_6263 <= 1
 0 <= z_6264 <= 1
 0 <= z_6265 <= 1
 0 <= z_6266 <= 1
 0 <= z_6267 <= 1
 0 <= z_6268 <= 1
 0 <= z_6269 <= 1
 0 <= z_6270 <= 1
 0 <= z_6271 <= 1
 0 <= z_6272 <= 1
 0 <= z_6273 <= 1
 0 <= z_6274 <= 1
 0 <= z_6275 <= 1
 0 <= z_6276 <= 1
 0 <= z_6277 <= 1
 0 <= z_6278 <= 1
 0 <= z_6279 <= 1
 0 <= z_6280 <= 1
 0 <= z_6281 <= 1
 0 <= z_6282 <= 1
 0 <= z_6283 <= 1
 0 <= z_6284 <= 1
 0 <= z_6285 <= 1
 0 <= z_6286 <= 1
 0 <= z_6287 <= 1
 0 <= z_6288 <= 1
 0 <= z_6289 <= 1
 0 <= z_6290 <= 1
 0 <= z_6291 <= 1
 0 <= z_6292 <= 1
 0 <= z_6293 <= 1
 0 <= z_6294 <= 1
 0 <= z_6295 <= 1
 0 <= z_6296 <= 1
 0 <= z_6297 <= 1
 0 <= z_6298 <= 1
 0 <= z_6299 <= 1
 0 <= z_6300 <= 1
 0 <= z_6301 <= 1
 0 <= z_6302 <= 1
 0 <= z_6303 <= 1
 0 <= z_6304 <= 1
 0 <= z_6305 <= 1
 0 <= z_6306 <= 1
 0 <= z_6307 <= 1
 0 <= z_6308 <= 1
 0 <= z_6309 <= 1
 0 <= z_6310 <= 1
 0 <= z_6311 <= 1
 0 <= z_6312 <= 1
 0 <= z_6313 <= 1
 0 <= z_6314 <= 1
 0 <= z_6315 <= 1
 0 <= z_6316 <= 1
 0 <= z_6317 <= 1
 0 <= z_6318 <= 1
 0 <= z_6319 <= 1
 0 <= z_6320 <= 1
 0 <= z_6321 <= 1
 0 <= z_6322 <= 1
 0 <= z_6323 <= 1
 0 <= z_6324 <= 1
 0 <= z_6325 <= 1
 0 <= z_6326 <= 1
 0 <= z_6327 <= 1
 0 <= z_6328 <= 1
 0 <= z_6329 <= 1
 0 <= z_6330 <= 1
 0 <= z_6331 <= 1
 0 <= z_6332 <= 1
 0 <= z_6333 <= 1
 0 <= z_6334 <= 1
 0 <= z_6335 <= 1
 0 <= z_6336 <= 1
 0 <= z_6337 <= 1
 0 <= z_6338 <= 1
 0 <= z_6339 <= 1
 0 <= z_6340 <= 1
 0 <= z_6341 <= 1
 0 <= z_6342 <= 1
 0 <= z_6343 <= 1
 0 <= z_6344 <= 1
 0 <= z_6345 <= 1
 0 <= z_6346 <= 1
 0 <= z_6347 <= 1
 0 <= z_6348 <= 1
 0 <= z_6349 <= 1
 0 <= z_6350 <= 1
 0 <= z_6351 <= 1
 0 <= z_6352 <= 1
 0 <= z_6353 <= 1
 0 <= z_6354 <= 1
 0 <= z_6355 <= 1
 0 <= z_6356 <= 1
 0 <= z_6357 <= 1
 0 <= z_6358 <= 1
 0 <= z_6359 <= 1
 0 <= z_6360 <= 1
 0 <= z_6361 <= 1
 0 <= z_6362 <= 1
 0 <= z_6363 <= 1
 0 <= z_6364 <= 1
 0 <= z_6365 <= 1
 0 <= z_6366 <= 1
 0 <= z_6367 <= 1
 0 <= z_6368 <= 1
 0 <= z_6369 <= 1
 0 <= z_6370 <= 1
 0 <= z_6371 <= 1
 0 <= z_6372 <= 1
 0 <= z_6373 <= 1
 0 <= z_6374 <= 1
 0 <= z_6375 <= 1
 0 <= z_6376 <= 1
 0 <= z_6377 <= 1
 0 <= z_6378 <= 1
 0 <= z_6379 <= 1
 0 <= z_6380 <= 1
 0 <= z_6381 <= 1
 0 <= z_6382 <= 1
 0 <= z_6383 <= 1
 0 <= z_6384 <= 1
 0 <= z_6385 <= 1
 0 <= z_6386 <= 1
 0 <= z_6387 <= 1
 0 <= z_6388 <= 1
 0 <= z_6389 <= 1
 0 <= z_6390 <= 1
 0 <= z_6391 <= 1
 0 <= z_6392 <= 1
 0 <= z_6393 <= 1
 0 <= z_6394 <= 1
 0 <= z_6395 <= 1
 0 <= z_6396 <= 1
 0 <= z_6397 <= 1
 0 <= z_6398 <= 1
 0 <= z_6399 <= 1
 0 <= z_6400 <= 1
 0 <= z_6401 <= 1
 0 <= z_6402 <= 1
 0 <= z_6403 <= 1
 0 <= z_6404 <= 1
 0 <= z_6405 <= 1
 0 <= z_6406 <= 1
 0 <= z_6407 <= 1
 0 <= z_6408 <= 1
 0 <= z_6409 <= 1
 0 <= z_6410 <= 1
 0 <= z_6411 <= 1
 0 <= z_6412 <= 1
 0 <= z_6413 <= 1
 0 <= z_6414 <= 1
 0 <= z_6415 <= 1
 0 <= z_6416 <= 1
 0 <= z_6417 <= 1
 0 <= z_6418 <= 1
 0 <= z_6419 <= 1
 0 <= z_6420 <= 1
 0 <= z_6421 <= 1
 0 <= z_6422 <= 1
 0 <= z_6423 <= 1
 0 <= z_6424 <= 1
 0 <= z_6425 <= 1
 0 <= z_6426 <= 1
 0 <= z_6427 <= 1
 0 <= z_6428 <= 1
 0 <= z_6429 <= 1
 0 <= z_6430 <= 1
 0 <= z_6431 <= 1
 0 <= z_6432 <= 1
 0 <= z_6433 <= 1
 0 <= z_6434 <= 1
 0 <= z_6435 <= 1
 0 <= z_6436 <= 1
 0 <= z_6437 <= 1
 0 <= z_6438 <= 1
 0 <= z_6439 <= 1
 0 <= z_6440 <= 1
 0 <= z_6441 <= 1
 0 <= z_6442 <= 1
 0 <= z_6443 <= 1
 0 <= z_6444 <= 1
 0 <= z_6445 <= 1
 0 <= z_6446 <= 1
 0 <= z_6447 <= 1
 0 <= z_6448 <= 1
 0 <= z_6449 <= 1
 0 <= z_6450 <= 1
 0 <= z_6451 <= 1
 0 <= z_6452 <= 1
 0 <= z_6453 <= 1
 0 <= z_6454 <= 1
 0 <= z_6455 <= 1
 0 <= z_6456 <= 1
 0 <= z_6457 <= 1
 0 <= z_6458 <= 1
 0 <= z_6459 <= 1
 0 <= z_6460 <= 1
 0 <= z_6461 <= 1
 0 <= z_6462 <= 1
 0 <= z_6463 <= 1
 0 <= z_6464 <= 1
 0 <= z_6465 <= 1
 0 <= z_6466 <= 1
 0 <= z_6467 <= 1
 0 <= z_6468 <= 1
 0 <= z_6469 <= 1
 0 <= z_6470 <= 1
 0 <= z_6471 <= 1
 0 <= z_6472 <= 1
 0 <= z_6473 <= 1
 0 <= z_6474 <= 1
 0 <= z_6475 <= 1
 0 <= z_6476 <= 1
 0 <= z_6477 <= 1
 0 <= z_6478 <= 1
 0 <= z_6479 <= 1
 0 <= z_6480 <= 1
 0 <= z_6481 <= 1
 0 <= z_6482 <= 1
 0 <= z_6483 <= 1
 0 <= z_6484 <= 1
 0 <= z_6485 <= 1
 0 <= z_6486 <= 1
 0 <= z_6487 <= 1
 0 <= z_6488 <= 1
 0 <= z_6489 <= 1
 0 <= z_6490 <= 1
 0 <= z_6491 <= 1
 0 <= z_6492 <= 1
 0 <= z_6493 <= 1
 0 <= z_6494 <= 1
 0 <= z_6495 <= 1
 0 <= z_6496 <= 1
 0 <= z_6497 <= 1
 0 <= z_6498 <= 1
 0 <= z_6499 <= 1
 0 <= z_6500 <= 1
 0 <= z_6501 <= 1
 0 <= z_6502 <= 1
 0 <= z_6503 <= 1
 0 <= z_6504 <= 1
 0 <= z_6505 <= 1
 0 <= z_6506 <= 1
 0 <= z_6507 <= 1
 0 <= z_6508 <= 1
 0 <= z_6509 <= 1
 0 <= z_6510 <= 1
 0 <= z_6511 <= 1
 0 <= z_6512 <= 1
 0 <= z_6513 <= 1
 0 <= z_6514 <= 1
 0 <= z_6515 <= 1
 0 <= z_6516 <= 1
 0 <= z_6517 <= 1
 0 <= z_6518 <= 1
 0 <= z_6519 <= 1
 0 <= z_6520 <= 1
 0 <= z_6521 <= 1
 0 <= z_6522 <= 1
 0 <= z_6523 <= 1
 0 <= z_6524 <= 1
 0 <= z_6525 <= 1
 0 <= z_6526 <= 1
 0 <= z_6527 <= 1
 0 <= z_6528 <= 1
 0 <= z_6529 <= 1
 0 <= z_6530 <= 1
 0 <= z_6531 <= 1
 0 <= z_6532 <= 1
 0 <= z_6533 <= 1
 0 <= z_6534 <= 1
 0 <= z_6535 <= 1
 0 <= z_6536 <= 1
 0 <= z_6537 <= 1
 0 <= z_6538 <= 1
 0 <= z_6539 <= 1
 0 <= z_6540 <= 1
 0 <= z_6541 <= 1
 0 <= z_6542 <= 1
 0 <= z_6543 <= 1
 0 <= z_6544 <= 1
 0 <= z_6545 <= 1
 0 <= z_6546 <= 1
 0 <= z_6547 <= 1
 0 <= z_6548 <= 1
 0 <= z_6549 <= 1
 0 <= z_6550 <= 1
 0 <= z_6551 <= 1
 0 <= z_6552 <= 1
 0 <= z_6553 <= 1
 0 <= z_6554 <= 1
 0 <= z_6555 <= 1
 0 <= z_6556 <= 1
 0 <= z_6557 <= 1
 0 <= z_6558 <= 1
 0 <= z_6559 <= 1
 0 <= z_6560 <= 1
 0 <= z_6561 <= 1
 0 <= z_6562 <= 1
 0 <= z_6563 <= 1
 0 <= z_6564 <= 1
 0 <= z_6565 <= 1
 0 <= z_6566 <= 1
 0 <= z_6567 <= 1
 0 <= z_6568 <= 1
 0 <= z_6569 <= 1
 0 <= z_6570 <= 1
 0 <= z_6571 <= 1
 0 <= z_6572 <= 1
 0 <= z_6573 <= 1
 0 <= z_6574 <= 1
 0 <= z_6575 <= 1
 0 <= z_6576 <= 1
 0 <= z_6577 <= 1
 0 <= z_6578 <= 1
 0 <= z_6579 <= 1
 0 <= z_6580 <= 1
 0 <= z_6581 <= 1
 0 <= z_6582 <= 1
 0 <= z_6583 <= 1
 0 <= z_6584 <= 1
 0 <= z_6585 <= 1
 0 <= z_6586 <= 1
 0 <= z_6587 <= 1
 0 <= z_6588 <= 1
 0 <= z_6589 <= 1
 0 <= z_6590 <= 1
 0 <= z_6591 <= 1
 0 <= z_6592 <= 1
 0 <= z_6593 <= 1
 0 <= z_6594 <= 1
 0 <= z_6595 <= 1
 0 <= z_6596 <= 1
 0 <= z_6597 <= 1
 0 <= z_6598 <= 1
 0 <= z_6599 <= 1
 0 <= z_6600 <= 1
 0 <= z_6601 <= 1
 0 <= z_6602 <= 1
 0 <= z_6603 <= 1
 0 <= z_6604 <= 1
 0 <= z_6605 <= 1
 0 <= z_6606 <= 1
 0 <= z_6607 <= 1
 0 <= z_6608 <= 1
 0 <= z_6609 <= 1
 0 <= z_6610 <= 1
 0 <= z_6611 <= 1
 0 <= z_6612 <= 1
 0 <= z_6613 <= 1
 0 <= z_6614 <= 1
 0 <= z_6615 <= 1
 0 <= z_6616 <= 1
 0 <= z_6617 <= 1
 0 <= z_6618 <= 1
 0 <= z_6619 <= 1
 0 <= z_6620 <= 1
 0 <= z_6621 <= 1
 0 <= z_6622 <= 1
 0 <= z_6623 <= 1
 0 <= z_6624 <= 1
 0 <= z_6625 <= 1
 0 <= z_6626 <= 1
 0 <= z_6627 <= 1
 0 <= z_6628 <= 1
 0 <= z_6629 <= 1
 0 <= z_6630 <= 1
 0 <= z_6631 <= 1
 0 <= z_6632 <= 1
 0 <= z_6633 <= 1
 0 <= z_6634 <= 1
 0 <= z_6635 <= 1
 0 <= z_6636 <= 1
 0 <= z_6637 <= 1
 0 <= z_6638 <= 1
 0 <= z_6639 <= 1
 0 <= z_6640 <= 1
 0 <= z_6641 <= 1
 0 <= z_6642 <= 1
 0 <= z_6643 <= 1
 0 <= z_6644 <= 1
 0 <= z_6645 <= 1
 0 <= z_6646 <= 1
 0 <= z_6647 <= 1
 0 <= z_6648 <= 1
 0 <= z_6649 <= 1
 0 <= z_6650 <= 1
 0 <= z_6651 <= 1
 0 <= z_6652 <= 1
 0 <= z_6653 <= 1
 0 <= z_6654 <= 1
 0 <= z_6655 <= 1
 0 <= z_6656 <= 1
 0 <= z_6657 <= 1
 0 <= z_6658 <= 1
 0 <= z_6659 <= 1
 0 <= z_6660 <= 1
 0 <= z_6661 <= 1
 0 <= z_6662 <= 1
 0 <= z_6663 <= 1
 0 <= z_6664 <= 1
 0 <= z_6665 <= 1
 0 <= z_6666 <= 1
 0 <= z_6667 <= 1
 0 <= z_6668 <= 1
 0 <= z_6669 <= 1
 0 <= z_6670 <= 1
 0 <= z_6671 <= 1
 0 <= z_6672 <= 1
 0 <= z_6673 <= 1
 0 <= z_6674 <= 1
 0 <= z_6675 <= 1
 0 <= z_6676 <= 1
 0 <= z_6677 <= 1
 0 <= z_6678 <= 1
 0 <= z_6679 <= 1
 0 <= z_6680 <= 1
 0 <= z_6681 <= 1
 0 <= z_6682 <= 1
 0 <= z_6683 <= 1
 0 <= z_6684 <= 1
 0 <= z_6685 <= 1
 0 <= z_6686 <= 1
 0 <= z_6687 <= 1
 0 <= z_6688 <= 1
 0 <= z_6689 <= 1
 0 <= z_6690 <= 1
 0 <= z_6691 <= 1
 0 <= z_6692 <= 1
 0 <= z_6693 <= 1
 0 <= z_6694 <= 1
 0 <= z_6695 <= 1
 0 <= z_6696 <= 1
 0 <= z_6697 <= 1
 0 <= z_6698 <= 1
 0 <= z_6699 <= 1
 0 <= z_6700 <= 1
 0 <= z_6701 <= 1
 0 <= z_6702 <= 1
 0 <= z_6703 <= 1
 0 <= z_6704 <= 1
 0 <= z_6705 <= 1
 0 <= z_6706 <= 1
 0 <= z_6707 <= 1
 0 <= z_6708 <= 1
 0 <= z_6709 <= 1
 0 <= z_6710 <= 1
 0 <= z_6711 <= 1
 0 <= z_6712 <= 1
 0 <= z_6713 <= 1
 0 <= z_6714 <= 1
 0 <= z_6715 <= 1
 0 <= z_6716 <= 1
 0 <= z_6717 <= 1
 0 <= z_6718 <= 1
 0 <= z_6719 <= 1
 0 <= z_6720 <= 1
 0 <= z_6721 <= 1
 0 <= z_6722 <= 1
 0 <= z_6723 <= 1
 0 <= z_6724 <= 1
 0 <= z_6725 <= 1
 0 <= z_6726 <= 1
 0 <= z_6727 <= 1
 0 <= z_6728 <= 1
 0 <= z_6729 <= 1
 0 <= z_6730 <= 1
 0 <= z_6731 <= 1
 0 <= z_6732 <= 1
 0 <= z_6733 <= 1
 0 <= z_6734 <= 1
 0 <= z_6735 <= 1
 0 <= z_6736 <= 1
 0 <= z_6737 <= 1
 0 <= z_6738 <= 1
 0 <= z_6739 <= 1
 0 <= z_6740 <= 1
 0 <= z_6741 <= 1
 0 <= z_6742 <= 1
 0 <= z_6743 <= 1
 0 <= z_6744 <= 1
 0 <= z_6745 <= 1
 0 <= z_6746 <= 1
 0 <= z_6747 <= 1
 0 <= z_6748 <= 1
 0 <= z_6749 <= 1
 0 <= z_6750 <= 1
 0 <= z_6751 <= 1
 0 <= z_6752 <= 1
 0 <= z_6753 <= 1
 0 <= z_6754 <= 1
 0 <= z_6755 <= 1
 0 <= z_6756 <= 1
 0 <= z_6757 <= 1
 0 <= z_6758 <= 1
 0 <= z_6759 <= 1
 0 <= z_6760 <= 1
 0 <= z_6761 <= 1
 0 <= z_6762 <= 1
 0 <= z_6763 <= 1
 0 <= z_6764 <= 1
 0 <= z_6765 <= 1
 0 <= z_6766 <= 1
 0 <= z_6767 <= 1
 0 <= z_6768 <= 1
 0 <= z_6769 <= 1
 0 <= z_6770 <= 1
 0 <= z_6771 <= 1
 0 <= z_6772 <= 1
 0 <= z_6773 <= 1
 0 <= z_6774 <= 1
 0 <= z_6775 <= 1
 0 <= z_6776 <= 1
 0 <= z_6777 <= 1
 0 <= z_6778 <= 1
 0 <= z_6779 <= 1
 0 <= z_6780 <= 1
 0 <= z_6781 <= 1
 0 <= z_6782 <= 1
 0 <= z_6783 <= 1
 0 <= z_6784 <= 1
 0 <= z_6785 <= 1
 0 <= z_6786 <= 1
 0 <= z_6787 <= 1
 0 <= z_6788 <= 1
 0 <= z_6789 <= 1
 0 <= z_6790 <= 1
 0 <= z_6791 <= 1
 0 <= z_6792 <= 1
 0 <= z_6793 <= 1
 0 <= z_6794 <= 1
 0 <= z_6795 <= 1
 0 <= z_6796 <= 1
 0 <= z_6797 <= 1
 0 <= z_6798 <= 1
 0 <= z_6799 <= 1
 0 <= z_6800 <= 1
 0 <= z_6801 <= 1
 0 <= z_6802 <= 1
 0 <= z_6803 <= 1
 0 <= z_6804 <= 1
 0 <= z_6805 <= 1
 0 <= z_6806 <= 1
 0 <= z_6807 <= 1
 0 <= z_6808 <= 1
 0 <= z_6809 <= 1
 0 <= z_6810 <= 1
 0 <= z_6811 <= 1
 0 <= z_6812 <= 1
 0 <= z_6813 <= 1
 0 <= z_6814 <= 1
 0 <= z_6815 <= 1
 0 <= z_6816 <= 1
 0 <= z_6817 <= 1
 0 <= z_6818 <= 1
 0 <= z_6819 <= 1
 0 <= z_6820 <= 1
 0 <= z_6821 <= 1
 0 <= z_6822 <= 1
 0 <= z_6823 <= 1
 0 <= z_6824 <= 1
 0 <= z_6825 <= 1
 0 <= z_6826 <= 1
 0 <= z_6827 <= 1
 0 <= z_6828 <= 1
 0 <= z_6829 <= 1
 0 <= z_6830 <= 1
 0 <= z_6831 <= 1
 0 <= z_6832 <= 1
 0 <= z_6833 <= 1
 0 <= z_6834 <= 1
 0 <= z_6835 <= 1
 0 <= z_6836 <= 1
 0 <= z_6837 <= 1
 0 <= z_6838 <= 1
 0 <= z_6839 <= 1
 0 <= z_6840 <= 1
 0 <= z_6841 <= 1
 0 <= z_6842 <= 1
 0 <= z_6843 <= 1
 0 <= z_6844 <= 1
 0 <= z_6845 <= 1
 0 <= z_6846 <= 1
 0 <= z_6847 <= 1
 0 <= z_6848 <= 1
 0 <= z_6849 <= 1
 0 <= z_6850 <= 1
 0 <= z_6851 <= 1
 0 <= z_6852 <= 1
 0 <= z_6853 <= 1
 0 <= z_6854 <= 1
 0 <= z_6855 <= 1
 0 <= z_6856 <= 1
 0 <= z_6857 <= 1
 0 <= z_6858 <= 1
 0 <= z_6859 <= 1
 0 <= z_6860 <= 1
 0 <= z_6861 <= 1
 0 <= z_6862 <= 1
 0 <= z_6863 <= 1
 0 <= z_6864 <= 1
 0 <= z_6865 <= 1
 0 <= z_6866 <= 1
 0 <= z_6867 <= 1
 0 <= z_6868 <= 1
 0 <= z_6869 <= 1
 0 <= z_6870 <= 1
 0 <= z_6871 <= 1
 0 <= z_6872 <= 1
 0 <= z_6873 <= 1
 0 <= z_6874 <= 1
 0 <= z_6875 <= 1
 0 <= z_6876 <= 1
 0 <= z_6877 <= 1
 0 <= z_6878 <= 1
 0 <= z_6879 <= 1
 0 <= z_6880 <= 1
 0 <= z_6881 <= 1
 0 <= z_6882 <= 1
 0 <= z_6883 <= 1
 0 <= z_6884 <= 1
 0 <= z_6885 <= 1
 0 <= z_6886 <= 1
 0 <= z_6887 <= 1
 0 <= z_6888 <= 1
 0 <= z_6889 <= 1
 0 <= z_6890 <= 1
 0 <= z_6891 <= 1
 0 <= z_6892 <= 1
 0 <= z_6893 <= 1
 0 <= z_6894 <= 1
 0 <= z_6895 <= 1
 0 <= z_6896 <= 1
 0 <= z_6897 <= 1
 0 <= z_6898 <= 1
 0 <= z_6899 <= 1
 0 <= z_6900 <= 1
 0 <= z_6901 <= 1
 0 <= z_6902 <= 1
 0 <= z_6903 <= 1
 0 <= z_6904 <= 1
 0 <= z_6905 <= 1
 0 <= z_6906 <= 1
 0 <= z_6907 <= 1
 0 <= z_6908 <= 1
 0 <= z_6909 <= 1
 0 <= z_6910 <= 1
 0 <= z_6911 <= 1
 0 <= z_6912 <= 1
 0 <= z_6913 <= 1
 0 <= z_6914 <= 1
 0 <= z_6915 <= 1
 0 <= z_6916 <= 1
 0 <= z_6917 <= 1
 0 <= z_6918 <= 1
 0 <= z_6919 <= 1
 0 <= z_6920 <= 1
 0 <= z_6921 <= 1
 0 <= z_6922 <= 1
 0 <= z_6923 <= 1
 0 <= z_6924 <= 1
 0 <= z_6925 <= 1
 0 <= z_6926 <= 1
 0 <= z_6927 <= 1
 0 <= z_6928 <= 1
 0 <= z_6929 <= 1
 0 <= z_6930 <= 1
 0 <= z_6931 <= 1
 0 <= z_6932 <= 1
 0 <= z_6933 <= 1
 0 <= z_6934 <= 1
 0 <= z_6935 <= 1
 0 <= z_6936 <= 1
 0 <= z_6937 <= 1
 0 <= z_6938 <= 1
 0 <= z_6939 <= 1
 0 <= z_6940 <= 1
 0 <= z_6941 <= 1
 0 <= z_6942 <= 1
 0 <= z_6943 <= 1
 0 <= z_6944 <= 1
 0 <= z_6945 <= 1
 0 <= z_6946 <= 1
 0 <= z_6947 <= 1
 0 <= z_6948 <= 1
 0 <= z_6949 <= 1
 0 <= z_6950 <= 1
 0 <= z_6951 <= 1
 0 <= z_6952 <= 1
 0 <= z_6953 <= 1
 0 <= z_6954 <= 1
 0 <= z_6955 <= 1
 0 <= z_6956 <= 1
 0 <= z_6957 <= 1
 0 <= z_6958 <= 1
 0 <= z_6959 <= 1
 0 <= z_6960 <= 1
 0 <= z_6961 <= 1
 0 <= z_6962 <= 1
 0 <= z_6963 <= 1
 0 <= z_6964 <= 1
 0 <= z_6965 <= 1
 0 <= z_6966 <= 1
 0 <= z_6967 <= 1
 0 <= z_6968 <= 1
 0 <= z_6969 <= 1
 0 <= z_6970 <= 1
 0 <= z_6971 <= 1
 0 <= z_6972 <= 1
 0 <= z_6973 <= 1
 0 <= z_6974 <= 1
 0 <= z_6975 <= 1
 0 <= z_6976 <= 1
 0 <= z_6977 <= 1
 0 <= z_6978 <= 1
 0 <= z_6979 <= 1
 0 <= z_6980 <= 1
 0 <= z_6981 <= 1
 0 <= z_6982 <= 1
 0 <= z_6983 <= 1
 0 <= z_6984 <= 1
 0 <= z_6985 <= 1
 0 <= z_6986 <= 1
 0 <= z_6987 <= 1
 0 <= z_6988 <= 1
 0 <= z_6989 <= 1
 0 <= z_6990 <= 1
 0 <= z_6991 <= 1
 0 <= z_6992 <= 1
 0 <= z_6993 <= 1
 0 <= z_6994 <= 1
 0 <= z_6995 <= 1
 0 <= z_6996 <= 1
 0 <= z_6997 <= 1
 0 <= z_6998 <= 1
 0 <= z_6999 <= 1
 0 <= z_7000 <= 1
 0 <= z_7001 <= 1
 0 <= z_7002 <= 1
 0 <= z_7003 <= 1
 0 <= z_7004 <= 1
 0 <= z_7005 <= 1
 0 <= z_7006 <= 1
 0 <= z_7007 <= 1
 0 <= z_7008 <= 1
 0 <= z_7009 <= 1
 0 <= z_7010 <= 1
 0 <= z_7011 <= 1
 0 <= z_7012 <= 1
 0 <= z_7013 <= 1
 0 <= z_7014 <= 1
 0 <= z_7015 <= 1
 0 <= z_7016 <= 1
 0 <= z_7017 <= 1
 0 <= z_7018 <= 1
 0 <= z_7019 <= 1
 0 <= z_7020 <= 1
 0 <= z_7021 <= 1
 0 <= z_7022 <= 1
 0 <= z_7023 <= 1
 0 <= z_7024 <= 1
 0 <= z_7025 <= 1
 0 <= z_7026 <= 1
 0 <= z_7027 <= 1
 0 <= z_7028 <= 1
 0 <= z_7029 <= 1
 0 <= z_7030 <= 1
 0 <= z_7031 <= 1
 0 <= z_7032 <= 1
 0 <= z_7033 <= 1
 0 <= z_7034 <= 1
 0 <= z_7035 <= 1
 0 <= z_7036 <= 1
 0 <= z_7037 <= 1
 0 <= z_7038 <= 1
 0 <= z_7039 <= 1
 0 <= z_7040 <= 1
 0 <= z_7041 <= 1
 0 <= z_7042 <= 1
 0 <= z_7043 <= 1
 0 <= z_7044 <= 1
 0 <= z_7045 <= 1
 0 <= z_7046 <= 1
 0 <= z_7047 <= 1
 0 <= z_7048 <= 1
 0 <= z_7049 <= 1
 0 <= z_7050 <= 1
 0 <= z_7051 <= 1
 0 <= z_7052 <= 1
 0 <= z_7053 <= 1
 0 <= z_7054 <= 1
 0 <= z_7055 <= 1
 0 <= z_7056 <= 1
 0 <= z_7057 <= 1
 0 <= z_7058 <= 1
 0 <= z_7059 <= 1
 0 <= z_7060 <= 1
 0 <= z_7061 <= 1
 0 <= z_7062 <= 1
 0 <= z_7063 <= 1
 0 <= z_7064 <= 1
 0 <= z_7065 <= 1
 0 <= z_7066 <= 1
 0 <= z_7067 <= 1
 0 <= z_7068 <= 1
 0 <= z_7069 <= 1
 0 <= z_7070 <= 1
 0 <= z_7071 <= 1
 0 <= z_7072 <= 1
 0 <= z_7073 <= 1
 0 <= z_7074 <= 1
 0 <= z_7075 <= 1
 0 <= z_7076 <= 1
 0 <= z_7077 <= 1
 0 <= z_7078 <= 1
 0 <= z_7079 <= 1
 0 <= z_7080 <= 1
 0 <= z_7081 <= 1
 0 <= z_7082 <= 1
 0 <= z_7083 <= 1
 0 <= z_7084 <= 1
 0 <= z_7085 <= 1
 0 <= z_7086 <= 1
 0 <= z_7087 <= 1
 0 <= z_7088 <= 1
 0 <= z_7089 <= 1
 0 <= z_7090 <= 1
 0 <= z_7091 <= 1
 0 <= z_7092 <= 1
 0 <= z_7093 <= 1
 0 <= z_7094 <= 1
 0 <= z_7095 <= 1
 0 <= z_7096 <= 1
 0 <= z_7097 <= 1
 0 <= z_7098 <= 1
 0 <= z_7099 <= 1
 0 <= z_7100 <= 1
 0 <= z_7101 <= 1
 0 <= z_7102 <= 1
 0 <= z_7103 <= 1
 0 <= z_7104 <= 1
 0 <= z_7105 <= 1
 0 <= z_7106 <= 1
 0 <= z_7107 <= 1
 0 <= z_7108 <= 1
 0 <= z_7109 <= 1
 0 <= z_7110 <= 1
 0 <= z_7111 <= 1
 0 <= z_7112 <= 1
 0 <= z_7113 <= 1
 0 <= z_7114 <= 1
 0 <= z_7115 <= 1
 0 <= z_7116 <= 1
 0 <= z_7117 <= 1
 0 <= z_7118 <= 1
 0 <= z_7119 <= 1
 0 <= z_7120 <= 1
 0 <= z_7121 <= 1
 0 <= z_7122 <= 1
 0 <= z_7123 <= 1
 0 <= z_7124 <= 1
 0 <= z_7125 <= 1
 0 <= z_7126 <= 1
 0 <= z_7127 <= 1
 0 <= z_7128 <= 1
 0 <= z_7129 <= 1
 0 <= z_7130 <= 1
 0 <= z_7131 <= 1
 0 <= z_7132 <= 1
 0 <= z_7133 <= 1
 0 <= z_7134 <= 1
 0 <= z_7135 <= 1
 0 <= z_7136 <= 1
 0 <= z_7137 <= 1
 0 <= z_7138 <= 1
 0 <= z_7139 <= 1
 0 <= z_7140 <= 1
 0 <= z_7141 <= 1
 0 <= z_7142 <= 1
 0 <= z_7143 <= 1
 0 <= z_7144 <= 1
 0 <= z_7145 <= 1
 0 <= z_7146 <= 1
 0 <= z_7147 <= 1
 0 <= z_7148 <= 1
 0 <= z_7149 <= 1
 0 <= z_7150 <= 1
 0 <= z_7151 <= 1
 0 <= z_7152 <= 1
 0 <= z_7153 <= 1
 0 <= z_7154 <= 1
 0 <= z_7155 <= 1
 0 <= z_7156 <= 1
 0 <= z_7157 <= 1
 0 <= z_7158 <= 1
 0 <= z_7159 <= 1
 0 <= z_7160 <= 1
 0 <= z_7161 <= 1
 0 <= z_7162 <= 1
 0 <= z_7163 <= 1
 0 <= z_7164 <= 1
 0 <= z_7165 <= 1
 0 <= z_7166 <= 1
 0 <= z_7167 <= 1
 0 <= z_7168 <= 1
 0 <= z_7169 <= 1
 0 <= z_7170 <= 1
 0 <= z_7171 <= 1
 0 <= z_7172 <= 1
 0 <= z_7173 <= 1
 0 <= z_7174 <= 1
 0 <= z_7175 <= 1
 0 <= z_7176 <= 1
 0 <= z_7177 <= 1
 0 <= z_7178 <= 1
 0 <= z_7179 <= 1
 0 <= z_7180 <= 1
 0 <= z_7181 <= 1
 0 <= z_7182 <= 1
 0 <= z_7183 <= 1
 0 <= z_7184 <= 1
 0 <= z_7185 <= 1
 0 <= z_7186 <= 1
 0 <= z_7187 <= 1
 0 <= z_7188 <= 1
 0 <= z_7189 <= 1
 0 <= z_7190 <= 1
 0 <= z_7191 <= 1
 0 <= z_7192 <= 1
 0 <= z_7193 <= 1
 0 <= z_7194 <= 1
 0 <= z_7195 <= 1
 0 <= z_7196 <= 1
 0 <= z_7197 <= 1
 0 <= z_7198 <= 1
 0 <= z_7199 <= 1
 0 <= z_7200 <= 1
 0 <= z_7201 <= 1
 0 <= z_7202 <= 1
 0 <= z_7203 <= 1
 0 <= z_7204 <= 1
 0 <= z_7205 <= 1
 0 <= z_7206 <= 1
 0 <= z_7207 <= 1
 0 <= z_7208 <= 1
 0 <= z_7209 <= 1
 0 <= z_7210 <= 1
 0 <= z_7211 <= 1
 0 <= z_7212 <= 1
 0 <= z_7213 <= 1
 0 <= z_7214 <= 1
 0 <= z_7215 <= 1
 0 <= z_7216 <= 1
 0 <= z_7217 <= 1
 0 <= z_7218 <= 1
 0 <= z_7219 <= 1
 0 <= z_7220 <= 1
 0 <= z_7221 <= 1
 0 <= z_7222 <= 1
 0 <= z_7223 <= 1
 0 <= z_7224 <= 1
 0 <= z_7225 <= 1
 0 <= z_7226 <= 1
 0 <= z_7227 <= 1
 0 <= z_7228 <= 1
 0 <= z_7229 <= 1
 0 <= z_7230 <= 1
 0 <= z_7231 <= 1
 0 <= z_7232 <= 1
 0 <= z_7233 <= 1
 0 <= z_7234 <= 1
 0 <= z_7235 <= 1
 0 <= z_7236 <= 1
 0 <= z_7237 <= 1
 0 <= z_7238 <= 1
 0 <= z_7239 <= 1
 0 <= z_7240 <= 1
 0 <= z_7241 <= 1
 0 <= z_7242 <= 1
 0 <= z_7243 <= 1
 0 <= z_7244 <= 1
 0 <= z_7245 <= 1
 0 <= z_7246 <= 1
 0 <= z_7247 <= 1
 0 <= z_7248 <= 1
 0 <= z_7249 <= 1
 0 <= z_7250 <= 1
 0 <= z_7251 <= 1
 0 <= z_7252 <= 1
 0 <= z_7253 <= 1
 0 <= z_7254 <= 1
 0 <= z_7255 <= 1
 0 <= z_7256 <= 1
 0 <= z_7257 <= 1
 0 <= z_7258 <= 1
 0 <= z_7259 <= 1
 0 <= z_7260 <= 1
 0 <= z_7261 <= 1
 0 <= z_7262 <= 1
 0 <= z_7263 <= 1
 0 <= z_7264 <= 1
 0 <= z_7265 <= 1
 0 <= z_7266 <= 1
 0 <= z_7267 <= 1
 0 <= z_7268 <= 1
 0 <= z_7269 <= 1
 0 <= z_7270 <= 1
 0 <= z_7271 <= 1
 0 <= z_7272 <= 1
 0 <= z_7273 <= 1
 0 <= z_7274 <= 1
 0 <= z_7275 <= 1
 0 <= z_7276 <= 1
 0 <= z_7277 <= 1
 0 <= z_7278 <= 1
 0 <= z_7279 <= 1
 0 <= z_7280 <= 1
 0 <= z_7281 <= 1
 0 <= z_7282 <= 1
 0 <= z_7283 <= 1
 0 <= z_7284 <= 1
 0 <= z_7285 <= 1
 0 <= z_7286 <= 1
 0 <= z_7287 <= 1
 0 <= z_7288 <= 1
 0 <= z_7289 <= 1
 0 <= z_7290 <= 1
 0 <= z_7291 <= 1
 0 <= z_7292 <= 1
 0 <= z_7293 <= 1
 0 <= z_7294 <= 1
 0 <= z_7295 <= 1
 0 <= z_7296 <= 1
 0 <= z_7297 <= 1
 0 <= z_7298 <= 1
 0 <= z_7299 <= 1
 0 <= z_7300 <= 1
 0 <= z_7301 <= 1
 0 <= z_7302 <= 1
 0 <= z_7303 <= 1
 0 <= z_7304 <= 1
 0 <= z_7305 <= 1
 0 <= z_7306 <= 1
 0 <= z_7307 <= 1
 0 <= z_7308 <= 1
 0 <= z_7309 <= 1
 0 <= z_7310 <= 1
 0 <= z_7311 <= 1
 0 <= z_7312 <= 1
 0 <= z_7313 <= 1
 0 <= z_7314 <= 1
 0 <= z_7315 <= 1
 0 <= z_7316 <= 1
 0 <= z_7317 <= 1
 0 <= z_7318 <= 1
 0 <= z_7319 <= 1
 0 <= z_7320 <= 1
 0 <= z_7321 <= 1
 0 <= z_7322 <= 1
 0 <= z_7323 <= 1
 0 <= z_7324 <= 1
 0 <= z_7325 <= 1
 0 <= z_7326 <= 1
 0 <= z_7327 <= 1
 0 <= z_7328 <= 1
 0 <= z_7329 <= 1
 0 <= z_7330 <= 1
 0 <= z_7331 <= 1
 0 <= z_7332 <= 1
 0 <= z_7333 <= 1
 0 <= z_7334 <= 1
 0 <= z_7335 <= 1
 0 <= z_7336 <= 1
 0 <= z_7337 <= 1
 0 <= z_7338 <= 1
 0 <= z_7339 <= 1
 0 <= z_7340 <= 1
 0 <= z_7341 <= 1
 0 <= z_7342 <= 1
 0 <= z_7343 <= 1
 0 <= z_7344 <= 1
 0 <= z_7345 <= 1
 0 <= z_7346 <= 1
 0 <= z_7347 <= 1
 0 <= z_7348 <= 1
 0 <= z_7349 <= 1
 0 <= z_7350 <= 1
 0 <= z_7351 <= 1
 0 <= z_7352 <= 1
 0 <= z_7353 <= 1
 0 <= z_7354 <= 1
 0 <= z_7355 <= 1
 0 <= z_7356 <= 1
 0 <= z_7357 <= 1
 0 <= z_7358 <= 1
 0 <= z_7359 <= 1
 0 <= z_7360 <= 1
 0 <= z_7361 <= 1
 0 <= z_7362 <= 1
 0 <= z_7363 <= 1
 0 <= z_7364 <= 1
 0 <= z_7365 <= 1
 0 <= z_7366 <= 1
 0 <= z_7367 <= 1
 0 <= z_7368 <= 1
 0 <= z_7369 <= 1
 0 <= z_7370 <= 1
 0 <= z_7371 <= 1
 0 <= z_7372 <= 1
 0 <= z_7373 <= 1
 0 <= z_7374 <= 1
 0 <= z_7375 <= 1
 0 <= z_7376 <= 1
 0 <= z_7377 <= 1
 0 <= z_7378 <= 1
 0 <= z_7379 <= 1
 0 <= z_7380 <= 1
 0 <= z_7381 <= 1
 0 <= z_7382 <= 1
 0 <= z_7383 <= 1
 0 <= z_7384 <= 1
 0 <= z_7385 <= 1
 0 <= z_7386 <= 1
 0 <= z_7387 <= 1
 0 <= z_7388 <= 1
 0 <= z_7389 <= 1
 0 <= z_7390 <= 1
 0 <= z_7391 <= 1
 0 <= z_7392 <= 1
 0 <= z_7393 <= 1
 0 <= z_7394 <= 1
 0 <= z_7395 <= 1
 0 <= z_7396 <= 1
 0 <= z_7397 <= 1
 0 <= z_7398 <= 1
 0 <= z_7399 <= 1
 0 <= z_7400 <= 1
 0 <= z_7401 <= 1
 0 <= z_7402 <= 1
 0 <= z_7403 <= 1
 0 <= z_7404 <= 1
 0 <= z_7405 <= 1
 0 <= z_7406 <= 1
 0 <= z_7407 <= 1
 0 <= z_7408 <= 1
 0 <= z_7409 <= 1
 0 <= z_7410 <= 1
 0 <= z_7411 <= 1
 0 <= z_7412 <= 1
 0 <= z_7413 <= 1
 0 <= z_7414 <= 1
 0 <= z_7415 <= 1
 0 <= z_7416 <= 1
 0 <= z_7417 <= 1
 0 <= z_7418 <= 1
 0 <= z_7419 <= 1
 0 <= z_7420 <= 1
 0 <= z_7421 <= 1
 0 <= z_7422 <= 1
 0 <= z_7423 <= 1
 0 <= z_7424 <= 1
 0 <= z_7425 <= 1
 0 <= z_7426 <= 1
 0 <= z_7427 <= 1
 0 <= z_7428 <= 1
 0 <= z_7429 <= 1
 0 <= z_7430 <= 1
 0 <= z_7431 <= 1
 0 <= z_7432 <= 1
 0 <= z_7433 <= 1
 0 <= z_7434 <= 1
 0 <= z_7435 <= 1
 0 <= z_7436 <= 1
 0 <= z_7437 <= 1
 0 <= z_7438 <= 1
 0 <= z_7439 <= 1
 0 <= z_7440 <= 1
 0 <= z_7441 <= 1
 0 <= z_7442 <= 1
 0 <= z_7443 <= 1
 0 <= z_7444 <= 1
 0 <= z_7445 <= 1
 0 <= z_7446 <= 1
 0 <= z_7447 <= 1
 0 <= z_7448 <= 1
 0 <= z_7449 <= 1
 0 <= z_7450 <= 1
 0 <= z_7451 <= 1
 0 <= z_7452 <= 1
 0 <= z_7453 <= 1
 0 <= z_7454 <= 1
 0 <= z_7455 <= 1
 0 <= z_7456 <= 1
 0 <= z_7457 <= 1
 0 <= z_7458 <= 1
 0 <= z_7459 <= 1
 0 <= z_7460 <= 1
 0 <= z_7461 <= 1
 0 <= z_7462 <= 1
 0 <= z_7463 <= 1
 0 <= z_7464 <= 1
 0 <= z_7465 <= 1
 0 <= z_7466 <= 1
 0 <= z_7467 <= 1
 0 <= z_7468 <= 1
 0 <= z_7469 <= 1
 0 <= z_7470 <= 1
 0 <= z_7471 <= 1
 0 <= z_7472 <= 1
 0 <= z_7473 <= 1
 0 <= z_7474 <= 1
 0 <= z_7475 <= 1
 0 <= z_7476 <= 1
 0 <= z_7477 <= 1
 0 <= z_7478 <= 1
 0 <= z_7479 <= 1
 0 <= z_7480 <= 1
 0 <= z_7481 <= 1
 0 <= z_7482 <= 1
 0 <= z_7483 <= 1
 0 <= z_7484 <= 1
 0 <= z_7485 <= 1
 0 <= z_7486 <= 1
 0 <= z_7487 <= 1
 0 <= z_7488 <= 1
 0 <= z_7489 <= 1
 0 <= z_7490 <= 1
 0 <= z_7491 <= 1
 0 <= z_7492 <= 1
 0 <= z_7493 <= 1
 0 <= z_7494 <= 1
 0 <= z_7495 <= 1
 0 <= z_7496 <= 1
 0 <= z_7497 <= 1
 0 <= z_7498 <= 1
 0 <= z_7499 <= 1
 0 <= z_7500 <= 1
 0 <= z_7501 <= 1
 0 <= z_7502 <= 1
 0 <= z_7503 <= 1
 0 <= z_7504 <= 1
 0 <= z_7505 <= 1
 0 <= z_7506 <= 1
 0 <= z_7507 <= 1
 0 <= z_7508 <= 1
 0 <= z_7509 <= 1
 0 <= z_7510 <= 1
 0 <= z_7511 <= 1
 0 <= z_7512 <= 1
 0 <= z_7513 <= 1
 0 <= z_7514 <= 1
 0 <= z_7515 <= 1
 0 <= z_7516 <= 1
 0 <= z_7517 <= 1
 0 <= z_7518 <= 1
 0 <= z_7519 <= 1
 0 <= z_7520 <= 1
 0 <= z_7521 <= 1
 0 <= z_7522 <= 1
 0 <= z_7523 <= 1
 0 <= z_7524 <= 1
 0 <= z_7525 <= 1
 0 <= z_7526 <= 1
 0 <= z_7527 <= 1
 0 <= z_7528 <= 1
 0 <= z_7529 <= 1
 0 <= z_7530 <= 1
 0 <= z_7531 <= 1
 0 <= z_7532 <= 1
 0 <= z_7533 <= 1
 0 <= z_7534 <= 1
 0 <= z_7535 <= 1
 0 <= z_7536 <= 1
 0 <= z_7537 <= 1
 0 <= z_7538 <= 1
 0 <= z_7539 <= 1
 0 <= z_7540 <= 1
 0 <= z_7541 <= 1
 0 <= z_7542 <= 1
 0 <= z_7543 <= 1
 0 <= z_7544 <= 1
 0 <= z_7545 <= 1
 0 <= z_7546 <= 1
 0 <= z_7547 <= 1
 0 <= z_7548 <= 1
 0 <= z_7549 <= 1
 0 <= z_7550 <= 1
 0 <= z_7551 <= 1
 0 <= z_7552 <= 1
 0 <= z_7553 <= 1
 0 <= z_7554 <= 1
 0 <= z_7555 <= 1
 0 <= z_7556 <= 1
 0 <= z_7557 <= 1
 0 <= z_7558 <= 1
 0 <= z_7559 <= 1
 0 <= z_7560 <= 1
 0 <= z_7561 <= 1
 0 <= z_7562 <= 1
 0 <= z_7563 <= 1
 0 <= z_7564 <= 1
 0 <= z_7565 <= 1
 0 <= z_7566 <= 1
 0 <= z_7567 <= 1
 0 <= z_7568 <= 1
 0 <= z_7569 <= 1
 0 <= z_7570 <= 1
 0 <= z_7571 <= 1
 0 <= z_7572 <= 1
 0 <= z_7573 <= 1
 0 <= z_7574 <= 1
 0 <= z_7575 <= 1
 0 <= z_7576 <= 1
 0 <= z_7577 <= 1
 0 <= z_7578 <= 1
 0 <= z_7579 <= 1
 0 <= z_7580 <= 1
 0 <= z_7581 <= 1
 0 <= z_7582 <= 1
 0 <= z_7583 <= 1
 0 <= z_7584 <= 1
 0 <= z_7585 <= 1
 0 <= z_7586 <= 1
 0 <= z_7587 <= 1
 0 <= z_7588 <= 1
 0 <= z_7589 <= 1
 0 <= z_7590 <= 1
 0 <= z_7591 <= 1
 0 <= z_7592 <= 1
 0 <= z_7593 <= 1
 0 <= z_7594 <= 1
 0 <= z_7595 <= 1
 0 <= z_7596 <= 1
 0 <= z_7597 <= 1
 0 <= z_7598 <= 1
 0 <= z_7599 <= 1
 0 <= z_7600 <= 1
 0 <= z_7601 <= 1
 0 <= z_7602 <= 1
 0 <= z_7603 <= 1
 0 <= z_7604 <= 1
 0 <= z_7605 <= 1
 0 <= z_7606 <= 1
 0 <= z_7607 <= 1
 0 <= z_7608 <= 1
 0 <= z_7609 <= 1
 0 <= z_7610 <= 1
 0 <= z_7611 <= 1
 0 <= z_7612 <= 1
 0 <= z_7613 <= 1
 0 <= z_7614 <= 1
 0 <= z_7615 <= 1
 0 <= z_7616 <= 1
 0 <= z_7617 <= 1
 0 <= z_7618 <= 1
 0 <= z_7619 <= 1
 0 <= z_7620 <= 1
 0 <= z_7621 <= 1
 0 <= z_7622 <= 1
 0 <= z_7623 <= 1
 0 <= z_7624 <= 1
 0 <= z_7625 <= 1
 0 <= z_7626 <= 1
 0 <= z_7627 <= 1
 0 <= z_7628 <= 1
 0 <= z_7629 <= 1
 0 <= z_7630 <= 1
 0 <= z_7631 <= 1
 0 <= z_7632 <= 1
 0 <= z_7633 <= 1
 0 <= z_7634 <= 1
 0 <= z_7635 <= 1
 0 <= z_7636 <= 1
 0 <= z_7637 <= 1
 0 <= z_7638 <= 1
 0 <= z_7639 <= 1
 0 <= z_7640 <= 1
 0 <= z_7641 <= 1
 0 <= z_7642 <= 1
 0 <= z_7643 <= 1
 0 <= z_7644 <= 1
 0 <= z_7645 <= 1
 0 <= z_7646 <= 1
 0 <= z_7647 <= 1
 0 <= z_7648 <= 1
 0 <= z_7649 <= 1
 0 <= z_7650 <= 1
 0 <= z_7651 <= 1
 0 <= z_7652 <= 1
 0 <= z_7653 <= 1
 0 <= z_7654 <= 1
 0 <= z_7655 <= 1
 0 <= z_7656 <= 1
 0 <= z_7657 <= 1
 0 <= z_7658 <= 1
 0 <= z_7659 <= 1
 0 <= z_7660 <= 1
 0 <= z_7661 <= 1
 0 <= z_7662 <= 1
 0 <= z_7663 <= 1
 0 <= z_7664 <= 1
 0 <= z_7665 <= 1
 0 <= z_7666 <= 1
 0 <= z_7667 <= 1
 0 <= z_7668 <= 1
 0 <= z_7669 <= 1
 0 <= z_7670 <= 1
 0 <= z_7671 <= 1
 0 <= z_7672 <= 1
 0 <= z_7673 <= 1
 0 <= z_7674 <= 1
 0 <= z_7675 <= 1
 0 <= z_7676 <= 1
 0 <= z_7677 <= 1
 0 <= z_7678 <= 1
 0 <= z_7679 <= 1
 0 <= z_7680 <= 1
 0 <= z_7681 <= 1
 0 <= z_7682 <= 1
 0 <= z_7683 <= 1
 0 <= z_7684 <= 1
 0 <= z_7685 <= 1
 0 <= z_7686 <= 1
 0 <= z_7687 <= 1
 0 <= z_7688 <= 1
 0 <= z_7689 <= 1
 0 <= z_7690 <= 1
 0 <= z_7691 <= 1
 0 <= z_7692 <= 1
 0 <= z_7693 <= 1
 0 <= z_7694 <= 1
 0 <= z_7695 <= 1
 0 <= z_7696 <= 1
 0 <= z_7697 <= 1
 0 <= z_7698 <= 1
 0 <= z_7699 <= 1
 0 <= z_7700 <= 1
 0 <= z_7701 <= 1
 0 <= z_7702 <= 1
 0 <= z_7703 <= 1
 0 <= z_7704 <= 1
 0 <= z_7705 <= 1
 0 <= z_7706 <= 1
 0 <= z_7707 <= 1
 0 <= z_7708 <= 1
 0 <= z_7709 <= 1
 0 <= z_7710 <= 1
 0 <= z_7711 <= 1
 0 <= z_7712 <= 1
 0 <= z_7713 <= 1
 0 <= z_7714 <= 1
 0 <= z_7715 <= 1
 0 <= z_7716 <= 1
 0 <= z_7717 <= 1
 0 <= z_7718 <= 1
 0 <= z_7719 <= 1
 0 <= z_7720 <= 1
 0 <= z_7721 <= 1
 0 <= z_7722 <= 1
 0 <= z_7723 <= 1
 0 <= z_7724 <= 1
 0 <= z_7725 <= 1
 0 <= z_7726 <= 1
 0 <= z_7727 <= 1
 0 <= z_7728 <= 1
 0 <= z_7729 <= 1
 0 <= z_7730 <= 1
 0 <= z_7731 <= 1
 0 <= z_7732 <= 1
 0 <= z_7733 <= 1
 0 <= z_7734 <= 1
 0 <= z_7735 <= 1
 0 <= z_7736 <= 1
 0 <= z_7737 <= 1
 0 <= z_7738 <= 1
 0 <= z_7739 <= 1
 0 <= z_7740 <= 1
 0 <= z_7741 <= 1
 0 <= z_7742 <= 1
 0 <= z_7743 <= 1
 0 <= z_7744 <= 1
 0 <= z_7745 <= 1
 0 <= z_7746 <= 1
 0 <= z_7747 <= 1
 0 <= z_7748 <= 1
 0 <= z_7749 <= 1
 0 <= z_7750 <= 1
 0 <= z_7751 <= 1
 0 <= z_7752 <= 1
 0 <= z_7753 <= 1
 0 <= z_7754 <= 1
 0 <= z_7755 <= 1
 0 <= z_7756 <= 1
 0 <= z_7757 <= 1
 0 <= z_7758 <= 1
 0 <= z_7759 <= 1
 0 <= z_7760 <= 1
 0 <= z_7761 <= 1
 0 <= z_7762 <= 1
 0 <= z_7763 <= 1
 0 <= z_7764 <= 1
 0 <= z_7765 <= 1
 0 <= z_7766 <= 1
 0 <= z_7767 <= 1
 0 <= z_7768 <= 1
 0 <= z_7769 <= 1
 0 <= z_7770 <= 1
 0 <= z_7771 <= 1
 0 <= z_7772 <= 1
 0 <= z_7773 <= 1
 0 <= z_7774 <= 1
 0 <= z_7775 <= 1
 0 <= z_7776 <= 1
 0 <= z_7777 <= 1
 0 <= z_7778 <= 1
 0 <= z_7779 <= 1
 0 <= z_7780 <= 1
 0 <= z_7781 <= 1
 0 <= z_7782 <= 1
 0 <= z_7783 <= 1
 0 <= z_7784 <= 1
 0 <= z_7785 <= 1
 0 <= z_7786 <= 1
 0 <= z_7787 <= 1
 0 <= z_7788 <= 1
 0 <= z_7789 <= 1
 0 <= z_7790 <= 1
 0 <= z_7791 <= 1
 0 <= z_7792 <= 1
 0 <= z_7793 <= 1
 0 <= z_7794 <= 1
 0 <= z_7795 <= 1
 0 <= z_7796 <= 1
 0 <= z_7797 <= 1
 0 <= z_7798 <= 1
 0 <= z_7799 <= 1
 0 <= z_7800 <= 1
 0 <= z_7801 <= 1
 0 <= z_7802 <= 1
 0 <= z_7803 <= 1
 0 <= z_7804 <= 1
 0 <= z_7805 <= 1
 0 <= z_7806 <= 1
 0 <= z_7807 <= 1
 0 <= z_7808 <= 1
 0 <= z_7809 <= 1
 0 <= z_7810 <= 1
 0 <= z_7811 <= 1
 0 <= z_7812 <= 1
 0 <= z_7813 <= 1
 0 <= z_7814 <= 1
 0 <= z_7815 <= 1
 0 <= z_7816 <= 1
 0 <= z_7817 <= 1
 0 <= z_7818 <= 1
 0 <= z_7819 <= 1
 0 <= z_7820 <= 1
 0 <= z_7821 <= 1
 0 <= z_7822 <= 1
 0 <= z_7823 <= 1
 0 <= z_7824 <= 1
 0 <= z_7825 <= 1
 0 <= z_7826 <= 1
 0 <= z_7827 <= 1
 0 <= z_7828 <= 1
 0 <= z_7829 <= 1
 0 <= z_7830 <= 1
 0 <= z_7831 <= 1
 0 <= z_7832 <= 1
 0 <= z_7833 <= 1
 0 <= z_7834 <= 1
 0 <= z_7835 <= 1
 0 <= z_7836 <= 1
 0 <= z_7837 <= 1
 0 <= z_7838 <= 1
 0 <= z_7839 <= 1
 0 <= z_7840 <= 1
 0 <= z_7841 <= 1
 0 <= z_7842 <= 1
 0 <= z_7843 <= 1
 0 <= z_7844 <= 1
 0 <= z_7845 <= 1
 0 <= z_7846 <= 1
 0 <= z_7847 <= 1
 0 <= z_7848 <= 1
 0 <= z_7849 <= 1
 0 <= z_7850 <= 1
 0 <= z_7851 <= 1
 0 <= z_7852 <= 1
 0 <= z_7853 <= 1
 0 <= z_7854 <= 1
 0 <= z_7855 <= 1
 0 <= z_7856 <= 1
 0 <= z_7857 <= 1
 0 <= z_7858 <= 1
 0 <= z_7859 <= 1
 0 <= z_7860 <= 1
 0 <= z_7861 <= 1
 0 <= z_7862 <= 1
 0 <= z_7863 <= 1
 0 <= z_7864 <= 1
 0 <= z_7865 <= 1
 0 <= z_7866 <= 1
 0 <= z_7867 <= 1
 0 <= z_7868 <= 1
 0 <= z_7869 <= 1
 0 <= z_7870 <= 1
 0 <= z_7871 <= 1
 0 <= z_7872 <= 1
 0 <= z_7873 <= 1
 0 <= z_7874 <= 1
 0 <= z_7875 <= 1
 0 <= z_7876 <= 1
 0 <= z_7877 <= 1
 0 <= z_7878 <= 1
 0 <= z_7879 <= 1
 0 <= z_7880 <= 1
 0 <= z_7881 <= 1
 0 <= z_7882 <= 1
 0 <= z_7883 <= 1
 0 <= z_7884 <= 1
 0 <= z_7885 <= 1
 0 <= z_7886 <= 1
 0 <= z_7887 <= 1
 0 <= z_7888 <= 1
 0 <= z_7889 <= 1
 0 <= z_7890 <= 1
 0 <= z_7891 <= 1
 0 <= z_7892 <= 1
 0 <= z_7893 <= 1
 0 <= z_7894 <= 1
 0 <= z_7895 <= 1
 0 <= z_7896 <= 1
 0 <= z_7897 <= 1
 0 <= z_7898 <= 1
 0 <= z_7899 <= 1
 0 <= z_7900 <= 1
 0 <= z_7901 <= 1
 0 <= z_7902 <= 1
 0 <= z_7903 <= 1
 0 <= z_7904 <= 1
 0 <= z_7905 <= 1
 0 <= z_7906 <= 1
 0 <= z_7907 <= 1
 0 <= z_7908 <= 1
 0 <= z_7909 <= 1
 0 <= z_7910 <= 1
 0 <= z_7911 <= 1
 0 <= z_7912 <= 1
 0 <= z_7913 <= 1
 0 <= z_7914 <= 1
 0 <= z_7915 <= 1
 0 <= z_7916 <= 1
 0 <= z_7917 <= 1
 0 <= z_7918 <= 1
 0 <= z_7919 <= 1
 0 <= z_7920 <= 1
 0 <= z_7921 <= 1
 0 <= z_7922 <= 1
 0 <= z_7923 <= 1
 0 <= z_7924 <= 1
 0 <= z_7925 <= 1
 0 <= z_7926 <= 1
 0 <= z_7927 <= 1
 0 <= z_7928 <= 1
 0 <= z_7929 <= 1
 0 <= z_7930 <= 1
 0 <= z_7931 <= 1
 0 <= z_7932 <= 1
 0 <= z_7933 <= 1
 0 <= z_7934 <= 1
 0 <= z_7935 <= 1
 0 <= z_7936 <= 1
 0 <= z_7937 <= 1
 0 <= z_7938 <= 1
 0 <= z_7939 <= 1
 0 <= z_7940 <= 1
 0 <= z_7941 <= 1
 0 <= z_7942 <= 1
 0 <= z_7943 <= 1
 0 <= z_7944 <= 1
 0 <= z_7945 <= 1
 0 <= z_7946 <= 1
 0 <= z_7947 <= 1
 0 <= z_7948 <= 1
 0 <= z_7949 <= 1
 0 <= z_7950 <= 1
 0 <= z_7951 <= 1
 0 <= z_7952 <= 1
 0 <= z_7953 <= 1
 0 <= z_7954 <= 1
 0 <= z_7955 <= 1
 0 <= z_7956 <= 1
 0 <= z_7957 <= 1
 0 <= z_7958 <= 1
 0 <= z_7959 <= 1
 0 <= z_7960 <= 1
 0 <= z_7961 <= 1
 0 <= z_7962 <= 1
 0 <= z_7963 <= 1
 0 <= z_7964 <= 1
 0 <= z_7965 <= 1
 0 <= z_7966 <= 1
 0 <= z_7967 <= 1
 0 <= z_7968 <= 1
 0 <= z_7969 <= 1
 0 <= z_7970 <= 1
 0 <= z_7971 <= 1
 0 <= z_7972 <= 1
 0 <= z_7973 <= 1
 0 <= z_7974 <= 1
 0 <= z_7975 <= 1
 0 <= z_7976 <= 1
 0 <= z_7977 <= 1
 0 <= z_7978 <= 1
 0 <= z_7979 <= 1
 0 <= z_7980 <= 1
 0 <= z_7981 <= 1
 0 <= z_7982 <= 1
 0 <= z_7983 <= 1
 0 <= z_7984 <= 1
 0 <= z_7985 <= 1
 0 <= z_7986 <= 1
 0 <= z_7987 <= 1
 0 <= z_7988 <= 1
 0 <= z_7989 <= 1
 0 <= z_7990 <= 1
 0 <= z_7991 <= 1
 0 <= z_7992 <= 1
 0 <= z_7993 <= 1
 0 <= z_7994 <= 1
 0 <= z_7995 <= 1
 0 <= z_7996 <= 1
 0 <= z_7997 <= 1
 0 <= z_7998 <= 1
 0 <= z_7999 <= 1
 0 <= z_8000 <= 1
 0 <= z_8001 <= 1
 0 <= z_8002 <= 1
 0 <= z_8003 <= 1
 0 <= z_8004 <= 1
 0 <= z_8005 <= 1
 0 <= z_8006 <= 1
 0 <= z_8007 <= 1
 0 <= z_8008 <= 1
 0 <= z_8009 <= 1
 0 <= z_8010 <= 1
 0 <= z_8011 <= 1
 0 <= z_8012 <= 1
 0 <= z_8013 <= 1
 0 <= z_8014 <= 1
 0 <= z_8015 <= 1
 0 <= z_8016 <= 1
 0 <= z_8017 <= 1
 0 <= z_8018 <= 1
 0 <= z_8019 <= 1
 0 <= z_8020 <= 1
 0 <= z_8021 <= 1
 0 <= z_8022 <= 1
 0 <= z_8023 <= 1
 0 <= z_8024 <= 1
 0 <= z_8025 <= 1
 0 <= z_8026 <= 1
 0 <= z_8027 <= 1
 0 <= z_8028 <= 1
 0 <= z_8029 <= 1
 0 <= z_8030 <= 1
 0 <= z_8031 <= 1
 0 <= z_8032 <= 1
 0 <= z_8033 <= 1
 0 <= z_8034 <= 1
 0 <= z_8035 <= 1
 0 <= z_8036 <= 1
 0 <= z_8037 <= 1
 0 <= z_8038 <= 1
 0 <= z_8039 <= 1
 0 <= z_8040 <= 1
 0 <= z_8041 <= 1
 0 <= z_8042 <= 1
 0 <= z_8043 <= 1
 0 <= z_8044 <= 1
 0 <= z_8045 <= 1
 0 <= z_8046 <= 1
 0 <= z_8047 <= 1
 0 <= z_8048 <= 1
 0 <= z_8049 <= 1
 0 <= z_8050 <= 1
 0 <= z_8051 <= 1
 0 <= z_8052 <= 1
 0 <= z_8053 <= 1
 0 <= z_8054 <= 1
 0 <= z_8055 <= 1
 0 <= z_8056 <= 1
 0 <= z_8057 <= 1
 0 <= z_8058 <= 1
 0 <= z_8059 <= 1
 0 <= z_8060 <= 1
 0 <= z_8061 <= 1
 0 <= z_8062 <= 1
 0 <= z_8063 <= 1
 0 <= z_8064 <= 1
 0 <= z_8065 <= 1
 0 <= z_8066 <= 1
 0 <= z_8067 <= 1
 0 <= z_8068 <= 1
 0 <= z_8069 <= 1
 0 <= z_8070 <= 1
 0 <= z_8071 <= 1
 0 <= z_8072 <= 1
 0 <= z_8073 <= 1
 0 <= z_8074 <= 1
 0 <= z_8075 <= 1
 0 <= z_8076 <= 1
 0 <= z_8077 <= 1
 0 <= z_8078 <= 1
 0 <= z_8079 <= 1
 0 <= z_8080 <= 1
 0 <= z_8081 <= 1
 0 <= z_8082 <= 1
 0 <= z_8083 <= 1
 0 <= z_8084 <= 1
 0 <= z_8085 <= 1
 0 <= z_8086 <= 1
 0 <= z_8087 <= 1
 0 <= z_8088 <= 1
 0 <= z_8089 <= 1
 0 <= z_8090 <= 1
 0 <= z_8091 <= 1
 0 <= z_8092 <= 1
 0 <= z_8093 <= 1
 0 <= z_8094 <= 1
 0 <= z_8095 <= 1
 0 <= z_8096 <= 1
 0 <= z_8097 <= 1
 0 <= z_8098 <= 1
 0 <= z_8099 <= 1
 0 <= z_8100 <= 1
 0 <= z_8101 <= 1
 0 <= z_8102 <= 1
 0 <= z_8103 <= 1
 0 <= z_8104 <= 1
 0 <= z_8105 <= 1
 0 <= z_8106 <= 1
 0 <= z_8107 <= 1
 0 <= z_8108 <= 1
 0 <= z_8109 <= 1
 0 <= z_8110 <= 1
 0 <= z_8111 <= 1
 0 <= z_8112 <= 1
 0 <= z_8113 <= 1
 0 <= z_8114 <= 1
 0 <= z_8115 <= 1
 0 <= z_8116 <= 1
 0 <= z_8117 <= 1
 0 <= z_8118 <= 1
 0 <= z_8119 <= 1
 0 <= z_8120 <= 1
 0 <= z_8121 <= 1
 0 <= z_8122 <= 1
 0 <= z_8123 <= 1
 0 <= z_8124 <= 1
 0 <= z_8125 <= 1
 0 <= z_8126 <= 1
 0 <= z_8127 <= 1
 0 <= z_8128 <= 1
 0 <= z_8129 <= 1
 0 <= z_8130 <= 1
 0 <= z_8131 <= 1
 0 <= z_8132 <= 1
 0 <= z_8133 <= 1
 0 <= z_8134 <= 1
 0 <= z_8135 <= 1
 0 <= z_8136 <= 1
 0 <= z_8137 <= 1
 0 <= z_8138 <= 1
 0 <= z_8139 <= 1
 0 <= z_8140 <= 1
 0 <= z_8141 <= 1
 0 <= z_8142 <= 1
 0 <= z_8143 <= 1
 0 <= z_8144 <= 1
 0 <= z_8145 <= 1
 0 <= z_8146 <= 1
 0 <= z_8147 <= 1
 0 <= z_8148 <= 1
 0 <= z_8149 <= 1
 0 <= z_8150 <= 1
 0 <= z_8151 <= 1
 0 <= z_8152 <= 1
 0 <= z_8153 <= 1
 0 <= z_8154 <= 1
 0 <= z_8155 <= 1
 0 <= z_8156 <= 1
 0 <= z_8157 <= 1
 0 <= z_8158 <= 1
 0 <= z_8159 <= 1
 0 <= z_8160 <= 1
 0 <= z_8161 <= 1
 0 <= z_8162 <= 1
 0 <= z_8163 <= 1
 0 <= z_8164 <= 1
 0 <= z_8165 <= 1
 0 <= z_8166 <= 1
 0 <= z_8167 <= 1
 0 <= z_8168 <= 1
 0 <= z_8169 <= 1
 0 <= z_8170 <= 1
 0 <= z_8171 <= 1
 0 <= z_8172 <= 1
 0 <= z_8173 <= 1
 0 <= z_8174 <= 1
 0 <= z_8175 <= 1
 0 <= z_8176 <= 1
 0 <= z_8177 <= 1
 0 <= z_8178 <= 1
 0 <= z_8179 <= 1
 0 <= z_8180 <= 1
 0 <= z_8181 <= 1
 0 <= z_8182 <= 1
 0 <= z_8183 <= 1
 0 <= z_8184 <= 1
 0 <= z_8185 <= 1
 0 <= z_8186 <= 1
 0 <= z_8187 <= 1
 0 <= z_8188 <= 1
 0 <= z_8189 <= 1
 0 <= z_8190 <= 1
 0 <= z_8191 <= 1
 0 <= z_8192 <= 1
 0 <= z_8193 <= 1
 0 <= z_8194 <= 1
 0 <= z_8195 <= 1
 0 <= z_8196 <= 1
 0 <= z_8197 <= 1
 0 <= z_8198 <= 1
 0 <= z_8199 <= 1
 0 <= z_8200 <= 1
 0 <= z_8201 <= 1
 0 <= z_8202 <= 1
 0 <= z_8203 <= 1
 0 <= z_8204 <= 1
 0 <= z_8205 <= 1
 0 <= z_8206 <= 1
 0 <= z_8207 <= 1
 0 <= z_8208 <= 1
 0 <= z_8209 <= 1
 0 <= z_8210 <= 1
 0 <= z_8211 <= 1
 0 <= z_8212 <= 1
 0 <= z_8213 <= 1
 0 <= z_8214 <= 1
 0 <= z_8215 <= 1
 0 <= z_8216 <= 1
 0 <= z_8217 <= 1
 0 <= z_8218 <= 1
 0 <= z_8219 <= 1
 0 <= z_8220 <= 1
 0 <= z_8221 <= 1
 0 <= z_8222 <= 1
 0 <= z_8223 <= 1
 0 <= z_8224 <= 1
 0 <= z_8225 <= 1
 0 <= z_8226 <= 1
 0 <= z_8227 <= 1
 0 <= z_8228 <= 1
 0 <= z_8229 <= 1
 0 <= z_8230 <= 1
 0 <= z_8231 <= 1
 0 <= z_8232 <= 1
 0 <= z_8233 <= 1
 0 <= z_8234 <= 1
 0 <= z_8235 <= 1
 0 <= z_8236 <= 1
 0 <= z_8237 <= 1
 0 <= z_8238 <= 1
 0 <= z_8239 <= 1
 0 <= z_8240 <= 1
 0 <= z_8241 <= 1
 0 <= z_8242 <= 1
 0 <= z_8243 <= 1
 0 <= z_8244 <= 1
 0 <= z_8245 <= 1
 0 <= z_8246 <= 1
 0 <= z_8247 <= 1
 0 <= z_8248 <= 1
 0 <= z_8249 <= 1
 0 <= z_8250 <= 1
 0 <= z_8251 <= 1
 0 <= z_8252 <= 1
 0 <= z_8253 <= 1
 0 <= z_8254 <= 1
 0 <= z_8255 <= 1
 0 <= z_8256 <= 1
 0 <= z_8257 <= 1
 0 <= z_8258 <= 1
 0 <= z_8259 <= 1
 0 <= z_8260 <= 1
 0 <= z_8261 <= 1
 0 <= z_8262 <= 1
 0 <= z_8263 <= 1
 0 <= z_8264 <= 1
 0 <= z_8265 <= 1
 0 <= z_8266 <= 1
 0 <= z_8267 <= 1
 0 <= z_8268 <= 1
 0 <= z_8269 <= 1
 0 <= z_8270 <= 1
 0 <= z_8271 <= 1
 0 <= z_8272 <= 1
 0 <= z_8273 <= 1
 0 <= z_8274 <= 1
 0 <= z_8275 <= 1
 0 <= z_8276 <= 1
 0 <= z_8277 <= 1
 0 <= z_8278 <= 1
 0 <= z_8279 <= 1
 0 <= z_8280 <= 1
 0 <= z_8281 <= 1
 0 <= z_8282 <= 1
 0 <= z_8283 <= 1
 0 <= z_8284 <= 1
 0 <= z_8285 <= 1
 0 <= z_8286 <= 1
 0 <= z_8287 <= 1
 0 <= z_8288 <= 1
 0 <= z_8289 <= 1
 0 <= z_8290 <= 1
 0 <= z_8291 <= 1
 0 <= z_8292 <= 1
 0 <= z_8293 <= 1
 0 <= z_8294 <= 1
 0 <= z_8295 <= 1
 0 <= z_8296 <= 1
 0 <= z_8297 <= 1
 0 <= z_8298 <= 1
 0 <= z_8299 <= 1
 0 <= z_8300 <= 1
 0 <= z_8301 <= 1
 0 <= z_8302 <= 1
 0 <= z_8303 <= 1
 0 <= z_8304 <= 1
 0 <= z_8305 <= 1
 0 <= z_8306 <= 1
 0 <= z_8307 <= 1
 0 <= z_8308 <= 1
 0 <= z_8309 <= 1
 0 <= z_8310 <= 1
 0 <= z_8311 <= 1
 0 <= z_8312 <= 1
 0 <= z_8313 <= 1
 0 <= z_8314 <= 1
 0 <= z_8315 <= 1
 0 <= z_8316 <= 1
 0 <= z_8317 <= 1
 0 <= z_8318 <= 1
 0 <= z_8319 <= 1
 0 <= z_8320 <= 1
 0 <= z_8321 <= 1
 0 <= z_8322 <= 1
 0 <= z_8323 <= 1
 0 <= z_8324 <= 1
 0 <= z_8325 <= 1
 0 <= z_8326 <= 1
 0 <= z_8327 <= 1
 0 <= z_8328 <= 1
 0 <= z_8329 <= 1
 0 <= z_8330 <= 1
 0 <= z_8331 <= 1
 0 <= z_8332 <= 1
 0 <= z_8333 <= 1
 0 <= z_8334 <= 1
 0 <= z_8335 <= 1
 0 <= z_8336 <= 1
 0 <= z_8337 <= 1
 0 <= z_8338 <= 1
 0 <= z_8339 <= 1
 0 <= z_8340 <= 1
 0 <= z_8341 <= 1
 0 <= z_8342 <= 1
 0 <= z_8343 <= 1
 0 <= z_8344 <= 1
 0 <= z_8345 <= 1
 0 <= z_8346 <= 1
 0 <= z_8347 <= 1
 0 <= z_8348 <= 1
 0 <= z_8349 <= 1
 0 <= z_8350 <= 1
 0 <= z_8351 <= 1
 0 <= z_8352 <= 1
 0 <= z_8353 <= 1
 0 <= z_8354 <= 1
 0 <= z_8355 <= 1
 0 <= z_8356 <= 1
 0 <= z_8357 <= 1
 0 <= z_8358 <= 1
 0 <= z_8359 <= 1
 0 <= z_8360 <= 1
 0 <= z_8361 <= 1
 0 <= z_8362 <= 1
 0 <= z_8363 <= 1
 0 <= z_8364 <= 1
 0 <= z_8365 <= 1
 0 <= z_8366 <= 1
 0 <= z_8367 <= 1
 0 <= z_8368 <= 1
 0 <= z_8369 <= 1
 0 <= z_8370 <= 1
 0 <= z_8371 <= 1
 0 <= z_8372 <= 1
 0 <= z_8373 <= 1
 0 <= z_8374 <= 1
 0 <= z_8375 <= 1
 0 <= z_8376 <= 1
 0 <= z_8377 <= 1
 0 <= z_8378 <= 1
 0 <= z_8379 <= 1
 0 <= z_8380 <= 1
 0 <= z_8381 <= 1
 0 <= z_8382 <= 1
 0 <= z_8383 <= 1
 0 <= z_8384 <= 1
 0 <= z_8385 <= 1
 0 <= z_8386 <= 1
 0 <= z_8387 <= 1
 0 <= z_8388 <= 1
 0 <= z_8389 <= 1
 0 <= z_8390 <= 1
 0 <= z_8391 <= 1
 0 <= z_8392 <= 1
 0 <= z_8393 <= 1
 0 <= z_8394 <= 1
 0 <= z_8395 <= 1
 0 <= z_8396 <= 1
 0 <= z_8397 <= 1
 0 <= z_8398 <= 1
 0 <= z_8399 <= 1
 0 <= z_8400 <= 1
 0 <= z_8401 <= 1
 0 <= z_8402 <= 1
 0 <= z_8403 <= 1
 0 <= z_8404 <= 1
 0 <= z_8405 <= 1
 0 <= z_8406 <= 1
 0 <= z_8407 <= 1
 0 <= z_8408 <= 1
 0 <= z_8409 <= 1
 0 <= z_8410 <= 1
 0 <= z_8411 <= 1
 0 <= z_8412 <= 1
 0 <= z_8413 <= 1
 0 <= z_8414 <= 1
 0 <= z_8415 <= 1
 0 <= z_8416 <= 1
 0 <= z_8417 <= 1
 0 <= z_8418 <= 1
 0 <= z_8419 <= 1
 0 <= z_8420 <= 1
 0 <= z_8421 <= 1
 0 <= z_8422 <= 1
 0 <= z_8423 <= 1
 0 <= z_8424 <= 1
 0 <= z_8425 <= 1
 0 <= z_8426 <= 1
 0 <= z_8427 <= 1
 0 <= z_8428 <= 1
 0 <= z_8429 <= 1
 0 <= z_8430 <= 1
 0 <= z_8431 <= 1
 0 <= z_8432 <= 1
 0 <= z_8433 <= 1
 0 <= z_8434 <= 1
 0 <= z_8435 <= 1
 0 <= z_8436 <= 1
 0 <= z_8437 <= 1
 0 <= z_8438 <= 1
 0 <= z_8439 <= 1
 0 <= z_8440 <= 1
 0 <= z_8441 <= 1
 0 <= z_8442 <= 1
 0 <= z_8443 <= 1
 0 <= z_8444 <= 1
 0 <= z_8445 <= 1
 0 <= z_8446 <= 1
 0 <= z_8447 <= 1
 0 <= z_8448 <= 1
 0 <= z_8449 <= 1
 0 <= z_8450 <= 1
 0 <= z_8451 <= 1
 0 <= z_8452 <= 1
 0 <= z_8453 <= 1
 0 <= z_8454 <= 1
 0 <= z_8455 <= 1
 0 <= z_8456 <= 1
 0 <= z_8457 <= 1
 0 <= z_8458 <= 1
 0 <= z_8459 <= 1
 0 <= z_8460 <= 1
 0 <= z_8461 <= 1
 0 <= z_8462 <= 1
 0 <= z_8463 <= 1
 0 <= z_8464 <= 1
 0 <= z_8465 <= 1
 0 <= z_8466 <= 1
 0 <= z_8467 <= 1
 0 <= z_8468 <= 1
 0 <= z_8469 <= 1
 0 <= z_8470 <= 1
 0 <= z_8471 <= 1
 0 <= z_8472 <= 1
 0 <= z_8473 <= 1
 0 <= z_8474 <= 1
 0 <= z_8475 <= 1
 0 <= z_8476 <= 1
 0 <= z_8477 <= 1
 0 <= z_8478 <= 1
 0 <= z_8479 <= 1
 0 <= z_8480 <= 1
 0 <= z_8481 <= 1
 0 <= z_8482 <= 1
 0 <= z_8483 <= 1
 0 <= z_8484 <= 1
 0 <= z_8485 <= 1
 0 <= z_8486 <= 1
 0 <= z_8487 <= 1
 0 <= z_8488 <= 1
 0 <= z_8489 <= 1
 0 <= z_8490 <= 1
 0 <= z_8491 <= 1
 0 <= z_8492 <= 1
 0 <= z_8493 <= 1
 0 <= z_8494 <= 1
 0 <= z_8495 <= 1
 0 <= z_8496 <= 1
 0 <= z_8497 <= 1
 0 <= z_8498 <= 1
 0 <= z_8499 <= 1
 0 <= z_8500 <= 1
 0 <= z_8501 <= 1
 0 <= z_8502 <= 1
 0 <= z_8503 <= 1
 0 <= z_8504 <= 1
 0 <= z_8505 <= 1
 0 <= z_8506 <= 1
 0 <= z_8507 <= 1
 0 <= z_8508 <= 1
 0 <= z_8509 <= 1
 0 <= z_8510 <= 1
 0 <= z_8511 <= 1
 0 <= z_8512 <= 1
 0 <= z_8513 <= 1
 0 <= z_8514 <= 1
 0 <= z_8515 <= 1
 0 <= z_8516 <= 1
 0 <= z_8517 <= 1
 0 <= z_8518 <= 1
 0 <= z_8519 <= 1
 0 <= z_8520 <= 1
 0 <= z_8521 <= 1
 0 <= z_8522 <= 1
 0 <= z_8523 <= 1
 0 <= z_8524 <= 1
 0 <= z_8525 <= 1
 0 <= z_8526 <= 1
 0 <= z_8527 <= 1
 0 <= z_8528 <= 1
 0 <= z_8529 <= 1
 0 <= z_8530 <= 1
 0 <= z_8531 <= 1
 0 <= z_8532 <= 1
 0 <= z_8533 <= 1
 0 <= z_8534 <= 1
 0 <= z_8535 <= 1
 0 <= z_8536 <= 1
 0 <= z_8537 <= 1
 0 <= z_8538 <= 1
 0 <= z_8539 <= 1
 0 <= z_8540 <= 1
 0 <= z_8541 <= 1
 0 <= z_8542 <= 1
 0 <= z_8543 <= 1
 0 <= z_8544 <= 1
 0 <= z_8545 <= 1
 0 <= z_8546 <= 1
 0 <= z_8547 <= 1
 0 <= z_8548 <= 1
 0 <= z_8549 <= 1
 0 <= z_8550 <= 1
 0 <= z_8551 <= 1
 0 <= z_8552 <= 1
 0 <= z_8553 <= 1
 0 <= z_8554 <= 1
 0 <= z_8555 <= 1
 0 <= z_8556 <= 1
 0 <= z_8557 <= 1
 0 <= z_8558 <= 1
 0 <= z_8559 <= 1
 0 <= z_8560 <= 1
 0 <= z_8561 <= 1
 0 <= z_8562 <= 1
 0 <= z_8563 <= 1
 0 <= z_8564 <= 1
 0 <= z_8565 <= 1
 0 <= z_8566 <= 1
 0 <= z_8567 <= 1
 0 <= z_8568 <= 1
 0 <= z_8569 <= 1
 0 <= z_8570 <= 1
 0 <= z_8571 <= 1
 0 <= z_8572 <= 1
 0 <= z_8573 <= 1
 0 <= z_8574 <= 1
 0 <= z_8575 <= 1
 0 <= z_8576 <= 1
 0 <= z_8577 <= 1
 0 <= z_8578 <= 1
 0 <= z_8579 <= 1
 0 <= z_8580 <= 1
 0 <= z_8581 <= 1
 0 <= z_8582 <= 1
 0 <= z_8583 <= 1
 0 <= z_8584 <= 1
 0 <= z_8585 <= 1
 0 <= z_8586 <= 1
 0 <= z_8587 <= 1
 0 <= z_8588 <= 1
 0 <= z_8589 <= 1
 0 <= z_8590 <= 1
 0 <= z_8591 <= 1
 0 <= z_8592 <= 1
 0 <= z_8593 <= 1
 0 <= z_8594 <= 1
 0 <= z_8595 <= 1
 0 <= z_8596 <= 1
 0 <= z_8597 <= 1
 0 <= z_8598 <= 1
 0 <= z_8599 <= 1
 0 <= z_8600 <= 1
 0 <= z_8601 <= 1
 0 <= z_8602 <= 1
 0 <= z_8603 <= 1
 0 <= z_8604 <= 1
 0 <= z_8605 <= 1
 0 <= z_8606 <= 1
 0 <= z_8607 <= 1
 0 <= z_8608 <= 1
 0 <= z_8609 <= 1
 0 <= z_8610 <= 1
 0 <= z_8611 <= 1
 0 <= z_8612 <= 1
 0 <= z_8613 <= 1
 0 <= z_8614 <= 1
 0 <= z_8615 <= 1
 0 <= z_8616 <= 1
 0 <= z_8617 <= 1
 0 <= z_8618 <= 1
 0 <= z_8619 <= 1
 0 <= z_8620 <= 1
 0 <= z_8621 <= 1
 0 <= z_8622 <= 1
 0 <= z_8623 <= 1
 0 <= z_8624 <= 1
 0 <= z_8625 <= 1
 0 <= z_8626 <= 1
 0 <= z_8627 <= 1
 0 <= z_8628 <= 1
 0 <= z_8629 <= 1
 0 <= z_8630 <= 1
 0 <= z_8631 <= 1
 0 <= z_8632 <= 1
 0 <= z_8633 <= 1
 0 <= z_8634 <= 1
 0 <= z_8635 <= 1
 0 <= z_8636 <= 1
 0 <= z_8637 <= 1
 0 <= z_8638 <= 1
 0 <= z_8639 <= 1
 0 <= z_8640 <= 1
 0 <= z_8641 <= 1
 0 <= z_8642 <= 1
 0 <= z_8643 <= 1
 0 <= z_8644 <= 1
 0 <= z_8645 <= 1
 0 <= z_8646 <= 1
 0 <= z_8647 <= 1
 0 <= z_8648 <= 1
 0 <= z_8649 <= 1
 0 <= z_8650 <= 1
 0 <= z_8651 <= 1
 0 <= z_8652 <= 1
 0 <= z_8653 <= 1
 0 <= z_8654 <= 1
 0 <= z_8655 <= 1
 0 <= z_8656 <= 1
 0 <= z_8657 <= 1
 0 <= z_8658 <= 1
 0 <= z_8659 <= 1
 0 <= z_8660 <= 1
 0 <= z_8661 <= 1
 0 <= z_8662 <= 1
 0 <= z_8663 <= 1
 0 <= z_8664 <= 1
 0 <= z_8665 <= 1
 0 <= z_8666 <= 1
 0 <= z_8667 <= 1
 0 <= z_8668 <= 1
 0 <= z_8669 <= 1
 0 <= z_8670 <= 1
 0 <= z_8671 <= 1
 0 <= z_8672 <= 1
 0 <= z_8673 <= 1
 0 <= z_8674 <= 1
 0 <= z_8675 <= 1
 0 <= z_8676 <= 1
 0 <= z_8677 <= 1
 0 <= z_8678 <= 1
 0 <= z_8679 <= 1
 0 <= z_8680 <= 1
 0 <= z_8681 <= 1
 0 <= z_8682 <= 1
 0 <= z_8683 <= 1
 0 <= z_8684 <= 1
 0 <= z_8685 <= 1
 0 <= z_8686 <= 1
 0 <= z_8687 <= 1
 0 <= z_8688 <= 1
 0 <= z_8689 <= 1
 0 <= z_8690 <= 1
 0 <= z_8691 <= 1
 0 <= z_8692 <= 1
 0 <= z_8693 <= 1
 0 <= z_8694 <= 1
 0 <= z_8695 <= 1
 0 <= z_8696 <= 1
 0 <= z_8697 <= 1
 0 <= z_8698 <= 1
 0 <= z_8699 <= 1
 0 <= z_8700 <= 1
 0 <= z_8701 <= 1
 0 <= z_8702 <= 1
 0 <= z_8703 <= 1
 0 <= z_8704 <= 1
 0 <= z_8705 <= 1
 0 <= z_8706 <= 1
 0 <= z_8707 <= 1
 0 <= z_8708 <= 1
 0 <= z_8709 <= 1
 0 <= z_8710 <= 1
 0 <= z_8711 <= 1
 0 <= z_8712 <= 1
 0 <= z_8713 <= 1
 0 <= z_8714 <= 1
 0 <= z_8715 <= 1
 0 <= z_8716 <= 1
 0 <= z_8717 <= 1
 0 <= z_8718 <= 1
 0 <= z_8719 <= 1
 0 <= z_8720 <= 1
 0 <= z_8721 <= 1
 0 <= z_8722 <= 1
 0 <= z_8723 <= 1
 0 <= z_8724 <= 1
 0 <= z_8725 <= 1
 0 <= z_8726 <= 1
 0 <= z_8727 <= 1
 0 <= z_8728 <= 1
 0 <= z_8729 <= 1
 0 <= z_8730 <= 1
 0 <= z_8731 <= 1
 0 <= z_8732 <= 1
 0 <= z_8733 <= 1
 0 <= z_8734 <= 1
 0 <= z_8735 <= 1
 0 <= z_8736 <= 1
 0 <= z_8737 <= 1
 0 <= z_8738 <= 1
 0 <= z_8739 <= 1
 0 <= z_8740 <= 1
 0 <= z_8741 <= 1
 0 <= z_8742 <= 1
 0 <= z_8743 <= 1
 0 <= z_8744 <= 1
 0 <= z_8745 <= 1
 0 <= z_8746 <= 1
 0 <= z_8747 <= 1
 0 <= z_8748 <= 1
 0 <= z_8749 <= 1
 0 <= z_8750 <= 1
 0 <= z_8751 <= 1
 0 <= z_8752 <= 1
 0 <= z_8753 <= 1
 0 <= z_8754 <= 1
 0 <= z_8755 <= 1
 0 <= z_8756 <= 1
 0 <= z_8757 <= 1
 0 <= z_8758 <= 1
 0 <= z_8759 <= 1
 0 <= z_8760 <= 1
 0 <= z_8761 <= 1
 0 <= z_8762 <= 1
 0 <= z_8763 <= 1
 0 <= z_8764 <= 1
 0 <= z_8765 <= 1
 0 <= z_8766 <= 1
 0 <= z_8767 <= 1
 0 <= z_8768 <= 1
 0 <= z_8769 <= 1
 0 <= z_8770 <= 1
 0 <= z_8771 <= 1
 0 <= z_8772 <= 1
 0 <= z_8773 <= 1
 0 <= z_8774 <= 1
 0 <= z_8775 <= 1
 0 <= z_8776 <= 1
 0 <= z_8777 <= 1
 0 <= z_8778 <= 1
 0 <= z_8779 <= 1
 0 <= z_8780 <= 1
 0 <= z_8781 <= 1
 0 <= z_8782 <= 1
 0 <= z_8783 <= 1
 0 <= z_8784 <= 1
 0 <= z_8785 <= 1
 0 <= z_8786 <= 1
 0 <= z_8787 <= 1
 0 <= z_8788 <= 1
 0 <= z_8789 <= 1
 0 <= z_8790 <= 1
 0 <= z_8791 <= 1
 0 <= z_8792 <= 1
 0 <= z_8793 <= 1
 0 <= z_8794 <= 1
 0 <= z_8795 <= 1
 0 <= z_8796 <= 1
 0 <= z_8797 <= 1
 0 <= z_8798 <= 1
 0 <= z_8799 <= 1
 0 <= z_8800 <= 1
 0 <= z_8801 <= 1
 0 <= z_8802 <= 1
 0 <= z_8803 <= 1
 0 <= z_8804 <= 1
 0 <= z_8805 <= 1
 0 <= z_8806 <= 1
 0 <= z_8807 <= 1
 0 <= z_8808 <= 1
 0 <= z_8809 <= 1
 0 <= z_8810 <= 1
 0 <= z_8811 <= 1
 0 <= z_8812 <= 1
 0 <= z_8813 <= 1
 0 <= z_8814 <= 1
 0 <= z_8815 <= 1
 0 <= z_8816 <= 1
 0 <= z_8817 <= 1
 0 <= z_8818 <= 1
 0 <= z_8819 <= 1
 0 <= z_8820 <= 1
 0 <= z_8821 <= 1
 0 <= z_8822 <= 1
 0 <= z_8823 <= 1
 0 <= z_8824 <= 1
 0 <= z_8825 <= 1
 0 <= z_8826 <= 1
 0 <= z_8827 <= 1
 0 <= z_8828 <= 1
 0 <= z_8829 <= 1
 0 <= z_8830 <= 1
 0 <= z_8831 <= 1
 0 <= z_8832 <= 1
 0 <= z_8833 <= 1
 0 <= z_8834 <= 1
 0 <= z_8835 <= 1
 0 <= z_8836 <= 1
 0 <= z_8837 <= 1
 0 <= z_8838 <= 1
 0 <= z_8839 <= 1
 0 <= z_8840 <= 1
 0 <= z_8841 <= 1
 0 <= z_8842 <= 1
 0 <= z_8843 <= 1
 0 <= z_8844 <= 1
 0 <= z_8845 <= 1
 0 <= z_8846 <= 1
 0 <= z_8847 <= 1
 0 <= z_8848 <= 1
 0 <= z_8849 <= 1
 0 <= z_8850 <= 1
 0 <= z_8851 <= 1
 0 <= z_8852 <= 1
 0 <= z_8853 <= 1
 0 <= z_8854 <= 1
 0 <= z_8855 <= 1
 0 <= z_8856 <= 1
 0 <= z_8857 <= 1
 0 <= z_8858 <= 1
 0 <= z_8859 <= 1
 0 <= z_8860 <= 1
 0 <= z_8861 <= 1
 0 <= z_8862 <= 1
 0 <= z_8863 <= 1
 0 <= z_8864 <= 1
 0 <= z_8865 <= 1
 0 <= z_8866 <= 1
 0 <= z_8867 <= 1
 0 <= z_8868 <= 1
 0 <= z_8869 <= 1
 0 <= z_8870 <= 1
 0 <= z_8871 <= 1
 0 <= z_8872 <= 1
 0 <= z_8873 <= 1
 0 <= z_8874 <= 1
 0 <= z_8875 <= 1
 0 <= z_8876 <= 1
 0 <= z_8877 <= 1
 0 <= z_8878 <= 1
 0 <= z_8879 <= 1
 0 <= z_8880 <= 1
 0 <= z_8881 <= 1
 0 <= z_8882 <= 1
 0 <= z_8883 <= 1
 0 <= z_8884 <= 1
 0 <= z_8885 <= 1
 0 <= z_8886 <= 1
 0 <= z_8887 <= 1
 0 <= z_8888 <= 1
 0 <= z_8889 <= 1
 0 <= z_8890 <= 1
 0 <= z_8891 <= 1
 0 <= z_8892 <= 1
 0 <= z_8893 <= 1
 0 <= z_8894 <= 1
 0 <= z_8895 <= 1
 0 <= z_8896 <= 1
 0 <= z_8897 <= 1
 0 <= z_8898 <= 1
 0 <= z_8899 <= 1
 0 <= z_8900 <= 1
 0 <= z_8901 <= 1
 0 <= z_8902 <= 1
 0 <= z_8903 <= 1
 0 <= z_8904 <= 1
 0 <= z_8905 <= 1
 0 <= z_8906 <= 1
 0 <= z_8907 <= 1
 0 <= z_8908 <= 1
 0 <= z_8909 <= 1
 0 <= z_8910 <= 1
 0 <= z_8911 <= 1
 0 <= z_8912 <= 1
 0 <= z_8913 <= 1
 0 <= z_8914 <= 1
 0 <= z_8915 <= 1
 0 <= z_8916 <= 1
 0 <= z_8917 <= 1
 0 <= z_8918 <= 1
 0 <= z_8919 <= 1
 0 <= z_8920 <= 1
 0 <= z_8921 <= 1
 0 <= z_8922 <= 1
 0 <= z_8923 <= 1
 0 <= z_8924 <= 1
 0 <= z_8925 <= 1
 0 <= z_8926 <= 1
 0 <= z_8927 <= 1
 0 <= z_8928 <= 1
 0 <= z_8929 <= 1
 0 <= z_8930 <= 1
 0 <= z_8931 <= 1
 0 <= z_8932 <= 1
 0 <= z_8933 <= 1
 0 <= z_8934 <= 1
 0 <= z_8935 <= 1
 0 <= z_8936 <= 1
 0 <= z_8937 <= 1
 0 <= z_8938 <= 1
 0 <= z_8939 <= 1
 0 <= z_8940 <= 1
 0 <= z_8941 <= 1
 0 <= z_8942 <= 1
 0 <= z_8943 <= 1
 0 <= z_8944 <= 1
 0 <= z_8945 <= 1
 0 <= z_8946 <= 1
 0 <= z_8947 <= 1
 0 <= z_8948 <= 1
 0 <= z_8949 <= 1
 0 <= z_8950 <= 1
 0 <= z_8951 <= 1
 0 <= z_8952 <= 1
 0 <= z_8953 <= 1
 0 <= z_8954 <= 1
 0 <= z_8955 <= 1
 0 <= z_8956 <= 1
 0 <= z_8957 <= 1
 0 <= z_8958 <= 1
 0 <= z_8959 <= 1
 0 <= z_8960 <= 1
 0 <= z_8961 <= 1
 0 <= z_8962 <= 1
 0 <= z_8963 <= 1
 0 <= z_8964 <= 1
 0 <= z_8965 <= 1
 0 <= z_8966 <= 1
 0 <= z_8967 <= 1
 0 <= z_8968 <= 1
 0 <= z_8969 <= 1
 0 <= z_8970 <= 1
 0 <= z_8971 <= 1
 0 <= z_8972 <= 1
 0 <= z_8973 <= 1
 0 <= z_8974 <= 1
 0 <= z_8975 <= 1
 0 <= z_8976 <= 1
 0 <= z_8977 <= 1
 0 <= z_8978 <= 1
 0 <= z_8979 <= 1
 0 <= z_8980 <= 1
 0 <= z_8981 <= 1
 0 <= z_8982 <= 1
 0 <= z_8983 <= 1
 0 <= z_8984 <= 1
 0 <= z_8985 <= 1
 0 <= z_8986 <= 1
 0 <= z_8987 <= 1
 0 <= z_8988 <= 1
 0 <= z_8989 <= 1
 0 <= z_8990 <= 1
 0 <= z_8991 <= 1
 0 <= z_8992 <= 1
 0 <= z_8993 <= 1
 0 <= z_8994 <= 1
 0 <= z_8995 <= 1
 0 <= z_8996 <= 1
 0 <= z_8997 <= 1
 0 <= z_8998 <= 1
 0 <= z_8999 <= 1
 0 <= z_9000 <= 1
 0 <= z_9001 <= 1
 0 <= z_9002 <= 1
 0 <= z_9003 <= 1
 0 <= z_9004 <= 1
 0 <= z_9005 <= 1
 0 <= z_9006 <= 1
 0 <= z_9007 <= 1
 0 <= z_9008 <= 1
 0 <= z_9009 <= 1
 0 <= z_9010 <= 1
 0 <= z_9011 <= 1
 0 <= z_9012 <= 1
 0 <= z_9013 <= 1
 0 <= z_9014 <= 1
 0 <= z_9015 <= 1
 0 <= z_9016 <= 1
 0 <= z_9017 <= 1
 0 <= z_9018 <= 1
 0 <= z_9019 <= 1
 0 <= z_9020 <= 1
 0 <= z_9021 <= 1
 0 <= z_9022 <= 1
 0 <= z_9023 <= 1
 0 <= z_9024 <= 1
 0 <= z_9025 <= 1
 0 <= z_9026 <= 1
 0 <= z_9027 <= 1
 0 <= z_9028 <= 1
 0 <= z_9029 <= 1
 0 <= z_9030 <= 1
 0 <= z_9031 <= 1
 0 <= z_9032 <= 1
 0 <= z_9033 <= 1
 0 <= z_9034 <= 1
 0 <= z_9035 <= 1
 0 <= z_9036 <= 1
 0 <= z_9037 <= 1
 0 <= z_9038 <= 1
 0 <= z_9039 <= 1
 0 <= z_9040 <= 1
 0 <= z_9041 <= 1
 0 <= z_9042 <= 1
 0 <= z_9043 <= 1
 0 <= z_9044 <= 1
 0 <= z_9045 <= 1
 0 <= z_9046 <= 1
 0 <= z_9047 <= 1
 0 <= z_9048 <= 1
 0 <= z_9049 <= 1
 0 <= z_9050 <= 1
 0 <= z_9051 <= 1
 0 <= z_9052 <= 1
 0 <= z_9053 <= 1
 0 <= z_9054 <= 1
 0 <= z_9055 <= 1
 0 <= z_9056 <= 1
 0 <= z_9057 <= 1
 0 <= z_9058 <= 1
 0 <= z_9059 <= 1
 0 <= z_9060 <= 1
 0 <= z_9061 <= 1
 0 <= z_9062 <= 1
 0 <= z_9063 <= 1
 0 <= z_9064 <= 1
 0 <= z_9065 <= 1
 0 <= z_9066 <= 1
 0 <= z_9067 <= 1
 0 <= z_9068 <= 1
 0 <= z_9069 <= 1
 0 <= z_9070 <= 1
 0 <= z_9071 <= 1
 0 <= z_9072 <= 1
 0 <= z_9073 <= 1
 0 <= z_9074 <= 1
 0 <= z_9075 <= 1
 0 <= z_9076 <= 1
 0 <= z_9077 <= 1
 0 <= z_9078 <= 1
 0 <= z_9079 <= 1
 0 <= z_9080 <= 1
 0 <= z_9081 <= 1
 0 <= z_9082 <= 1
 0 <= z_9083 <= 1
 0 <= z_9084 <= 1
 0 <= z_9085 <= 1
 0 <= z_9086 <= 1
 0 <= z_9087 <= 1
 0 <= z_9088 <= 1
 0 <= z_9089 <= 1
 0 <= z_9090 <= 1
 0 <= z_9091 <= 1
 0 <= z_9092 <= 1
 0 <= z_9093 <= 1
 0 <= z_9094 <= 1
 0 <= z_9095 <= 1
 0 <= z_9096 <= 1
 0 <= z_9097 <= 1
 0 <= z_9098 <= 1
 0 <= z_9099 <= 1
 0 <= z_9100 <= 1
 0 <= z_9101 <= 1
 0 <= z_9102 <= 1
 0 <= z_9103 <= 1
 0 <= z_9104 <= 1
 0 <= z_9105 <= 1
 0 <= z_9106 <= 1
 0 <= z_9107 <= 1
 0 <= z_9108 <= 1
 0 <= z_9109 <= 1
 0 <= z_9110 <= 1
 0 <= z_9111 <= 1
 0 <= z_9112 <= 1
 0 <= z_9113 <= 1
 0 <= z_9114 <= 1
 0 <= z_9115 <= 1
 0 <= z_9116 <= 1
 0 <= z_9117 <= 1
 0 <= z_9118 <= 1
 0 <= z_9119 <= 1
 0 <= z_9120 <= 1
 0 <= z_9121 <= 1
 0 <= z_9122 <= 1
 0 <= z_9123 <= 1
 0 <= z_9124 <= 1
 0 <= z_9125 <= 1
 0 <= z_9126 <= 1
 0 <= z_9127 <= 1
 0 <= z_9128 <= 1
 0 <= z_9129 <= 1
 0 <= z_9130 <= 1
 0 <= z_9131 <= 1
 0 <= z_9132 <= 1
 0 <= z_9133 <= 1
 0 <= z_9134 <= 1
 0 <= z_9135 <= 1
 0 <= z_9136 <= 1
 0 <= z_9137 <= 1
 0 <= z_9138 <= 1
 0 <= z_9139 <= 1
 0 <= z_9140 <= 1
 0 <= z_9141 <= 1
 0 <= z_9142 <= 1
 0 <= z_9143 <= 1
 0 <= z_9144 <= 1
 0 <= z_9145 <= 1
 0 <= z_9146 <= 1
 0 <= z_9147 <= 1
 0 <= z_9148 <= 1
 0 <= z_9149 <= 1
 0 <= z_9150 <= 1
 0 <= z_9151 <= 1
 0 <= z_9152 <= 1
 0 <= z_9153 <= 1
 0 <= z_9154 <= 1
 0 <= z_9155 <= 1
 0 <= z_9156 <= 1
 0 <= z_9157 <= 1
 0 <= z_9158 <= 1
 0 <= z_9159 <= 1
 0 <= z_9160 <= 1
 0 <= z_9161 <= 1
 0 <= z_9162 <= 1
 0 <= z_9163 <= 1
 0 <= z_9164 <= 1
 0 <= z_9165 <= 1
 0 <= z_9166 <= 1
 0 <= z_9167 <= 1
 0 <= z_9168 <= 1
 0 <= z_9169 <= 1
 0 <= z_9170 <= 1
 0 <= z_9171 <= 1
 0 <= z_9172 <= 1
 0 <= z_9173 <= 1
 0 <= z_9174 <= 1
 0 <= z_9175 <= 1
 0 <= z_9176 <= 1
 0 <= z_9177 <= 1
 0 <= z_9178 <= 1
 0 <= z_9179 <= 1
 0 <= z_9180 <= 1
 0 <= z_9181 <= 1
 0 <= z_9182 <= 1
 0 <= z_9183 <= 1
 0 <= z_9184 <= 1
 0 <= z_9185 <= 1
 0 <= z_9186 <= 1
 0 <= z_9187 <= 1
 0 <= z_9188 <= 1
 0 <= z_9189 <= 1
 0 <= z_9190 <= 1
 0 <= z_9191 <= 1
 0 <= z_9192 <= 1
 0 <= z_9193 <= 1
 0 <= z_9194 <= 1
 0 <= z_9195 <= 1
 0 <= z_9196 <= 1
 0 <= z_9197 <= 1
 0 <= z_9198 <= 1
 0 <= z_9199 <= 1
 0 <= z_9200 <= 1
 0 <= z_9201 <= 1
 0 <= z_9202 <= 1
 0 <= z_9203 <= 1
 0 <= z_9204 <= 1
 0 <= z_9205 <= 1
 0 <= z_9206 <= 1
 0 <= z_9207 <= 1
 0 <= z_9208 <= 1
 0 <= z_9209 <= 1
 0 <= z_9210 <= 1
 0 <= z_9211 <= 1
 0 <= z_9212 <= 1
 0 <= z_9213 <= 1
 0 <= z_9214 <= 1
 0 <= z_9215 <= 1
 0 <= z_9216 <= 1
 0 <= z_9217 <= 1
 0 <= z_9218 <= 1
 0 <= z_9219 <= 1
 0 <= z_9220 <= 1
 0 <= z_9221 <= 1
 0 <= z_9222 <= 1
 0 <= z_9223 <= 1
 0 <= z_9224 <= 1
 0 <= z_9225 <= 1
 0 <= z_9226 <= 1
 0 <= z_9227 <= 1
 0 <= z_9228 <= 1
 0 <= z_9229 <= 1
 0 <= z_9230 <= 1
 0 <= z_9231 <= 1
 0 <= z_9232 <= 1
 0 <= z_9233 <= 1
 0 <= z_9234 <= 1
 0 <= z_9235 <= 1
 0 <= z_9236 <= 1
 0 <= z_9237 <= 1
 0 <= z_9238 <= 1
 0 <= z_9239 <= 1
 0 <= z_9240 <= 1
 0 <= z_9241 <= 1
 0 <= z_9242 <= 1
 0 <= z_9243 <= 1
 0 <= z_9244 <= 1
 0 <= z_9245 <= 1
 0 <= z_9246 <= 1
 0 <= z_9247 <= 1
 0 <= z_9248 <= 1
 0 <= z_9249 <= 1
 0 <= z_9250 <= 1
 0 <= z_9251 <= 1
 0 <= z_9252 <= 1
 0 <= z_9253 <= 1
 0 <= z_9254 <= 1
 0 <= z_9255 <= 1
 0 <= z_9256 <= 1
 0 <= z_9257 <= 1
 0 <= z_9258 <= 1
 0 <= z_9259 <= 1
 0 <= z_9260 <= 1
 0 <= z_9261 <= 1
 0 <= z_9262 <= 1
 0 <= z_9263 <= 1
 0 <= z_9264 <= 1
 0 <= z_9265 <= 1
 0 <= z_9266 <= 1
 0 <= z_9267 <= 1
 0 <= z_9268 <= 1
 0 <= z_9269 <= 1
 0 <= z_9270 <= 1
 0 <= z_9271 <= 1
 0 <= z_9272 <= 1
 0 <= z_9273 <= 1
 0 <= z_9274 <= 1
 0 <= z_9275 <= 1
 0 <= z_9276 <= 1
 0 <= z_9277 <= 1
 0 <= z_9278 <= 1
 0 <= z_9279 <= 1
 0 <= z_9280 <= 1
 0 <= z_9281 <= 1
 0 <= z_9282 <= 1
 0 <= z_9283 <= 1
 0 <= z_9284 <= 1
 0 <= z_9285 <= 1
 0 <= z_9286 <= 1
 0 <= z_9287 <= 1
 0 <= z_9288 <= 1
 0 <= z_9289 <= 1
 0 <= z_9290 <= 1
 0 <= z_9291 <= 1
 0 <= z_9292 <= 1
 0 <= z_9293 <= 1
 0 <= z_9294 <= 1
 0 <= z_9295 <= 1
 0 <= z_9296 <= 1
 0 <= z_9297 <= 1
 0 <= z_9298 <= 1
 0 <= z_9299 <= 1
 0 <= z_9300 <= 1
 0 <= z_9301 <= 1
 0 <= z_9302 <= 1
 0 <= z_9303 <= 1
 0 <= z_9304 <= 1
 0 <= z_9305 <= 1
 0 <= z_9306 <= 1
 0 <= z_9307 <= 1
 0 <= z_9308 <= 1
 0 <= z_9309 <= 1
 0 <= z_9310 <= 1
 0 <= z_9311 <= 1
 0 <= z_9312 <= 1
 0 <= z_9313 <= 1
 0 <= z_9314 <= 1
 0 <= z_9315 <= 1
 0 <= z_9316 <= 1
 0 <= z_9317 <= 1
 0 <= z_9318 <= 1
 0 <= z_9319 <= 1
 0 <= z_9320 <= 1
 0 <= z_9321 <= 1
 0 <= z_9322 <= 1
 0 <= z_9323 <= 1
 0 <= z_9324 <= 1
 0 <= z_9325 <= 1
 0 <= z_9326 <= 1
 0 <= z_9327 <= 1
 0 <= z_9328 <= 1
 0 <= z_9329 <= 1
 0 <= z_9330 <= 1
 0 <= z_9331 <= 1
 0 <= z_9332 <= 1
 0 <= z_9333 <= 1
 0 <= z_9334 <= 1
 0 <= z_9335 <= 1
 0 <= z_9336 <= 1
 0 <= z_9337 <= 1
 0 <= z_9338 <= 1
 0 <= z_9339 <= 1
 0 <= z_9340 <= 1
 0 <= z_9341 <= 1
 0 <= z_9342 <= 1
 0 <= z_9343 <= 1
 0 <= z_9344 <= 1
 0 <= z_9345 <= 1
 0 <= z_9346 <= 1
 0 <= z_9347 <= 1
 0 <= z_9348 <= 1
 0 <= z_9349 <= 1
 0 <= z_9350 <= 1
 0 <= z_9351 <= 1
 0 <= z_9352 <= 1
 0 <= z_9353 <= 1
 0 <= z_9354 <= 1
 0 <= z_9355 <= 1
 0 <= z_9356 <= 1
 0 <= z_9357 <= 1
 0 <= z_9358 <= 1
 0 <= z_9359 <= 1
 0 <= z_9360 <= 1
 0 <= z_9361 <= 1
 0 <= z_9362 <= 1
 0 <= z_9363 <= 1
 0 <= z_9364 <= 1
 0 <= z_9365 <= 1
 0 <= z_9366 <= 1
 0 <= z_9367 <= 1
 0 <= z_9368 <= 1
 0 <= z_9369 <= 1
 0 <= z_9370 <= 1
 0 <= z_9371 <= 1
 0 <= z_9372 <= 1
 0 <= z_9373 <= 1
 0 <= z_9374 <= 1
 0 <= z_9375 <= 1
 0 <= z_9376 <= 1
 0 <= z_9377 <= 1
 0 <= z_9378 <= 1
 0 <= z_9379 <= 1
 0 <= z_9380 <= 1
 0 <= z_9381 <= 1
 0 <= z_9382 <= 1
 0 <= z_9383 <= 1
 0 <= z_9384 <= 1
 0 <= z_9385 <= 1
 0 <= z_9386 <= 1
 0 <= z_9387 <= 1
 0 <= z_9388 <= 1
 0 <= z_9389 <= 1
 0 <= z_9390 <= 1
 0 <= z_9391 <= 1
 0 <= z_9392 <= 1
 0 <= z_9393 <= 1
 0 <= z_9394 <= 1
 0 <= z_9395 <= 1
 0 <= z_9396 <= 1
 0 <= z_9397 <= 1
 0 <= z_9398 <= 1
 0 <= z_9399 <= 1
 0 <= z_9400 <= 1
 0 <= z_9401 <= 1
 0 <= z_9402 <= 1
 0 <= z_9403 <= 1
 0 <= z_9404 <= 1
 0 <= z_9405 <= 1
 0 <= z_9406 <= 1
 0 <= z_9407 <= 1
 0 <= z_9408 <= 1
 0 <= z_9409 <= 1
 0 <= z_9410 <= 1
 0 <= z_9411 <= 1
 0 <= z_9412 <= 1
 0 <= z_9413 <= 1
 0 <= z_9414 <= 1
 0 <= z_9415 <= 1
 0 <= z_9416 <= 1
 0 <= z_9417 <= 1
 0 <= z_9418 <= 1
 0 <= z_9419 <= 1
 0 <= z_9420 <= 1
 0 <= z_9421 <= 1
 0 <= z_9422 <= 1
 0 <= z_9423 <= 1
 0 <= z_9424 <= 1
 0 <= z_9425 <= 1
 0 <= z_9426 <= 1
 0 <= z_9427 <= 1
 0 <= z_9428 <= 1
 0 <= z_9429 <= 1
 0 <= z_9430 <= 1
 0 <= z_9431 <= 1
 0 <= z_9432 <= 1
 0 <= z_9433 <= 1
 0 <= z_9434 <= 1
 0 <= z_9435 <= 1
 0 <= z_9436 <= 1
 0 <= z_9437 <= 1
 0 <= z_9438 <= 1
 0 <= z_9439 <= 1
 0 <= z_9440 <= 1
 0 <= z_9441 <= 1
 0 <= z_9442 <= 1
 0 <= z_9443 <= 1
 0 <= z_9444 <= 1
 0 <= z_9445 <= 1
 0 <= z_9446 <= 1
 0 <= z_9447 <= 1
 0 <= z_9448 <= 1
 0 <= z_9449 <= 1
 0 <= z_9450 <= 1
 0 <= z_9451 <= 1
 0 <= z_9452 <= 1
 0 <= z_9453 <= 1
 0 <= z_9454 <= 1
 0 <= z_9455 <= 1
 0 <= z_9456 <= 1
 0 <= z_9457 <= 1
 0 <= z_9458 <= 1
 0 <= z_9459 <= 1
 0 <= z_9460 <= 1
 0 <= z_9461 <= 1
 0 <= z_9462 <= 1
 0 <= z_9463 <= 1
 0 <= z_9464 <= 1
 0 <= z_9465 <= 1
 0 <= z_9466 <= 1
 0 <= z_9467 <= 1
 0 <= z_9468 <= 1
 0 <= z_9469 <= 1
 0 <= z_9470 <= 1
 0 <= z_9471 <= 1
 0 <= z_9472 <= 1
 0 <= z_9473 <= 1
 0 <= z_9474 <= 1
 0 <= z_9475 <= 1
 0 <= z_9476 <= 1
 0 <= z_9477 <= 1
 0 <= z_9478 <= 1
 0 <= z_9479 <= 1
 0 <= z_9480 <= 1
 0 <= z_9481 <= 1
 0 <= z_9482 <= 1
 0 <= z_9483 <= 1
 0 <= z_9484 <= 1
 0 <= z_9485 <= 1
 0 <= z_9486 <= 1
 0 <= z_9487 <= 1
 0 <= z_9488 <= 1
 0 <= z_9489 <= 1
 0 <= z_9490 <= 1
 0 <= z_9491 <= 1
 0 <= z_9492 <= 1
 0 <= z_9493 <= 1
 0 <= z_9494 <= 1
 0 <= z_9495 <= 1
 0 <= z_9496 <= 1
 0 <= z_9497 <= 1
 0 <= z_9498 <= 1
 0 <= z_9499 <= 1
 0 <= z_9500 <= 1
 0 <= z_9501 <= 1
 0 <= z_9502 <= 1
 0 <= z_9503 <= 1
 0 <= z_9504 <= 1
 0 <= z_9505 <= 1
 0 <= z_9506 <= 1
 0 <= z_9507 <= 1
 0 <= z_9508 <= 1
 0 <= z_9509 <= 1
 0 <= z_9510 <= 1
 0 <= z_9511 <= 1
 0 <= z_9512 <= 1
 0 <= z_9513 <= 1
 0 <= z_9514 <= 1
 0 <= z_9515 <= 1
 0 <= z_9516 <= 1
 0 <= z_9517 <= 1
 0 <= z_9518 <= 1
 0 <= z_9519 <= 1
 0 <= z_9520 <= 1
 0 <= z_9521 <= 1
 0 <= z_9522 <= 1
 0 <= z_9523 <= 1
 0 <= z_9524 <= 1
 0 <= z_9525 <= 1
 0 <= z_9526 <= 1
 0 <= z_9527 <= 1
 0 <= z_9528 <= 1
 0 <= z_9529 <= 1
 0 <= z_9530 <= 1
 0 <= z_9531 <= 1
 0 <= z_9532 <= 1
 0 <= z_9533 <= 1
 0 <= z_9534 <= 1
 0 <= z_9535 <= 1
 0 <= z_9536 <= 1
 0 <= z_9537 <= 1
 0 <= z_9538 <= 1
 0 <= z_9539 <= 1
 0 <= z_9540 <= 1
 0 <= z_9541 <= 1
 0 <= z_9542 <= 1
 0 <= z_9543 <= 1
 0 <= z_9544 <= 1
 0 <= z_9545 <= 1
 0 <= z_9546 <= 1
 0 <= z_9547 <= 1
 0 <= z_9548 <= 1
 0 <= z_9549 <= 1
 0 <= z_9550 <= 1
 0 <= z_9551 <= 1
 0 <= z_9552 <= 1
 0 <= z_9553 <= 1
 0 <= z_9554 <= 1
 0 <= z_9555 <= 1
 0 <= z_9556 <= 1
 0 <= z_9557 <= 1
 0 <= z_9558 <= 1
 0 <= z_9559 <= 1
 0 <= z_9560 <= 1
 0 <= z_9561 <= 1
 0 <= z_9562 <= 1
 0 <= z_9563 <= 1
 0 <= z_9564 <= 1
 0 <= z_9565 <= 1
 0 <= z_9566 <= 1
 0 <= z_9567 <= 1
 0 <= z_9568 <= 1
 0 <= z_9569 <= 1
 0 <= z_9570 <= 1
 0 <= z_9571 <= 1
 0 <= z_9572 <= 1
 0 <= z_9573 <= 1
 0 <= z_9574 <= 1
 0 <= z_9575 <= 1
 0 <= z_9576 <= 1
 0 <= z_9577 <= 1
 0 <= z_9578 <= 1
 0 <= z_9579 <= 1
 0 <= z_9580 <= 1
 0 <= z_9581 <= 1
 0 <= z_9582 <= 1
 0 <= z_9583 <= 1
 0 <= z_9584 <= 1
 0 <= z_9585 <= 1
 0 <= z_9586 <= 1
 0 <= z_9587 <= 1
 0 <= z_9588 <= 1
 0 <= z_9589 <= 1
 0 <= z_9590 <= 1
 0 <= z_9591 <= 1
 0 <= z_9592 <= 1
 0 <= z_9593 <= 1
 0 <= z_9594 <= 1
 0 <= z_9595 <= 1
 0 <= z_9596 <= 1
 0 <= z_9597 <= 1
 0 <= z_9598 <= 1
 0 <= z_9599 <= 1
 0 <= z_9600 <= 1
 0 <= z_9601 <= 1
 0 <= z_9602 <= 1
 0 <= z_9603 <= 1
 0 <= z_9604 <= 1
 0 <= z_9605 <= 1
 0 <= z_9606 <= 1
 0 <= z_9607 <= 1
 0 <= z_9608 <= 1
 0 <= z_9609 <= 1
 0 <= z_9610 <= 1
 0 <= z_9611 <= 1
 0 <= z_9612 <= 1
 0 <= z_9613 <= 1
 0 <= z_9614 <= 1
 0 <= z_9615 <= 1
 0 <= z_9616 <= 1
 0 <= z_9617 <= 1
 0 <= z_9618 <= 1
 0 <= z_9619 <= 1
 0 <= z_9620 <= 1
 0 <= z_9621 <= 1
 0 <= z_9622 <= 1
 0 <= z_9623 <= 1
 0 <= z_9624 <= 1
 0 <= z_9625 <= 1
 0 <= z_9626 <= 1
 0 <= z_9627 <= 1
 0 <= z_9628 <= 1
 0 <= z_9629 <= 1
 0 <= z_9630 <= 1
 0 <= z_9631 <= 1
 0 <= z_9632 <= 1
 0 <= z_9633 <= 1
 0 <= z_9634 <= 1
 0 <= z_9635 <= 1
 0 <= z_9636 <= 1
 0 <= z_9637 <= 1
 0 <= z_9638 <= 1
 0 <= z_9639 <= 1
 0 <= z_9640 <= 1
 0 <= z_9641 <= 1
 0 <= z_9642 <= 1
 0 <= z_9643 <= 1
 0 <= z_9644 <= 1
 0 <= z_9645 <= 1
 0 <= z_9646 <= 1
 0 <= z_9647 <= 1
 0 <= z_9648 <= 1
 0 <= z_9649 <= 1
 0 <= z_9650 <= 1
 0 <= z_9651 <= 1
 0 <= z_9652 <= 1
 0 <= z_9653 <= 1
 0 <= z_9654 <= 1
 0 <= z_9655 <= 1
 0 <= z_9656 <= 1
 0 <= z_9657 <= 1
 0 <= z_9658 <= 1
 0 <= z_9659 <= 1
 0 <= z_9660 <= 1
 0 <= z_9661 <= 1
 0 <= z_9662 <= 1
 0 <= z_9663 <= 1
 0 <= z_9664 <= 1
 0 <= z_9665 <= 1
 0 <= z_9666 <= 1
 0 <= z_9667 <= 1
 0 <= z_9668 <= 1
 0 <= z_9669 <= 1
 0 <= z_9670 <= 1
 0 <= z_9671 <= 1
 0 <= z_9672 <= 1
 0 <= z_9673 <= 1
 0 <= z_9674 <= 1
 0 <= z_9675 <= 1
 0 <= z_9676 <= 1
 0 <= z_9677 <= 1
 0 <= z_9678 <= 1
 0 <= z_9679 <= 1
 0 <= z_9680 <= 1
 0 <= z_9681 <= 1
 0 <= z_9682 <= 1
 0 <= z_9683 <= 1
 0 <= z_9684 <= 1
 0 <= z_9685 <= 1
 0 <= z_9686 <= 1
 0 <= z_9687 <= 1
 0 <= z_9688 <= 1
 0 <= z_9689 <= 1
 0 <= z_9690 <= 1
 0 <= z_9691 <= 1
 0 <= z_9692 <= 1
 0 <= z_9693 <= 1
 0 <= z_9694 <= 1
 0 <= z_9695 <= 1
 0 <= z_9696 <= 1
 0 <= z_9697 <= 1
 0 <= z_9698 <= 1
 0 <= z_9699 <= 1
 0 <= z_9700 <= 1
 0 <= z_9701 <= 1
 0 <= z_9702 <= 1
 0 <= z_9703 <= 1
 0 <= z_9704 <= 1
 0 <= z_9705 <= 1
 0 <= z_9706 <= 1
 0 <= z_9707 <= 1
 0 <= z_9708 <= 1
 0 <= z_9709 <= 1
 0 <= z_9710 <= 1
 0 <= z_9711 <= 1
 0 <= z_9712 <= 1
 0 <= z_9713 <= 1
 0 <= z_9714 <= 1
 0 <= z_9715 <= 1
 0 <= z_9716 <= 1
 0 <= z_9717 <= 1
 0 <= z_9718 <= 1
 0 <= z_9719 <= 1
 0 <= z_9720 <= 1
 0 <= z_9721 <= 1
 0 <= z_9722 <= 1
 0 <= z_9723 <= 1
 0 <= z_9724 <= 1
 0 <= z_9725 <= 1
 0 <= z_9726 <= 1
 0 <= z_9727 <= 1
 0 <= z_9728 <= 1
 0 <= z_9729 <= 1
 0 <= z_9730 <= 1
 0 <= z_9731 <= 1
 0 <= z_9732 <= 1
 0 <= z_9733 <= 1
 0 <= z_9734 <= 1
 0 <= z_9735 <= 1
 0 <= z_9736 <= 1
 0 <= z_9737 <= 1
 0 <= z_9738 <= 1
 0 <= z_9739 <= 1
 0 <= z_9740 <= 1
 0 <= z_9741 <= 1
 0 <= z_9742 <= 1
 0 <= z_9743 <= 1
 0 <= z_9744 <= 1
 0 <= z_9745 <= 1
 0 <= z_9746 <= 1
 0 <= z_9747 <= 1
 0 <= z_9748 <= 1
 0 <= z_9749 <= 1
 0 <= z_9750 <= 1
 0 <= z_9751 <= 1
 0 <= z_9752 <= 1
 0 <= z_9753 <= 1
 0 <= z_9754 <= 1
 0 <= z_9755 <= 1
 0 <= z_9756 <= 1
 0 <= z_9757 <= 1
 0 <= z_9758 <= 1
 0 <= z_9759 <= 1
 0 <= z_9760 <= 1
 0 <= z_9761 <= 1
 0 <= z_9762 <= 1
 0 <= z_9763 <= 1
 0 <= z_9764 <= 1
 0 <= z_9765 <= 1
 0 <= z_9766 <= 1
 0 <= z_9767 <= 1
 0 <= z_9768 <= 1
 0 <= z_9769 <= 1
 0 <= z_9770 <= 1
 0 <= z_9771 <= 1
 0 <= z_9772 <= 1
 0 <= z_9773 <= 1
 0 <= z_9774 <= 1
 0 <= z_9775 <= 1
 0 <= z_9776 <= 1
 0 <= z_9777 <= 1
 0 <= z_9778 <= 1
 0 <= z_9779 <= 1
 0 <= z_9780 <= 1
 0 <= z_9781 <= 1
 0 <= z_9782 <= 1
 0 <= z_9783 <= 1
 0 <= z_9784 <= 1
 0 <= z_9785 <= 1
 0 <= z_9786 <= 1
 0 <= z_9787 <= 1
 0 <= z_9788 <= 1
 0 <= z_9789 <= 1
 0 <= z_9790 <= 1
 0 <= z_9791 <= 1
 0 <= z_9792 <= 1
 0 <= z_9793 <= 1
 0 <= z_9794 <= 1
 0 <= z_9795 <= 1
 0 <= z_9796 <= 1
 0 <= z_9797 <= 1
 0 <= z_9798 <= 1
 0 <= z_9799 <= 1
 0 <= z_9800 <= 1
 0 <= z_9801 <= 1
 0 <= z_9802 <= 1
 0 <= z_9803 <= 1
 0 <= z_9804 <= 1
 0 <= z_9805 <= 1
 0 <= z_9806 <= 1
 0 <= z_9807 <= 1
 0 <= z_9808 <= 1
 0 <= z_9809 <= 1
 0 <= z_9810 <= 1
 0 <= z_9811 <= 1
 0 <= z_9812 <= 1
 0 <= z_9813 <= 1
 0 <= z_9814 <= 1
 0 <= z_9815 <= 1
 0 <= z_9816 <= 1
 0 <= z_9817 <= 1
 0 <= z_9818 <= 1
 0 <= z_9819 <= 1
 0 <= z_9820 <= 1
 0 <= z_9821 <= 1
 0 <= z_9822 <= 1
 0 <= z_9823 <= 1
 0 <= z_9824 <= 1
 0 <= z_9825 <= 1
 0 <= z_9826 <= 1
 0 <= z_9827 <= 1
 0 <= z_9828 <= 1
 0 <= z_9829 <= 1
 0 <= z_9830 <= 1
 0 <= z_9831 <= 1
 0 <= z_9832 <= 1
 0 <= z_9833 <= 1
 0 <= z_9834 <= 1
 0 <= z_9835 <= 1
 0 <= z_9836 <= 1
 0 <= z_9837 <= 1
 0 <= z_9838 <= 1
 0 <= z_9839 <= 1
 0 <= z_9840 <= 1
 0 <= z_9841 <= 1
 0 <= z_9842 <= 1
 0 <= z_9843 <= 1
 0 <= z_9844 <= 1
 0 <= z_9845 <= 1
 0 <= z_9846 <= 1
 0 <= z_9847 <= 1
 0 <= z_9848 <= 1
 0 <= z_9849 <= 1
 0 <= z_9850 <= 1
 0 <= z_9851 <= 1
 0 <= z_9852 <= 1
 0 <= z_9853 <= 1
 0 <= z_9854 <= 1
 0 <= z_9855 <= 1
 0 <= z_9856 <= 1
 0 <= z_9857 <= 1
 0 <= z_9858 <= 1
 0 <= z_9859 <= 1
 0 <= z_9860 <= 1
 0 <= z_9861 <= 1
 0 <= z_9862 <= 1
 0 <= z_9863 <= 1
 0 <= z_9864 <= 1
 0 <= z_9865 <= 1
 0 <= z_9866 <= 1
 0 <= z_9867 <= 1
 0 <= z_9868 <= 1
 0 <= z_9869 <= 1
 0 <= z_9870 <= 1
 0 <= z_9871 <= 1
 0 <= z_9872 <= 1
 0 <= z_9873 <= 1
 0 <= z_9874 <= 1
 0 <= z_9875 <= 1
 0 <= z_9876 <= 1
 0 <= z_9877 <= 1
 0 <= z_9878 <= 1
 0 <= z_9879 <= 1
 0 <= z_9880 <= 1
 0 <= z_9881 <= 1
 0 <= z_9882 <= 1
 0 <= z_9883 <= 1
 0 <= z_9884 <= 1
 0 <= z_9885 <= 1
 0 <= z_9886 <= 1
 0 <= z_9887 <= 1
 0 <= z_9888 <= 1
 0 <= z_9889 <= 1
 0 <= z_9890 <= 1
 0 <= z_9891 <= 1
 0 <= z_9892 <= 1
 0 <= z_9893 <= 1
 0 <= z_9894 <= 1
 0 <= z_9895 <= 1
 0 <= z_9896 <= 1
 0 <= z_9897 <= 1
 0 <= z_9898 <= 1
 0 <= z_9899 <= 1
 0 <= z_9900 <= 1
 0 <= z_9901 <= 1
 0 <= z_9902 <= 1
 0 <= z_9903 <= 1
 0 <= z_9904 <= 1
 0 <= z_9905 <= 1
 0 <= z_9906 <= 1
 0 <= z_9907 <= 1
 0 <= z_9908 <= 1
 0 <= z_9909 <= 1
 0 <= z_9910 <= 1
 0 <= z_9911 <= 1
 0 <= z_9912 <= 1
 0 <= z_9913 <= 1
 0 <= z_9914 <= 1
 0 <= z_9915 <= 1
 0 <= z_9916 <= 1
 0 <= z_9917 <= 1
 0 <= z_9918 <= 1
 0 <= z_9919 <= 1
 0 <= z_9920 <= 1
 0 <= z_9921 <= 1
 0 <= z_9922 <= 1
 0 <= z_9923 <= 1
 0 <= z_9924 <= 1
 0 <= z_9925 <= 1
 0 <= z_9926 <= 1
 0 <= z_9927 <= 1
 0 <= z_9928 <= 1
 0 <= z_9929 <= 1
 0 <= z_9930 <= 1
 0 <= z_9931 <= 1
 0 <= z_9932 <= 1
 0 <= z_9933 <= 1
 0 <= z_9934 <= 1
 0 <= z_9935 <= 1
 0 <= z_9936 <= 1
 0 <= z_9937 <= 1
 0 <= z_9938 <= 1
 0 <= z_9939 <= 1
 0 <= z_9940 <= 1
 0 <= z_9941 <= 1
 0 <= z_9942 <= 1
 0 <= z_9943 <= 1
 0 <= z_9944 <= 1
 0 <= z_9945 <= 1
 0 <= z_9946 <= 1
 0 <= z_9947 <= 1
 0 <= z_9948 <= 1
 0 <= z_9949 <= 1
 0 <= z_9950 <= 1
 0 <= z_9951 <= 1
 0 <= z_9952 <= 1
 0 <= z_9953 <= 1
 0 <= z_9954 <= 1
 0 <= z_9955 <= 1
 0 <= z_9956 <= 1
 0 <= z_9957 <= 1
 0 <= z_9958 <= 1
 0 <= z_9959 <= 1
 0 <= z_9960 <= 1
 0 <= z_9961 <= 1
 0 <= z_9962 <= 1
 0 <= z_9963 <= 1
 0 <= z_9964 <= 1
 0 <= z_9965 <= 1
 0 <= z_9966 <= 1
 0 <= z_9967 <= 1
 0 <= z_9968 <= 1
 0 <= z_9969 <= 1
 0 <= z_9970 <= 1
 0 <= z_9971 <= 1
 0 <= z_9972 <= 1
 0 <= z_9973 <= 1
 0 <= z_9974 <= 1
 0 <= z_9975 <= 1
 0 <= z_9976 <= 1
 0 <= z_9977 <= 1
 0 <= z_9978 <= 1
 0 <= z_9979 <= 1
 0 <= z_9980 <= 1
 0 <= z_9981 <= 1
 0 <= z_9982 <= 1
 0 <= z_9983 <= 1
 0 <= z_9984 <= 1
 0 <= z_9985 <= 1
 0 <= z_9986 <= 1
 0 <= z_9987 <= 1
 0 <= z_9988 <= 1
 0 <= z_9989 <= 1
 0 <= z_9990 <= 1
 0 <= z_9991 <= 1
 0 <= z_9992 <= 1
 0 <= z_9993 <= 1
 0 <= z_9994 <= 1
 0 <= z_9995 <= 1
 0 <= z_9996 <= 1
 0 <= z_9997 <= 1
 0 <= z_9998 <= 1
 0 <= z_9999 <= 1

Binaries
 y_0 y_1 y_2 y_3 y_4 y_5 y_6 y_7 y_8 y_9 y_10 y_11 y_12 y_13 y_14 y_15 y_16 y_17
 y_18 y_19 y_20 y_21 y_22 y_23 y_24 y_25 y_26 y_27 y_28 y_29 y_30 y_31 y_32 y_33
 y_34 y_35 y_36 y_37 y_38 y_39 y_40 y_41 y_42 y_43 y_44 y_45 y_46 y_47 y_48 y_49
 y_50 y_51 y_52 y_53 y_54 y_55 y_56 y_57 y_58 y_59 y_60 y_61 y_62 y_63 y_64 y_65
 y_66 y_67 y_68 y_69 y_70 y_71 y_72 y_73 y_74 y_75 y_76 y_77 y_78 y_79 y_80 y_81
 y_82 y_83 y_84 y_85 y_86 y_87 y_88 y_89 y_90 y_91 y_92 y_93 y_94 y_95 y_96 y_97
 y_98 y_99 z_0 z_1 z_2 z_3 z_4 z_5 z_6 z_7 z_8 z_9 z_10 z_11 z_12 z_13 z_14 z_15
 z_16 z_17 z_18 z_19 z_20 z_21 z_22 z_23 z_24 z_25 z_26 z_27 z_28 z_29 z_30 z_31
 z_32 z_33 z_34 z_35 z_36 z_37 z_38 z_39 z_40 z_41 z_42 z_43 z_44 z_45 z_46 z_47
 z_48 z_49 z_50 z_51 z_52 z_53 z_54 z_55 z_56 z_57 z_58 z_59 z_60 z_61 z_62 z_63
 z_64 z_65 z_66 z_67 z_68 z_69 z_70 z_71 z_72 z_73 z_74 z_75 z_76 z_77 z_78 z_79
 z_80 z_81 z_82 z_83 z_84 z_85 z_86 z_87 z_88 z_89 z_90 z_91 z_92 z_93 z_94 z_95
 z_96 z_97 z_98 z_99 z_100 z_101 z_102 z_103 z_104 z_105 z_106 z_107 z_108 z_109
 z_110 z_111 z_112 z_113 z_114 z_115 z_116 z_117 z_118 z_119 z_120 z_121 z_122
 z_123 z_124 z_125 z_126 z_127 z_128 z_129 z_130 z_131 z_132 z_133 z_134 z_135
 z_136 z_137 z_138 z_139 z_140 z_141 z_142 z_143 z_144 z_145 z_146 z_147 z_148
 z_149 z_150 z_151 z_152 z_153 z_154 z_155 z_156 z_157 z_158 z_159 z_160 z_161
 z_162 z_163 z_164 z_165 z_166 z_167 z_168 z_169 z_170 z_171 z_172 z_173 z_174
 z_175 z_176 z_177 z_178 z_179 z_180 z_181 z_182 z_183 z_184 z_185 z_186 z_187
 z_188 z_189 z_190 z_191 z_192 z_193 z_194 z_195 z_196 z_197 z_198 z_199 z_200
 z_201 z_202 z_203 z_204 z_205 z_206 z_207 z_208 z_209 z_210 z_211 z_212 z_213
 z_214 z_215 z_216 z_217 z_218 z_219 z_220 z_221 z_222 z_223 z_224 z_225 z_226
 z_227 z_228 z_229 z_230 z_231 z_232 z_233 z_234 z_235 z_236 z_237 z_238 z_239
 z_240 z_241 z_242 z_243 z_244 z_245 z_246 z_247 z_248 z_249 z_250 z_251 z_252
 z_253 z_254 z_255 z_256 z_257 z_258 z_259 z_260 z_261 z_262 z_263 z_264 z_265
 z_266 z_267 z_268 z_269 z_270 z_271 z_272 z_273 z_274 z_275 z_276 z_277 z_278
 z_279 z_280 z_281 z_282 z_283 z_284 z_285 z_286 z_287 z_288 z_289 z_290 z_291
 z_292 z_293 z_294 z_295 z_296 z_297 z_298 z_299 z_300 z_301 z_302 z_303 z_304
 z_305 z_306 z_307 z_308 z_309 z_310 z_311 z_312 z_313 z_314 z_315 z_316 z_317
 z_318 z_319 z_320 z_321 z_322 z_323 z_324 z_325 z_326 z_327 z_328 z_329 z_330
 z_331 z_332 z_333 z_334 z_335 z_336 z_337 z_338 z_339 z_340 z_341 z_342 z_343
 z_344 z_345 z_346 z_347 z_348 z_349 z_350 z_351 z_352 z_353 z_354 z_355 z_356
 z_357 z_358 z_359 z_360 z_361 z_362 z_363 z_364 z_365 z_366 z_367 z_368 z_369
 z_370 z_371 z_372 z_373 z_374 z_375 z_376 z_377 z_378 z_379 z_380 z_381 z_382
 z_383 z_384 z_385 z_386 z_387 z_388 z_389 z_390 z_391 z_392 z_393 z_394 z_395
 z_396 z_397 z_398 z_399 z_400 z_401 z_402 z_403 z_404 z_405 z_406 z_407 z_408
 z_409 z_410 z_411 z_412 z_413 z_414 z_415 z_416 z_417 z_418 z_419 z_420 z_421
 z_422 z_423 z_424 z_425 z_426 z_427 z_428 z_429 z_430 z_431 z_432 z_433 z_434
 z_435 z_436 z_437 z_438 z_439 z_440 z_441 z_442 z_443 z_444 z_445 z_446 z_447
 z_448 z_449 z_450 z_451 z_452 z_453 z_454 z_455 z_456 z_457 z_458 z_459 z_460
 z_461 z_462 z_463 z_464 z_465 z_466 z_467 z_468 z_469 z_470 z_471 z_472 z_473
 z_474 z_475 z_476 z_477 z_478 z_479 z_480 z_481 z_482 z_483 z_484 z_485 z_486
 z_487 z_488 z_489 z_490 z_491 z_492 z_493 z_494 z_495 z_496 z_497 z_498 z_499
 z_500 z_501 z_502 z_503 z_504 z_505 z_506 z_507 z_508 z_509 z_510 z_511 z_512
 z_513 z_514 z_515 z_516 z_517 z_518 z_519 z_520 z_521 z_522 z_523 z_524 z_525
 z_526 z_527 z_528 z_529 z_530 z_531 z_532 z_533 z_534 z_535 z_536 z_537 z_538
 z_539 z_540 z_541 z_542 z_543 z_544 z_545 z_546 z_547 z_548 z_549 z_550 z_551
 z_552 z_553 z_554 z_555 z_556 z_557 z_558 z_559 z_560 z_561 z_562 z_563 z_564
 z_565 z_566 z_567 z_568 z_569 z_570 z_571 z_572 z_573 z_574 z_575 z_576 z_577
 z_578 z_579 z_580 z_581 z_582 z_583 z_584 z_585 z_586 z_587 z_588 z_589 z_590
 z_591 z_592 z_593 z_594 z_595 z_596 z_597 z_598 z_599 z_600 z_601 z_602 z_603
 z_604 z_605 z_606 z_607 z_608 z_609 z_610 z_611 z_612 z_613 z_614 z_615 z_616
 z_617 z_618 z_619 z_620 z_621 z_622 z_623 z_624 z_625 z_626 z_627 z_628 z_629
 z_630 z_631 z_632 z_633 z_634 z_635 z_636 z_637 z_638 z_639 z_640 z_641 z_642
 z_643 z_644 z_645 z_646 z_647 z_648 z_649 z_650 z_651 z_652 z_653 z_654 z_655
 z_656 z_657 z_658 z_659 z_660 z_661 z_662 z_663 z_664 z_665 z_666 z_667 z_668
 z_669 z_670 z_671 z_672 z_673 z_674 z_675 z_676 z_677 z_678 z_679 z_680 z_681
 z_682 z_683 z_684 z_685 z_686 z_687 z_688 z_689 z_690 z_691 z_692 z_693 z_694
 z_695 z_696 z_697 z_698 z_699 z_700 z_701 z_702 z_703 z_704 z_705 z_706 z_707
 z_708 z_709 z_710 z_711 z_712 z_713 z_714 z_715 z_716 z_717 z_718 z_719 z_720
 z_721 z_722 z_723 z_724 z_725 z_726 z_727 z_728 z_729 z_730 z_731 z_732 z_733
 z_734 z_735 z_736 z_737 z_738 z_739 z_740 z_741 z_742 z_743 z_744 z_745 z_746
 z_747 z_748 z_749 z_750 z_751 z_752 z_753 z_754 z_755 z_756 z_757 z_758 z_759
 z_760 z_761 z_762 z_763 z_764 z_765 z_766 z_767 z_768 z_769 z_770 z_771 z_772
 z_773 z_774 z_775 z_776 z_777 z_778 z_779 z_780 z_781 z_782 z_783 z_784 z_785
 z_786 z_787 z_788 z_789 z_790 z_791 z_792 z_793 z_794 z_795 z_796 z_797 z_798
 z_799 z_800 z_801 z_802 z_803 z_804 z_805 z_806 z_807 z_808 z_809 z_810 z_811
 z_812 z_813 z_814 z_815 z_816 z_817 z_818 z_819 z_820 z_821 z_822 z_823 z_824
 z_825 z_826 z_827 z_828 z_829 z_830 z_831 z_832 z_833 z_834 z_835 z_836 z_837
 z_838 z_839 z_840 z_841 z_842 z_843 z_844 z_845 z_846 z_847 z_848 z_849 z_850
 z_851 z_852 z_853 z_854 z_855 z_856 z_857 z_858 z_859 z_860 z_861 z_862 z_863
 z_864 z_865 z_866 z_867 z_868 z_869 z_870 z_871 z_872 z_873 z_874 z_875 z_876
 z_877 z_878 z_879 z_880 z_881 z_882 z_883 z_884 z_885 z_886 z_887 z_888 z_889
 z_890 z_891 z_892 z_893 z_894 z_895 z_896 z_897 z_898 z_899 z_900 z_901 z_902
 z_903 z_904 z_905 z_906 z_907 z_908 z_909 z_910 z_911 z_912 z_913 z_914 z_915
 z_916 z_917 z_918 z_919 z_920 z_921 z_922 z_923 z_924 z_925 z_926 z_927 z_928
 z_929 z_930 z_931 z_932 z_933 z_934 z_935 z_936 z_937 z_938 z_939 z_940 z_941
 z_942 z_943 z_944 z_945 z_946 z_947 z_948 z_949 z_950 z_951 z_952 z_953 z_954
 z_955 z_956 z_957 z_958 z_959 z_960 z_961 z_962 z_963 z_964 z_965 z_966 z_967
 z_968 z_969 z_970 z_971 z_972 z_973 z_974 z_975 z_976 z_977 z_978 z_979 z_980
 z_981 z_982 z_983 z_984 z_985 z_986 z_987 z_988 z_989 z_990 z_991 z_992 z_993
 z_994 z_995 z_996 z_997 z_998 z_999 z_1000 z_1001 z_1002 z_1003 z_1004 z_1005
 z_1006 z_1007 z_1008 z_1009 z_1010 z_1011 z_1012 z_1013 z_1014 z_1015 z_1016
 z_1017 z_1018 z_1019 z_1020 z_1021 z_1022 z_1023 z_1024 z_1025 z_1026 z_1027
 z_1028 z_1029 z_1030 z_1031 z_1032 z_1033 z_1034 z_1035 z_1036 z_1037 z_1038
 z_1039 z_1040 z_1041 z_1042 z_1043 z_1044 z_1045 z_1046 z_1047 z_1048 z_1049
 z_1050 z_1051 z_1052 z_1053 z_1054 z_1055 z_1056 z_1057 z_1058 z_1059 z_1060
 z_1061 z_1062 z_1063 z_1064 z_1065 z_1066 z_1067 z_1068 z_1069 z_1070 z_1071
 z_1072 z_1073 z_1074 z_1075 z_1076 z_1077 z_1078 z_1079 z_1080 z_1081 z_1082
 z_1083 z_1084 z_1085 z_1086 z_1087 z_1088 z_1089 z_1090 z_1091 z_1092 z_1093
 z_1094 z_1095 z_1096 z_1097 z_1098 z_1099 z_1100 z_1101 z_1102 z_1103 z_1104
 z_1105 z_1106 z_1107 z_1108 z_1109 z_1110 z_1111 z_1112 z_1113 z_1114 z_1115
 z_1116 z_1117 z_1118 z_1119 z_1120 z_1121 z_1122 z_1123 z_1124 z_1125 z_1126
 z_1127 z_1128 z_1129 z_1130 z_1131 z_1132 z_1133 z_1134 z_1135 z_1136 z_1137
 z_1138 z_1139 z_1140 z_1141 z_1142 z_1143 z_1144 z_1145 z_1146 z_1147 z_1148
 z_1149 z_1150 z_1151 z_1152 z_1153 z_1154 z_1155 z_1156 z_1157 z_1158 z_1159
 z_1160 z_1161 z_1162 z_1163 z_1164 z_1165 z_1166 z_1167 z_1168 z_1169 z_1170
 z_1171 z_1172 z_1173 z_1174 z_1175 z_1176 z_1177 z_1178 z_1179 z_1180 z_1181
 z_1182 z_1183 z_1184 z_1185 z_1186 z_1187 z_1188 z_1189 z_1190 z_1191 z_1192
 z_1193 z_1194 z_1195 z_1196 z_1197 z_1198 z_1199 z_1200 z_1201 z_1202 z_1203
 z_1204 z_1205 z_1206 z_1207 z_1208 z_1209 z_1210 z_1211 z_1212 z_1213 z_1214
 z_1215 z_1216 z_1217 z_1218 z_1219 z_1220 z_1221 z_1222 z_1223 z_1224 z_1225
 z_1226 z_1227 z_1228 z_1229 z_1230 z_1231 z_1232 z_1233 z_1234 z_1235 z_1236
 z_1237 z_1238 z_1239 z_1240 z_1241 z_1242 z_1243 z_1244 z_1245 z_1246 z_1247
 z_1248 z_1249 z_1250 z_1251 z_1252 z_1253 z_1254 z_1255 z_1256 z_1257 z_1258
 z_1259 z_1260 z_1261 z_1262 z_1263 z_1264 z_1265 z_1266 z_1267 z_1268 z_1269
 z_1270 z_1271 z_1272 z_1273 z_1274 z_1275 z_1276 z_1277 z_1278 z_1279 z_1280
 z_1281 z_1282 z_1283 z_1284 z_1285 z_1286 z_1287 z_1288 z_1289 z_1290 z_1291
 z_1292 z_1293 z_1294 z_1295 z_1296 z_1297 z_1298 z_1299 z_1300 z_1301 z_1302
 z_1303 z_1304 z_1305 z_1306 z_1307 z_1308 z_1309 z_1310 z_1311 z_1312 z_1313
 z_1314 z_1315 z_1316 z_1317 z_1318 z_1319 z_1320 z_1321 z_1322 z_1323 z_1324
 z_1325 z_1326 z_1327 z_1328 z_1329 z_1330 z_1331 z_1332 z_1333 z_1334 z_1335
 z_1336 z_1337 z_1338 z_1339 z_1340 z_1341 z_1342 z_1343 z_1344 z_1345 z_1346
 z_1347 z_1348 z_1349 z_1350 z_1351 z_1352 z_1353 z_1354 z_1355 z_1356 z_1357
 z_1358 z_1359 z_1360 z_1361 z_1362 z_1363 z_1364 z_1365 z_1366 z_1367 z_1368
 z_1369 z_1370 z_1371 z_1372 z_1373 z_1374 z_1375 z_1376 z_1377 z_1378 z_1379
 z_1380 z_1381 z_1382 z_1383 z_1384 z_1385 z_1386 z_1387 z_1388 z_1389 z_1390
 z_1391 z_1392 z_1393 z_1394 z_1395 z_1396 z_1397 z_1398 z_1399 z_1400 z_1401
 z_1402 z_1403 z_1404 z_1405 z_1406 z_1407 z_1408 z_1409 z_1410 z_1411 z_1412
 z_1413 z_1414 z_1415 z_1416 z_1417 z_1418 z_1419 z_1420 z_1421 z_1422 z_1423
 z_1424 z_1425 z_1426 z_1427 z_1428 z_1429 z_1430 z_1431 z_1432 z_1433 z_1434
 z_1435 z_1436 z_1437 z_1438 z_1439 z_1440 z_1441 z_1442 z_1443 z_1444 z_1445
 z_1446 z_1447 z_1448 z_1449 z_1450 z_1451 z_1452 z_1453 z_1454 z_1455 z_1456
 z_1457 z_1458 z_1459 z_1460 z_1461 z_1462 z_1463 z_1464 z_1465 z_1466 z_1467
 z_1468 z_1469 z_1470 z_1471 z_1472 z_1473 z_1474 z_1475 z_1476 z_1477 z_1478
 z_1479 z_1480 z_1481 z_1482 z_1483 z_1484 z_1485 z_1486 z_1487 z_1488 z_1489
 z_1490 z_1491 z_1492 z_1493 z_1494 z_1495 z_1496 z_1497 z_1498 z_1499 z_1500
 z_1501 z_1502 z_1503 z_1504 z_1505 z_1506 z_1507 z_1508 z_1509 z_1510 z_1511
 z_1512 z_1513 z_1514 z_1515 z_1516 z_1517 z_1518 z_1519 z_1520 z_1521 z_1522
 z_1523 z_1524 z_1525 z_1526 z_1527 z_1528 z_1529 z_1530 z_1531 z_1532 z_1533
 z_1534 z_1535 z_1536 z_1537 z_1538 z_1539 z_1540 z_1541 z_1542 z_1543 z_1544
 z_1545 z_1546 z_1547 z_1548 z_1549 z_1550 z_1551 z_1552 z_1553 z_1554 z_1555
 z_1556 z_1557 z_1558 z_1559 z_1560 z_1561 z_1562 z_1563 z_1564 z_1565 z_1566
 z_1567 z_1568 z_1569 z_1570 z_1571 z_1572 z_1573 z_1574 z_1575 z_1576 z_1577
 z_1578 z_1579 z_1580 z_1581 z_1582 z_1583 z_1584 z_1585 z_1586 z_1587 z_1588
 z_1589 z_1590 z_1591 z_1592 z_1593 z_1594 z_1595 z_1596 z_1597 z_1598 z_1599
 z_1600 z_1601 z_1602 z_1603 z_1604 z_1605 z_1606 z_1607 z_1608 z_1609 z_1610
 z_1611 z_1612 z_1613 z_1614 z_1615 z_1616 z_1617 z_1618 z_1619 z_1620 z_1621
 z_1622 z_1623 z_1624 z_1625 z_1626 z_1627 z_1628 z_1629 z_1630 z_1631 z_1632
 z_1633 z_1634 z_1635 z_1636 z_1637 z_1638 z_1639 z_1640 z_1641 z_1642 z_1643
 z_1644 z_1645 z_1646 z_1647 z_1648 z_1649 z_1650 z_1651 z_1652 z_1653 z_1654
 z_1655 z_1656 z_1657 z_1658 z_1659 z_1660 z_1661 z_1662 z_1663 z_1664 z_1665
 z_1666 z_1667 z_1668 z_1669 z_1670 z_1671 z_1672 z_1673 z_1674 z_1675 z_1676
 z_1677 z_1678 z_1679 z_1680 z_1681 z_1682 z_1683 z_1684 z_1685 z_1686 z_1687
 z_1688 z_1689 z_1690 z_1691 z_1692 z_1693 z_1694 z_1695 z_1696 z_1697 z_1698
 z_1699 z_1700 z_1701 z_1702 z_1703 z_1704 z_1705 z_1706 z_1707 z_1708 z_1709
 z_1710 z_1711 z_1712 z_1713 z_1714 z_1715 z_1716 z_1717 z_1718 z_1719 z_1720
 z_1721 z_1722 z_1723 z_1724 z_1725 z_1726 z_1727 z_1728 z_1729 z_1730 z_1731
 z_1732 z_1733 z_1734 z_1735 z_1736 z_1737 z_1738 z_1739 z_1740 z_1741 z_1742
 z_1743 z_1744 z_1745 z_1746 z_1747 z_1748 z_1749 z_1750 z_1751 z_1752 z_1753
 z_1754 z_1755 z_1756 z_1757 z_1758 z_1759 z_1760 z_1761 z_1762 z_1763 z_1764
 z_1765 z_1766 z_1767 z_1768 z_1769 z_1770 z_1771 z_1772 z_1773 z_1774 z_1775
 z_1776 z_1777 z_1778 z_1779 z_1780 z_1781 z_1782 z_1783 z_1784 z_1785 z_1786
 z_1787 z_1788 z_1789 z_1790 z_1791 z_1792 z_1793 z_1794 z_1795 z_1796 z_1797
 z_1798 z_1799 z_1800 z_1801 z_1802 z_1803 z_1804 z_1805 z_1806 z_1807 z_1808
 z_1809 z_1810 z_1811 z_1812 z_1813 z_1814 z_1815 z_1816 z_1817 z_1818 z_1819
 z_1820 z_1821 z_1822 z_1823 z_1824 z_1825 z_1826 z_1827 z_1828 z_1829 z_1830
 z_1831 z_1832 z_1833 z_1834 z_1835 z_1836 z_1837 z_1838 z_1839 z_1840 z_1841
 z_1842 z_1843 z_1844 z_1845 z_1846 z_1847 z_1848 z_1849 z_1850 z_1851 z_1852
 z_1853 z_1854 z_1855 z_1856 z_1857 z_1858 z_1859 z_1860 z_1861 z_1862 z_1863
 z_1864 z_1865 z_1866 z_1867 z_1868 z_1869 z_1870 z_1871 z_1872 z_1873 z_1874
 z_1875 z_1876 z_1877 z_1878 z_1879 z_1880 z_1881 z_1882 z_1883 z_1884 z_1885
 z_1886 z_1887 z_1888 z_1889 z_1890 z_1891 z_1892 z_1893 z_1894 z_1895 z_1896
 z_1897 z_1898 z_1899 z_1900 z_1901 z_1902 z_1903 z_1904 z_1905 z_1906 z_1907
 z_1908 z_1909 z_1910 z_1911 z_1912 z_1913 z_1914 z_1915 z_1916 z_1917 z_1918
 z_1919 z_1920 z_1921 z_1922 z_1923 z_1924 z_1925 z_1926 z_1927 z_1928 z_1929
 z_1930 z_1931 z_1932 z_1933 z_1934 z_1935 z_1936 z_1937 z_1938 z_1939 z_1940
 z_1941 z_1942 z_1943 z_1944 z_1945 z_1946 z_1947 z_1948 z_1949 z_1950 z_1951
 z_1952 z_1953 z_1954 z_1955 z_1956 z_1957 z_1958 z_1959 z_1960 z_1961 z_1962
 z_1963 z_1964 z_1965 z_1966 z_1967 z_1968 z_1969 z_1970 z_1971 z_1972 z_1973
 z_1974 z_1975 z_1976 z_1977 z_1978 z_1979 z_1980 z_1981 z_1982 z_1983 z_1984
 z_1985 z_1986 z_1987 z_1988 z_1989 z_1990 z_1991 z_1992 z_1993 z_1994 z_1995
 z_1996 z_1997 z_1998 z_1999 z_2000 z_2001 z_2002 z_2003 z_2004 z_2005 z_2006
 z_2007 z_2008 z_2009 z_2010 z_2011 z_2012 z_2013 z_2014 z_2015 z_2016 z_2017
 z_2018 z_2019 z_2020 z_2021 z_2022 z_2023 z_2024 z_2025 z_2026 z_2027 z_2028
 z_2029 z_2030 z_2031 z_2032 z_2033 z_2034 z_2035 z_2036 z_2037 z_2038 z_2039
 z_2040 z_2041 z_2042 z_2043 z_2044 z_2045 z_2046 z_2047 z_2048 z_2049 z_2050
 z_2051 z_2052 z_2053 z_2054 z_2055 z_2056 z_2057 z_2058 z_2059 z_2060 z_2061
 z_2062 z_2063 z_2064 z_2065 z_2066 z_2067 z_2068 z_2069 z_2070 z_2071 z_2072
 z_2073 z_2074 z_2075 z_2076 z_2077 z_2078 z_2079 z_2080 z_2081 z_2082 z_2083
 z_2084 z_2085 z_2086 z_2087 z_2088 z_2089 z_2090 z_2091 z_2092 z_2093 z_2094
 z_2095 z_2096 z_2097 z_2098 z_2099 z_2100 z_2101 z_2102 z_2103 z_2104 z_2105
 z_2106 z_2107 z_2108 z_2109 z_2110 z_2111 z_2112 z_2113 z_2114 z_2115 z_2116
 z_2117 z_2118 z_2119 z_2120 z_2121 z_2122 z_2123 z_2124 z_2125 z_2126 z_2127
 z_2128 z_2129 z_2130 z_2131 z_2132 z_2133 z_2134 z_2135 z_2136 z_2137 z_2138
 z_2139 z_2140 z_2141 z_2142 z_2143 z_2144 z_2145 z_2146 z_2147 z_2148 z_2149
 z_2150 z_2151 z_2152 z_2153 z_2154 z_2155 z_2156 z_2157 z_2158 z_2159 z_2160
 z_2161 z_2162 z_2163 z_2164 z_2165 z_2166 z_2167 z_2168 z_2169 z_2170 z_2171
 z_2172 z_2173 z_2174 z_2175 z_2176 z_2177 z_2178 z_2179 z_2180 z_2181 z_2182
 z_2183 z_2184 z_2185 z_2186 z_2187 z_2188 z_2189 z_2190 z_2191 z_2192 z_2193
 z_2194 z_2195 z_2196 z_2197 z_2198 z_2199 z_2200 z_2201 z_2202 z_2203 z_2204
 z_2205 z_2206 z_2207 z_2208 z_2209 z_2210 z_2211 z_2212 z_2213 z_2214 z_2215
 z_2216 z_2217 z_2218 z_2219 z_2220 z_2221 z_2222 z_2223 z_2224 z_2225 z_2226
 z_2227 z_2228 z_2229 z_2230 z_2231 z_2232 z_2233 z_2234 z_2235 z_2236 z_2237
 z_2238 z_2239 z_2240 z_2241 z_2242 z_2243 z_2244 z_2245 z_2246 z_2247 z_2248
 z_2249 z_2250 z_2251 z_2252 z_2253 z_2254 z_2255 z_2256 z_2257 z_2258 z_2259
 z_2260 z_2261 z_2262 z_2263 z_2264 z_2265 z_2266 z_2267 z_2268 z_2269 z_2270
 z_2271 z_2272 z_2273 z_2274 z_2275 z_2276 z_2277 z_2278 z_2279 z_2280 z_2281
 z_2282 z_2283 z_2284 z_2285 z_2286 z_2287 z_2288 z_2289 z_2290 z_2291 z_2292
 z_2293 z_2294 z_2295 z_2296 z_2297 z_2298 z_2299 z_2300 z_2301 z_2302 z_2303
 z_2304 z_2305 z_2306 z_2307 z_2308 z_2309 z_2310 z_2311 z_2312 z_2313 z_2314
 z_2315 z_2316 z_2317 z_2318 z_2319 z_2320 z_2321 z_2322 z_2323 z_2324 z_2325
 z_2326 z_2327 z_2328 z_2329 z_2330 z_2331 z_2332 z_2333 z_2334 z_2335 z_2336
 z_2337 z_2338 z_2339 z_2340 z_2341 z_2342 z_2343 z_2344 z_2345 z_2346 z_2347
 z_2348 z_2349 z_2350 z_2351 z_2352 z_2353 z_2354 z_2355 z_2356 z_2357 z_2358
 z_2359 z_2360 z_2361 z_2362 z_2363 z_2364 z_2365 z_2366 z_2367 z_2368 z_2369
 z_2370 z_2371 z_2372 z_2373 z_2374 z_2375 z_2376 z_2377 z_2378 z_2379 z_2380
 z_2381 z_2382 z_2383 z_2384 z_2385 z_2386 z_2387 z_2388 z_2389 z_2390 z_2391
 z_2392 z_2393 z_2394 z_2395 z_2396 z_2397 z_2398 z_2399 z_2400 z_2401 z_2402
 z_2403 z_2404 z_2405 z_2406 z_2407 z_2408 z_2409 z_2410 z_2411 z_2412 z_2413
 z_2414 z_2415 z_2416 z_2417 z_2418 z_2419 z_2420 z_2421 z_2422 z_2423 z_2424
 z_2425 z_2426 z_2427 z_2428 z_2429 z_2430 z_2431 z_2432 z_2433 z_2434 z_2435
 z_2436 z_2437 z_2438 z_2439 z_2440 z_2441 z_2442 z_2443 z_2444 z_2445 z_2446
 z_2447 z_2448 z_2449 z_2450 z_2451 z_2452 z_2453 z_2454 z_2455 z_2456 z_2457
 z_2458 z_2459 z_2460 z_2461 z_2462 z_2463 z_2464 z_2465 z_2466 z_2467 z_2468
 z_2469 z_2470 z_2471 z_2472 z_2473 z_2474 z_2475 z_2476 z_2477 z_2478 z_2479
 z_2480 z_2481 z_2482 z_2483 z_2484 z_2485 z_2486 z_2487 z_2488 z_2489 z_2490
 z_2491 z_2492 z_2493 z_2494 z_2495 z_2496 z_2497 z_2498 z_2499 z_2500 z_2501
 z_2502 z_2503 z_2504 z_2505 z_2506 z_2507 z_2508 z_2509 z_2510 z_2511 z_2512
 z_2513 z_2514 z_2515 z_2516 z_2517 z_2518 z_2519 z_2520 z_2521 z_2522 z_2523
 z_2524 z_2525 z_2526 z_2527 z_2528 z_2529 z_2530 z_2531 z_2532 z_2533 z_2534
 z_2535 z_2536 z_2537 z_2538 z_2539 z_2540 z_2541 z_2542 z_2543 z_2544 z_2545
 z_2546 z_2547 z_2548 z_2549 z_2550 z_2551 z_2552 z_2553 z_2554 z_2555 z_2556
 z_2557 z_2558 z_2559 z_2560 z_2561 z_2562 z_2563 z_2564 z_2565 z_2566 z_2567
 z_2568 z_2569 z_2570 z_2571 z_2572 z_2573 z_2574 z_2575 z_2576 z_2577 z_2578
 z_2579 z_2580 z_2581 z_2582 z_2583 z_2584 z_2585 z_2586 z_2587 z_2588 z_2589
 z_2590 z_2591 z_2592 z_2593 z_2594 z_2595 z_2596 z_2597 z_2598 z_2599 z_2600
 z_2601 z_2602 z_2603 z_2604 z_2605 z_2606 z_2607 z_2608 z_2609 z_2610 z_2611
 z_2612 z_2613 z_2614 z_2615 z_2616 z_2617 z_2618 z_2619 z_2620 z_2621 z_2622
 z_2623 z_2624 z_2625 z_2626 z_2627 z_2628 z_2629 z_2630 z_2631 z_2632 z_2633
 z_2634 z_2635 z_2636 z_2637 z_2638 z_2639 z_2640 z_2641 z_2642 z_2643 z_2644
 z_2645 z_2646 z_2647 z_2648 z_2649 z_2650 z_2651 z_2652 z_2653 z_2654 z_2655
 z_2656 z_2657 z_2658 z_2659 z_2660 z_2661 z_2662 z_2663 z_2664 z_2665 z_2666
 z_2667 z_2668 z_2669 z_2670 z_2671 z_2672 z_2673 z_2674 z_2675 z_2676 z_2677
 z_2678 z_2679 z_2680 z_2681 z_2682 z_2683 z_2684 z_2685 z_2686 z_2687 z_2688
 z_2689 z_2690 z_2691 z_2692 z_2693 z_2694 z_2695 z_2696 z_2697 z_2698 z_2699
 z_2700 z_2701 z_2702 z_2703 z_2704 z_2705 z_2706 z_2707 z_2708 z_2709 z_2710
 z_2711 z_2712 z_2713 z_2714 z_2715 z_2716 z_2717 z_2718 z_2719 z_2720 z_2721
 z_2722 z_2723 z_2724 z_2725 z_2726 z_2727 z_2728 z_2729 z_2730 z_2731 z_2732
 z_2733 z_2734 z_2735 z_2736 z_2737 z_2738 z_2739 z_2740 z_2741 z_2742 z_2743
 z_2744 z_2745 z_2746 z_2747 z_2748 z_2749 z_2750 z_2751 z_2752 z_2753 z_2754
 z_2755 z_2756 z_2757 z_2758 z_2759 z_2760 z_2761 z_2762 z_2763 z_2764 z_2765
 z_2766 z_2767 z_2768 z_2769 z_2770 z_2771 z_2772 z_2773 z_2774 z_2775 z_2776
 z_2777 z_2778 z_2779 z_2780 z_2781 z_2782 z_2783 z_2784 z_2785 z_2786 z_2787
 z_2788 z_2789 z_2790 z_2791 z_2792 z_2793 z_2794 z_2795 z_2796 z_2797 z_2798
 z_2799 z_2800 z_2801 z_2802 z_2803 z_2804 z_2805 z_2806 z_2807 z_2808 z_2809
 z_2810 z_2811 z_2812 z_2813 z_2814 z_2815 z_2816 z_2817 z_2818 z_2819 z_2820
 z_2821 z_2822 z_2823 z_2824 z_2825 z_2826 z_2827 z_2828 z_2829 z_2830 z_2831
 z_2832 z_2833 z_2834 z_2835 z_2836 z_2837 z_2838 z_2839 z_2840 z_2841 z_2842
 z_2843 z_2844 z_2845 z_2846 z_2847 z_2848 z_2849 z_2850 z_2851 z_2852 z_2853
 z_2854 z_2855 z_2856 z_2857 z_2858 z_2859 z_2860 z_2861 z_2862 z_2863 z_2864
 z_2865 z_2866 z_2867 z_2868 z_2869 z_2870 z_2871 z_2872 z_2873 z_2874 z_2875
 z_2876 z_2877 z_2878 z_2879 z_2880 z_2881 z_2882 z_2883 z_2884 z_2885 z_2886
 z_2887 z_2888 z_2889 z_2890 z_2891 z_2892 z_2893 z_2894 z_2895 z_2896 z_2897
 z_2898 z_2899 z_2900 z_2901 z_2902 z_2903 z_2904 z_2905 z_2906 z_2907 z_2908
 z_2909 z_2910 z_2911 z_2912 z_2913 z_2914 z_2915 z_2916 z_2917 z_2918 z_2919
 z_2920 z_2921 z_2922 z_2923 z_2924 z_2925 z_2926 z_2927 z_2928 z_2929 z_2930
 z_2931 z_2932 z_2933 z_2934 z_2935 z_2936 z_2937 z_2938 z_2939 z_2940 z_2941
 z_2942 z_2943 z_2944 z_2945 z_2946 z_2947 z_2948 z_2949 z_2950 z_2951 z_2952
 z_2953 z_2954 z_2955 z_2956 z_2957 z_2958 z_2959 z_2960 z_2961 z_2962 z_2963
 z_2964 z_2965 z_2966 z_2967 z_2968 z_2969 z_2970 z_2971 z_2972 z_2973 z_2974
 z_2975 z_2976 z_2977 z_2978 z_2979 z_2980 z_2981 z_2982 z_2983 z_2984 z_2985
 z_2986 z_2987 z_2988 z_2989 z_2990 z_2991 z_2992 z_2993 z_2994 z_2995 z_2996
 z_2997 z_2998 z_2999 z_3000 z_3001 z_3002 z_3003 z_3004 z_3005 z_3006 z_3007
 z_3008 z_3009 z_3010 z_3011 z_3012 z_3013 z_3014 z_3015 z_3016 z_3017 z_3018
 z_3019 z_3020 z_3021 z_3022 z_3023 z_3024 z_3025 z_3026 z_3027 z_3028 z_3029
 z_3030 z_3031 z_3032 z_3033 z_3034 z_3035 z_3036 z_3037 z_3038 z_3039 z_3040
 z_3041 z_3042 z_3043 z_3044 z_3045 z_3046 z_3047 z_3048 z_3049 z_3050 z_3051
 z_3052 z_3053 z_3054 z_3055 z_3056 z_3057 z_3058 z_3059 z_3060 z_3061 z_3062
 z_3063 z_3064 z_3065 z_3066 z_3067 z_3068 z_3069 z_3070 z_3071 z_3072 z_3073
 z_3074 z_3075 z_3076 z_3077 z_3078 z_3079 z_3080 z_3081 z_3082 z_3083 z_3084
 z_3085 z_3086 z_3087 z_3088 z_3089 z_3090 z_3091 z_3092 z_3093 z_3094 z_3095
 z_3096 z_3097 z_3098 z_3099 z_3100 z_3101 z_3102 z_3103 z_3104 z_3105 z_3106
 z_3107 z_3108 z_3109 z_3110 z_3111 z_3112 z_3113 z_3114 z_3115 z_3116 z_3117
 z_3118 z_3119 z_3120 z_3121 z_3122 z_3123 z_3124 z_3125 z_3126 z_3127 z_3128
 z_3129 z_3130 z_3131 z_3132 z_3133 z_3134 z_3135 z_3136 z_3137 z_3138 z_3139
 z_3140 z_3141 z_3142 z_3143 z_3144 z_3145 z_3146 z_3147 z_3148 z_3149 z_3150
 z_3151 z_3152 z_3153 z_3154 z_3155 z_3156 z_3157 z_3158 z_3159 z_3160 z_3161
 z_3162 z_3163 z_3164 z_3165 z_3166 z_3167 z_3168 z_3169 z_3170 z_3171 z_3172
 z_3173 z_3174 z_3175 z_3176 z_3177 z_3178 z_3179 z_3180 z_3181 z_3182 z_3183
 z_3184 z_3185 z_3186 z_3187 z_3188 z_3189 z_3190 z_3191 z_3192 z_3193 z_3194
 z_3195 z_3196 z_3197 z_3198 z_3199 z_3200 z_3201 z_3202 z_3203 z_3204 z_3205
 z_3206 z_3207 z_3208 z_3209 z_3210 z_3211 z_3212 z_3213 z_3214 z_3215 z_3216
 z_3217 z_3218 z_3219 z_3220 z_3221 z_3222 z_3223 z_3224 z_3225 z_3226 z_3227
 z_3228 z_3229 z_3230 z_3231 z_3232 z_3233 z_3234 z_3235 z_3236 z_3237 z_3238
 z_3239 z_3240 z_3241 z_3242 z_3243 z_3244 z_3245 z_3246 z_3247 z_3248 z_3249
 z_3250 z_3251 z_3252 z_3253 z_3254 z_3255 z_3256 z_3257 z_3258 z_3259 z_3260
 z_3261 z_3262 z_3263 z_3264 z_3265 z_3266 z_3267 z_3268 z_3269 z_3270 z_3271
 z_3272 z_3273 z_3274 z_3275 z_3276 z_3277 z_3278 z_3279 z_3280 z_3281 z_3282
 z_3283 z_3284 z_3285 z_3286 z_3287 z_3288 z_3289 z_3290 z_3291 z_3292 z_3293
 z_3294 z_3295 z_3296 z_3297 z_3298 z_3299 z_3300 z_3301 z_3302 z_3303 z_3304
 z_3305 z_3306 z_3307 z_3308 z_3309 z_3310 z_3311 z_3312 z_3313 z_3314 z_3315
 z_3316 z_3317 z_3318 z_3319 z_3320 z_3321 z_3322 z_3323 z_3324 z_3325 z_3326
 z_3327 z_3328 z_3329 z_3330 z_3331 z_3332 z_3333 z_3334 z_3335 z_3336 z_3337
 z_3338 z_3339 z_3340 z_3341 z_3342 z_3343 z_3344 z_3345 z_3346 z_3347 z_3348
 z_3349 z_3350 z_3351 z_3352 z_3353 z_3354 z_3355 z_3356 z_3357 z_3358 z_3359
 z_3360 z_3361 z_3362 z_3363 z_3364 z_3365 z_3366 z_3367 z_3368 z_3369 z_3370
 z_3371 z_3372 z_3373 z_3374 z_3375 z_3376 z_3377 z_3378 z_3379 z_3380 z_3381
 z_3382 z_3383 z_3384 z_3385 z_3386 z_3387 z_3388 z_3389 z_3390 z_3391 z_3392
 z_3393 z_3394 z_3395 z_3396 z_3397 z_3398 z_3399 z_3400 z_3401 z_3402 z_3403
 z_3404 z_3405 z_3406 z_3407 z_3408 z_3409 z_3410 z_3411 z_3412 z_3413 z_3414
 z_3415 z_3416 z_3417 z_3418 z_3419 z_3420 z_3421 z_3422 z_3423 z_3424 z_3425
 z_3426 z_3427 z_3428 z_3429 z_3430 z_3431 z_3432 z_3433 z_3434 z_3435 z_3436
 z_3437 z_3438 z_3439 z_3440 z_3441 z_3442 z_3443 z_3444 z_3445 z_3446 z_3447
 z_3448 z_3449 z_3450 z_3451 z_3452 z_3453 z_3454 z_3455 z_3456 z_3457 z_3458
 z_3459 z_3460 z_3461 z_3462 z_3463 z_3464 z_3465 z_3466 z_3467 z_3468 z_3469
 z_3470 z_3471 z_3472 z_3473 z_3474 z_3475 z_3476 z_3477 z_3478 z_3479 z_3480
 z_3481 z_3482 z_3483 z_3484 z_3485 z_3486 z_3487 z_3488 z_3489 z_3490 z_3491
 z_3492 z_3493 z_3494 z_3495 z_3496 z_3497 z_3498 z_3499 z_3500 z_3501 z_3502
 z_3503 z_3504 z_3505 z_3506 z_3507 z_3508 z_3509 z_3510 z_3511 z_3512 z_3513
 z_3514 z_3515 z_3516 z_3517 z_3518 z_3519 z_3520 z_3521 z_3522 z_3523 z_3524
 z_3525 z_3526 z_3527 z_3528 z_3529 z_3530 z_3531 z_3532 z_3533 z_3534 z_3535
 z_3536 z_3537 z_3538 z_3539 z_3540 z_3541 z_3542 z_3543 z_3544 z_3545 z_3546
 z_3547 z_3548 z_3549 z_3550 z_3551 z_3552 z_3553 z_3554 z_3555 z_3556 z_3557
 z_3558 z_3559 z_3560 z_3561 z_3562 z_3563 z_3564 z_3565 z_3566 z_3567 z_3568
 z_3569 z_3570 z_3571 z_3572 z_3573 z_3574 z_3575 z_3576 z_3577 z_3578 z_3579
 z_3580 z_3581 z_3582 z_3583 z_3584 z_3585 z_3586 z_3587 z_3588 z_3589 z_3590
 z_3591 z_3592 z_3593 z_3594 z_3595 z_3596 z_3597 z_3598 z_3599 z_3600 z_3601
 z_3602 z_3603 z_3604 z_3605 z_3606 z_3607 z_3608 z_3609 z_3610 z_3611 z_3612
 z_3613 z_3614 z_3615 z_3616 z_3617 z_3618 z_3619 z_3620 z_3621 z_3622 z_3623
 z_3624 z_3625 z_3626 z_3627 z_3628 z_3629 z_3630 z_3631 z_3632 z_3633 z_3634
 z_3635 z_3636 z_3637 z_3638 z_3639 z_3640 z_3641 z_3642 z_3643 z_3644 z_3645
 z_3646 z_3647 z_3648 z_3649 z_3650 z_3651 z_3652 z_3653 z_3654 z_3655 z_3656
 z_3657 z_3658 z_3659 z_3660 z_3661 z_3662 z_3663 z_3664 z_3665 z_3666 z_3667
 z_3668 z_3669 z_3670 z_3671 z_3672 z_3673 z_3674 z_3675 z_3676 z_3677 z_3678
 z_3679 z_3680 z_3681 z_3682 z_3683 z_3684 z_3685 z_3686 z_3687 z_3688 z_3689
 z_3690 z_3691 z_3692 z_3693 z_3694 z_3695 z_3696 z_3697 z_3698 z_3699 z_3700
 z_3701 z_3702 z_3703 z_3704 z_3705 z_3706 z_3707 z_3708 z_3709 z_3710 z_3711
 z_3712 z_3713 z_3714 z_3715 z_3716 z_3717 z_3718 z_3719 z_3720 z_3721 z_3722
 z_3723 z_3724 z_3725 z_3726 z_3727 z_3728 z_3729 z_3730 z_3731 z_3732 z_3733
 z_3734 z_3735 z_3736 z_3737 z_3738 z_3739 z_3740 z_3741 z_3742 z_3743 z_3744
 z_3745 z_3746 z_3747 z_3748 z_3749 z_3750 z_3751 z_3752 z_3753 z_3754 z_3755
 z_3756 z_3757 z_3758 z_3759 z_3760 z_3761 z_3762 z_3763 z_3764 z_3765 z_3766
 z_3767 z_3768 z_3769 z_3770 z_3771 z_3772 z_3773 z_3774 z_3775 z_3776 z_3777
 z_3778 z_3779 z_3780 z_3781 z_3782 z_3783 z_3784 z_3785 z_3786 z_3787 z_3788
 z_3789 z_3790 z_3791 z_3792 z_3793 z_3794 z_3795 z_3796 z_3797 z_3798 z_3799
 z_3800 z_3801 z_3802 z_3803 z_3804 z_3805 z_3806 z_3807 z_3808 z_3809 z_3810
 z_3811 z_3812 z_3813 z_3814 z_3815 z_3816 z_3817 z_3818 z_3819 z_3820 z_3821
 z_3822 z_3823 z_3824 z_3825 z_3826 z_3827 z_3828 z_3829 z_3830 z_3831 z_3832
 z_3833 z_3834 z_3835 z_3836 z_3837 z_3838 z_3839 z_3840 z_3841 z_3842 z_3843
 z_3844 z_3845 z_3846 z_3847 z_3848 z_3849 z_3850 z_3851 z_3852 z_3853 z_3854
 z_3855 z_3856 z_3857 z_3858 z_3859 z_3860 z_3861 z_3862 z_3863 z_3864 z_3865
 z_3866 z_3867 z_3868 z_3869 z_3870 z_3871 z_3872 z_3873 z_3874 z_3875 z_3876
 z_3877 z_3878 z_3879 z_3880 z_3881 z_3882 z_3883 z_3884 z_3885 z_3886 z_3887
 z_3888 z_3889 z_3890 z_3891 z_3892 z_3893 z_3894 z_3895 z_3896 z_3897 z_3898
 z_3899 z_3900 z_3901 z_3902 z_3903 z_3904 z_3905 z_3906 z_3907 z_3908 z_3909
 z_3910 z_3911 z_3912 z_3913 z_3914 z_3915 z_3916 z_3917 z_3918 z_3919 z_3920
 z_3921 z_3922 z_3923 z_3924 z_3925 z_3926 z_3927 z_3928 z_3929 z_3930 z_3931
 z_3932 z_3933 z_3934 z_3935 z_3936 z_3937 z_3938 z_3939 z_3940 z_3941 z_3942
 z_3943 z_3944 z_3945 z_3946 z_3947 z_3948 z_3949 z_3950 z_3951 z_3952 z_3953
 z_3954 z_3955 z_3956 z_3957 z_3958 z_3959 z_3960 z_3961 z_3962 z_3963 z_3964
 z_3965 z_3966 z_3967 z_3968 z_3969 z_3970 z_3971 z_3972 z_3973 z_3974 z_3975
 z_3976 z_3977 z_3978 z_3979 z_3980 z_3981 z_3982 z_3983 z_3984 z_3985 z_3986
 z_3987 z_3988 z_3989 z_3990 z_3991 z_3992 z_3993 z_3994 z_3995 z_3996 z_3997
 z_3998 z_3999 z_4000 z_4001 z_4002 z_4003 z_4004 z_4005 z_4006 z_4007 z_4008
 z_4009 z_4010 z_4011 z_4012 z_4013 z_4014 z_4015 z_4016 z_4017 z_4018 z_4019
 z_4020 z_4021 z_4022 z_4023 z_4024 z_4025 z_4026 z_4027 z_4028 z_4029 z_4030
 z_4031 z_4032 z_4033 z_4034 z_4035 z_4036 z_4037 z_4038 z_4039 z_4040 z_4041
 z_4042 z_4043 z_4044 z_4045 z_4046 z_4047 z_4048 z_4049 z_4050 z_4051 z_4052
 z_4053 z_4054 z_4055 z_4056 z_4057 z_4058 z_4059 z_4060 z_4061 z_4062 z_4063
 z_4064 z_4065 z_4066 z_4067 z_4068 z_4069 z_4070 z_4071 z_4072 z_4073 z_4074
 z_4075 z_4076 z_4077 z_4078 z_4079 z_4080 z_4081 z_4082 z_4083 z_4084 z_4085
 z_4086 z_4087 z_4088 z_4089 z_4090 z_4091 z_4092 z_4093 z_4094 z_4095 z_4096
 z_4097 z_4098 z_4099 z_4100 z_4101 z_4102 z_4103 z_4104 z_4105 z_4106 z_4107
 z_4108 z_4109 z_4110 z_4111 z_4112 z_4113 z_4114 z_4115 z_4116 z_4117 z_4118
 z_4119 z_4120 z_4121 z_4122 z_4123 z_4124 z_4125 z_4126 z_4127 z_4128 z_4129
 z_4130 z_4131 z_4132 z_4133 z_4134 z_4135 z_4136 z_4137 z_4138 z_4139 z_4140
 z_4141 z_4142 z_4143 z_4144 z_4145 z_4146 z_4147 z_4148 z_4149 z_4150 z_4151
 z_4152 z_4153 z_4154 z_4155 z_4156 z_4157 z_4158 z_4159 z_4160 z_4161 z_4162
 z_4163 z_4164 z_4165 z_4166 z_4167 z_4168 z_4169 z_4170 z_4171 z_4172 z_4173
 z_4174 z_4175 z_4176 z_4177 z_4178 z_4179 z_4180 z_4181 z_4182 z_4183 z_4184
 z_4185 z_4186 z_4187 z_4188 z_4189 z_4190 z_4191 z_4192 z_4193 z_4194 z_4195
 z_4196 z_4197 z_4198 z_4199 z_4200 z_4201 z_4202 z_4203 z_4204 z_4205 z_4206
 z_4207 z_4208 z_4209 z_4210 z_4211 z_4212 z_4213 z_4214 z_4215 z_4216 z_4217
 z_4218 z_4219 z_4220 z_4221 z_4222 z_4223 z_4224 z_4225 z_4226 z_4227 z_4228
 z_4229 z_4230 z_4231 z_4232 z_4233 z_4234 z_4235 z_4236 z_4237 z_4238 z_4239
 z_4240 z_4241 z_4242 z_4243 z_4244 z_4245 z_4246 z_4247 z_4248 z_4249 z_4250
 z_4251 z_4252 z_4253 z_4254 z_4255 z_4256 z_4257 z_4258 z_4259 z_4260 z_4261
 z_4262 z_4263 z_4264 z_4265 z_4266 z_4267 z_4268 z_4269 z_4270 z_4271 z_4272
 z_4273 z_4274 z_4275 z_4276 z_4277 z_4278 z_4279 z_4280 z_4281 z_4282 z_4283
 z_4284 z_4285 z_4286 z_4287 z_4288 z_4289 z_4290 z_4291 z_4292 z_4293 z_4294
 z_4295 z_4296 z_4297 z_4298 z_4299 z_4300 z_4301 z_4302 z_4303 z_4304 z_4305
 z_4306 z_4307 z_4308 z_4309 z_4310 z_4311 z_4312 z_4313 z_4314 z_4315 z_4316
 z_4317 z_4318 z_4319 z_4320 z_4321 z_4322 z_4323 z_4324 z_4325 z_4326 z_4327
 z_4328 z_4329 z_4330 z_4331 z_4332 z_4333 z_4334 z_4335 z_4336 z_4337 z_4338
 z_4339 z_4340 z_4341 z_4342 z_4343 z_4344 z_4345 z_4346 z_4347 z_4348 z_4349
 z_4350 z_4351 z_4352 z_4353 z_4354 z_4355 z_4356 z_4357 z_4358 z_4359 z_4360
 z_4361 z_4362 z_4363 z_4364 z_4365 z_4366 z_4367 z_4368 z_4369 z_4370 z_4371
 z_4372 z_4373 z_4374 z_4375 z_4376 z_4377 z_4378 z_4379 z_4380 z_4381 z_4382
 z_4383 z_4384 z_4385 z_4386 z_4387 z_4388 z_4389 z_4390 z_4391 z_4392 z_4393
 z_4394 z_4395 z_4396 z_4397 z_4398 z_4399 z_4400 z_4401 z_4402 z_4403 z_4404
 z_4405 z_4406 z_4407 z_4408 z_4409 z_4410 z_4411 z_4412 z_4413 z_4414 z_4415
 z_4416 z_4417 z_4418 z_4419 z_4420 z_4421 z_4422 z_4423 z_4424 z_4425 z_4426
 z_4427 z_4428 z_4429 z_4430 z_4431 z_4432 z_4433 z_4434 z_4435 z_4436 z_4437
 z_4438 z_4439 z_4440 z_4441 z_4442 z_4443 z_4444 z_4445 z_4446 z_4447 z_4448
 z_4449 z_4450 z_4451 z_4452 z_4453 z_4454 z_4455 z_4456 z_4457 z_4458 z_4459
 z_4460 z_4461 z_4462 z_4463 z_4464 z_4465 z_4466 z_4467 z_4468 z_4469 z_4470
 z_4471 z_4472 z_4473 z_4474 z_4475 z_4476 z_4477 z_4478 z_4479 z_4480 z_4481
 z_4482 z_4483 z_4484 z_4485 z_4486 z_4487 z_4488 z_4489 z_4490 z_4491 z_4492
 z_4493 z_4494 z_4495 z_4496 z_4497 z_4498 z_4499 z_4500 z_4501 z_4502 z_4503
 z_4504 z_4505 z_4506 z_4507 z_4508 z_4509 z_4510 z_4511 z_4512 z_4513 z_4514
 z_4515 z_4516 z_4517 z_4518 z_4519 z_4520 z_4521 z_4522 z_4523 z_4524 z_4525
 z_4526 z_4527 z_4528 z_4529 z_4530 z_4531 z_4532 z_4533 z_4534 z_4535 z_4536
 z_4537 z_4538 z_4539 z_4540 z_4541 z_4542 z_4543 z_4544 z_4545 z_4546 z_4547
 z_4548 z_4549 z_4550 z_4551 z_4552 z_4553 z_4554 z_4555 z_4556 z_4557 z_4558
 z_4559 z_4560 z_4561 z_4562 z_4563 z_4564 z_4565 z_4566 z_4567 z_4568 z_4569
 z_4570 z_4571 z_4572 z_4573 z_4574 z_4575 z_4576 z_4577 z_4578 z_4579 z_4580
 z_4581 z_4582 z_4583 z_4584 z_4585 z_4586 z_4587 z_4588 z_4589 z_4590 z_4591
 z_4592 z_4593 z_4594 z_4595 z_4596 z_4597 z_4598 z_4599 z_4600 z_4601 z_4602
 z_4603 z_4604 z_4605 z_4606 z_4607 z_4608 z_4609 z_4610 z_4611 z_4612 z_4613
 z_4614 z_4615 z_4616 z_4617 z_4618 z_4619 z_4620 z_4621 z_4622 z_4623 z_4624
 z_4625 z_4626 z_4627 z_4628 z_4629 z_4630 z_4631 z_4632 z_4633 z_4634 z_4635
 z_4636 z_4637 z_4638 z_4639 z_4640 z_4641 z_4642 z_4643 z_4644 z_4645 z_4646
 z_4647 z_4648 z_4649 z_4650 z_4651 z_4652 z_4653 z_4654 z_4655 z_4656 z_4657
 z_4658 z_4659 z_4660 z_4661 z_4662 z_4663 z_4664 z_4665 z_4666 z_4667 z_4668
 z_4669 z_4670 z_4671 z_4672 z_4673 z_4674 z_4675 z_4676 z_4677 z_4678 z_4679
 z_4680 z_4681 z_4682 z_4683 z_4684 z_4685 z_4686 z_4687 z_4688 z_4689 z_4690
 z_4691 z_4692 z_4693 z_4694 z_4695 z_4696 z_4697 z_4698 z_4699 z_4700 z_4701
 z_4702 z_4703 z_4704 z_4705 z_4706 z_4707 z_4708 z_4709 z_4710 z_4711 z_4712
 z_4713 z_4714 z_4715 z_4716 z_4717 z_4718 z_4719 z_4720 z_4721 z_4722 z_4723
 z_4724 z_4725 z_4726 z_4727 z_4728 z_4729 z_4730 z_4731 z_4732 z_4733 z_4734
 z_4735 z_4736 z_4737 z_4738 z_4739 z_4740 z_4741 z_4742 z_4743 z_4744 z_4745
 z_4746 z_4747 z_4748 z_4749 z_4750 z_4751 z_4752 z_4753 z_4754 z_4755 z_4756
 z_4757 z_4758 z_4759 z_4760 z_4761 z_4762 z_4763 z_4764 z_4765 z_4766 z_4767
 z_4768 z_4769 z_4770 z_4771 z_4772 z_4773 z_4774 z_4775 z_4776 z_4777 z_4778
 z_4779 z_4780 z_4781 z_4782 z_4783 z_4784 z_4785 z_4786 z_4787 z_4788 z_4789
 z_4790 z_4791 z_4792 z_4793 z_4794 z_4795 z_4796 z_4797 z_4798 z_4799 z_4800
 z_4801 z_4802 z_4803 z_4804 z_4805 z_4806 z_4807 z_4808 z_4809 z_4810 z_4811
 z_4812 z_4813 z_4814 z_4815 z_4816 z_4817 z_4818 z_4819 z_4820 z_4821 z_4822
 z_4823 z_4824 z_4825 z_4826 z_4827 z_4828 z_4829 z_4830 z_4831 z_4832 z_4833
 z_4834 z_4835 z_4836 z_4837 z_4838 z_4839 z_4840 z_4841 z_4842 z_4843 z_4844
 z_4845 z_4846 z_4847 z_4848 z_4849 z_4850 z_4851 z_4852 z_4853 z_4854 z_4855
 z_4856 z_4857 z_4858 z_4859 z_4860 z_4861 z_4862 z_4863 z_4864 z_4865 z_4866
 z_4867 z_4868 z_4869 z_4870 z_4871 z_4872 z_4873 z_4874 z_4875 z_4876 z_4877
 z_4878 z_4879 z_4880 z_4881 z_4882 z_4883 z_4884 z_4885 z_4886 z_4887 z_4888
 z_4889 z_4890 z_4891 z_4892 z_4893 z_4894 z_4895 z_4896 z_4897 z_4898 z_4899
 z_4900 z_4901 z_4902 z_4903 z_4904 z_4905 z_4906 z_4907 z_4908 z_4909 z_4910
 z_4911 z_4912 z_4913 z_4914 z_4915 z_4916 z_4917 z_4918 z_4919 z_4920 z_4921
 z_4922 z_4923 z_4924 z_4925 z_4926 z_4927 z_4928 z_4929 z_4930 z_4931 z_4932
 z_4933 z_4934 z_4935 z_4936 z_4937 z_4938 z_4939 z_4940 z_4941 z_4942 z_4943
 z_4944 z_4945 z_4946 z_4947 z_4948 z_4949 z_4950 z_4951 z_4952 z_4953 z_4954
 z_4955 z_4956 z_4957 z_4958 z_4959 z_4960 z_4961 z_4962 z_4963 z_4964 z_4965
 z_4966 z_4967 z_4968 z_4969 z_4970 z_4971 z_4972 z_4973 z_4974 z_4975 z_4976
 z_4977 z_4978 z_4979 z_4980 z_4981 z_4982 z_4983 z_4984 z_4985 z_4986 z_4987
 z_4988 z_4989 z_4990 z_4991 z_4992 z_4993 z_4994 z_4995 z_4996 z_4997 z_4998
 z_4999 z_5000 z_5001 z_5002 z_5003 z_5004 z_5005 z_5006 z_5007 z_5008 z_5009
 z_5010 z_5011 z_5012 z_5013 z_5014 z_5015 z_5016 z_5017 z_5018 z_5019 z_5020
 z_5021 z_5022 z_5023 z_5024 z_5025 z_5026 z_5027 z_5028 z_5029 z_5030 z_5031
 z_5032 z_5033 z_5034 z_5035 z_5036 z_5037 z_5038 z_5039 z_5040 z_5041 z_5042
 z_5043 z_5044 z_5045 z_5046 z_5047 z_5048 z_5049 z_5050 z_5051 z_5052 z_5053
 z_5054 z_5055 z_5056 z_5057 z_5058 z_5059 z_5060 z_5061 z_5062 z_5063 z_5064
 z_5065 z_5066 z_5067 z_5068 z_5069 z_5070 z_5071 z_5072 z_5073 z_5074 z_5075
 z_5076 z_5077 z_5078 z_5079 z_5080 z_5081 z_5082 z_5083 z_5084 z_5085 z_5086
 z_5087 z_5088 z_5089 z_5090 z_5091 z_5092 z_5093 z_5094 z_5095 z_5096 z_5097
 z_5098 z_5099 z_5100 z_5101 z_5102 z_5103 z_5104 z_5105 z_5106 z_5107 z_5108
 z_5109 z_5110 z_5111 z_5112 z_5113 z_5114 z_5115 z_5116 z_5117 z_5118 z_5119
 z_5120 z_5121 z_5122 z_5123 z_5124 z_5125 z_5126 z_5127 z_5128 z_5129 z_5130
 z_5131 z_5132 z_5133 z_5134 z_5135 z_5136 z_5137 z_5138 z_5139 z_5140 z_5141
 z_5142 z_5143 z_5144 z_5145 z_5146 z_5147 z_5148 z_5149 z_5150 z_5151 z_5152
 z_5153 z_5154 z_5155 z_5156 z_5157 z_5158 z_5159 z_5160 z_5161 z_5162 z_5163
 z_5164 z_5165 z_5166 z_5167 z_5168 z_5169 z_5170 z_5171 z_5172 z_5173 z_5174
 z_5175 z_5176 z_5177 z_5178 z_5179 z_5180 z_5181 z_5182 z_5183 z_5184 z_5185
 z_5186 z_5187 z_5188 z_5189 z_5190 z_5191 z_5192 z_5193 z_5194 z_5195 z_5196
 z_5197 z_5198 z_5199 z_5200 z_5201 z_5202 z_5203 z_5204 z_5205 z_5206 z_5207
 z_5208 z_5209 z_5210 z_5211 z_5212 z_5213 z_5214 z_5215 z_5216 z_5217 z_5218
 z_5219 z_5220 z_5221 z_5222 z_5223 z_5224 z_5225 z_5226 z_5227 z_5228 z_5229
 z_5230 z_5231 z_5232 z_5233 z_5234 z_5235 z_5236 z_5237 z_5238 z_5239 z_5240
 z_5241 z_5242 z_5243 z_5244 z_5245 z_5246 z_5247 z_5248 z_5249 z_5250 z_5251
 z_5252 z_5253 z_5254 z_5255 z_5256 z_5257 z_5258 z_5259 z_5260 z_5261 z_5262
 z_5263 z_5264 z_5265 z_5266 z_5267 z_5268 z_5269 z_5270 z_5271 z_5272 z_5273
 z_5274 z_5275 z_5276 z_5277 z_5278 z_5279 z_5280 z_5281 z_5282 z_5283 z_5284
 z_5285 z_5286 z_5287 z_5288 z_5289 z_5290 z_5291 z_5292 z_5293 z_5294 z_5295
 z_5296 z_5297 z_5298 z_5299 z_5300 z_5301 z_5302 z_5303 z_5304 z_5305 z_5306
 z_5307 z_5308 z_5309 z_5310 z_5311 z_5312 z_5313 z_5314 z_5315 z_5316 z_5317
 z_5318 z_5319 z_5320 z_5321 z_5322 z_5323 z_5324 z_5325 z_5326 z_5327 z_5328
 z_5329 z_5330 z_5331 z_5332 z_5333 z_5334 z_5335 z_5336 z_5337 z_5338 z_5339
 z_5340 z_5341 z_5342 z_5343 z_5344 z_5345 z_5346 z_5347 z_5348 z_5349 z_5350
 z_5351 z_5352 z_5353 z_5354 z_5355 z_5356 z_5357 z_5358 z_5359 z_5360 z_5361
 z_5362 z_5363 z_5364 z_5365 z_5366 z_5367 z_5368 z_5369 z_5370 z_5371 z_5372
 z_5373 z_5374 z_5375 z_5376 z_5377 z_5378 z_5379 z_5380 z_5381 z_5382 z_5383
 z_5384 z_5385 z_5386 z_5387 z_5388 z_5389 z_5390 z_5391 z_5392 z_5393 z_5394
 z_5395 z_5396 z_5397 z_5398 z_5399 z_5400 z_5401 z_5402 z_5403 z_5404 z_5405
 z_5406 z_5407 z_5408 z_5409 z_5410 z_5411 z_5412 z_5413 z_5414 z_5415 z_5416
 z_5417 z_5418 z_5419 z_5420 z_5421 z_5422 z_5423 z_5424 z_5425 z_5426 z_5427
 z_5428 z_5429 z_5430 z_5431 z_5432 z_5433 z_5434 z_5435 z_5436 z_5437 z_5438
 z_5439 z_5440 z_5441 z_5442 z_5443 z_5444 z_5445 z_5446 z_5447 z_5448 z_5449
 z_5450 z_5451 z_5452 z_5453 z_5454 z_5455 z_5456 z_5457 z_5458 z_5459 z_5460
 z_5461 z_5462 z_5463 z_5464 z_5465 z_5466 z_5467 z_5468 z_5469 z_5470 z_5471
 z_5472 z_5473 z_5474 z_5475 z_5476 z_5477 z_5478 z_5479 z_5480 z_5481 z_5482
 z_5483 z_5484 z_5485 z_5486 z_5487 z_5488 z_5489 z_5490 z_5491 z_5492 z_5493
 z_5494 z_5495 z_5496 z_5497 z_5498 z_5499 z_5500 z_5501 z_5502 z_5503 z_5504
 z_5505 z_5506 z_5507 z_5508 z_5509 z_5510 z_5511 z_5512 z_5513 z_5514 z_5515
 z_5516 z_5517 z_5518 z_5519 z_5520 z_5521 z_5522 z_5523 z_5524 z_5525 z_5526
 z_5527 z_5528 z_5529 z_5530 z_5531 z_5532 z_5533 z_5534 z_5535 z_5536 z_5537
 z_5538 z_5539 z_5540 z_5541 z_5542 z_5543 z_5544 z_5545 z_5546 z_5547 z_5548
 z_5549 z_5550 z_5551 z_5552 z_5553 z_5554 z_5555 z_5556 z_5557 z_5558 z_5559
 z_5560 z_5561 z_5562 z_5563 z_5564 z_5565 z_5566 z_5567 z_5568 z_5569 z_5570
 z_5571 z_5572 z_5573 z_5574 z_5575 z_5576 z_5577 z_5578 z_5579 z_5580 z_5581
 z_5582 z_5583 z_5584 z_5585 z_5586 z_5587 z_5588 z_5589 z_5590 z_5591 z_5592
 z_5593 z_5594 z_5595 z_5596 z_5597 z_5598 z_5599 z_5600 z_5601 z_5602 z_5603
 z_5604 z_5605 z_5606 z_5607 z_5608 z_5609 z_5610 z_5611 z_5612 z_5613 z_5614
 z_5615 z_5616 z_5617 z_5618 z_5619 z_5620 z_5621 z_5622 z_5623 z_5624 z_5625
 z_5626 z_5627 z_5628 z_5629 z_5630 z_5631 z_5632 z_5633 z_5634 z_5635 z_5636
 z_5637 z_5638 z_5639 z_5640 z_5641 z_5642 z_5643 z_5644 z_5645 z_5646 z_5647
 z_5648 z_5649 z_5650 z_5651 z_5652 z_5653 z_5654 z_5655 z_5656 z_5657 z_5658
 z_5659 z_5660 z_5661 z_5662 z_5663 z_5664 z_5665 z_5666 z_5667 z_5668 z_5669
 z_5670 z_5671 z_5672 z_5673 z_5674 z_5675 z_5676 z_5677 z_5678 z_5679 z_5680
 z_5681 z_5682 z_5683 z_5684 z_5685 z_5686 z_5687 z_5688 z_5689 z_5690 z_5691
 z_5692 z_5693 z_5694 z_5695 z_5696 z_5697 z_5698 z_5699 z_5700 z_5701 z_5702
 z_5703 z_5704 z_5705 z_5706 z_5707 z_5708 z_5709 z_5710 z_5711 z_5712 z_5713
 z_5714 z_5715 z_5716 z_5717 z_5718 z_5719 z_5720 z_5721 z_5722 z_5723 z_5724
 z_5725 z_5726 z_5727 z_5728 z_5729 z_5730 z_5731 z_5732 z_5733 z_5734 z_5735
 z_5736 z_5737 z_5738 z_5739 z_5740 z_5741 z_5742 z_5743 z_5744 z_5745 z_5746
 z_5747 z_5748 z_5749 z_5750 z_5751 z_5752 z_5753 z_5754 z_5755 z_5756 z_5757
 z_5758 z_5759 z_5760 z_5761 z_5762 z_5763 z_5764 z_5765 z_5766 z_5767 z_5768
 z_5769 z_5770 z_5771 z_5772 z_5773 z_5774 z_5775 z_5776 z_5777 z_5778 z_5779
 z_5780 z_5781 z_5782 z_5783 z_5784 z_5785 z_5786 z_5787 z_5788 z_5789 z_5790
 z_5791 z_5792 z_5793 z_5794 z_5795 z_5796 z_5797 z_5798 z_5799 z_5800 z_5801
 z_5802 z_5803 z_5804 z_5805 z_5806 z_5807 z_5808 z_5809 z_5810 z_5811 z_5812
 z_5813 z_5814 z_5815 z_5816 z_5817 z_5818 z_5819 z_5820 z_5821 z_5822 z_5823
 z_5824 z_5825 z_5826 z_5827 z_5828 z_5829 z_5830 z_5831 z_5832 z_5833 z_5834
 z_5835 z_5836 z_5837 z_5838 z_5839 z_5840 z_5841 z_5842 z_5843 z_5844 z_5845
 z_5846 z_5847 z_5848 z_5849 z_5850 z_5851 z_5852 z_5853 z_5854 z_5855 z_5856
 z_5857 z_5858 z_5859 z_5860 z_5861 z_5862 z_5863 z_5864 z_5865 z_5866 z_5867
 z_5868 z_5869 z_5870 z_5871 z_5872 z_5873 z_5874 z_5875 z_5876 z_5877 z_5878
 z_5879 z_5880 z_5881 z_5882 z_5883 z_5884 z_5885 z_5886 z_5887 z_5888 z_5889
 z_5890 z_5891 z_5892 z_5893 z_5894 z_5895 z_5896 z_5897 z_5898 z_5899 z_5900
 z_5901 z_5902 z_5903 z_5904 z_5905 z_5906 z_5907 z_5908 z_5909 z_5910 z_5911
 z_5912 z_5913 z_5914 z_5915 z_5916 z_5917 z_5918 z_5919 z_5920 z_5921 z_5922
 z_5923 z_5924 z_5925 z_5926 z_5927 z_5928 z_5929 z_5930 z_5931 z_5932 z_5933
 z_5934 z_5935 z_5936 z_5937 z_5938 z_5939 z_5940 z_5941 z_5942 z_5943 z_5944
 z_5945 z_5946 z_5947 z_5948 z_5949 z_5950 z_5951 z_5952 z_5953 z_5954 z_5955
 z_5956 z_5957 z_5958 z_5959 z_5960 z_5961 z_5962 z_5963 z_5964 z_5965 z_5966
 z_5967 z_5968 z_5969 z_5970 z_5971 z_5972 z_5973 z_5974 z_5975 z_5976 z_5977
 z_5978 z_5979 z_5980 z_5981 z_5982 z_5983 z_5984 z_5985 z_5986 z_5987 z_5988
 z_5989 z_5990 z_5991 z_5992 z_5993 z_5994 z_5995 z_5996 z_5997 z_5998 z_5999
 z_6000 z_6001 z_6002 z_6003 z_6004 z_6005 z_6006 z_6007 z_6008 z_6009 z_6010
 z_6011 z_6012 z_6013 z_6014 z_6015 z_6016 z_6017 z_6018 z_6019 z_6020 z_6021
 z_6022 z_6023 z_6024 z_6025 z_6026 z_6027 z_6028 z_6029 z_6030 z_6031 z_6032
 z_6033 z_6034 z_6035 z_6036 z_6037 z_6038 z_6039 z_6040 z_6041 z_6042 z_6043
 z_6044 z_6045 z_6046 z_6047 z_6048 z_6049 z_6050 z_6051 z_6052 z_6053 z_6054
 z_6055 z_6056 z_6057 z_6058 z_6059 z_6060 z_6061 z_6062 z_6063 z_6064 z_6065
 z_6066 z_6067 z_6068 z_6069 z_6070 z_6071 z_6072 z_6073 z_6074 z_6075 z_6076
 z_6077 z_6078 z_6079 z_6080 z_6081 z_6082 z_6083 z_6084 z_6085 z_6086 z_6087
 z_6088 z_6089 z_6090 z_6091 z_6092 z_6093 z_6094 z_6095 z_6096 z_6097 z_6098
 z_6099 z_6100 z_6101 z_6102 z_6103 z_6104 z_6105 z_6106 z_6107 z_6108 z_6109
 z_6110 z_6111 z_6112 z_6113 z_6114 z_6115 z_6116 z_6117 z_6118 z_6119 z_6120
 z_6121 z_6122 z_6123 z_6124 z_6125 z_6126 z_6127 z_6128 z_6129 z_6130 z_6131
 z_6132 z_6133 z_6134 z_6135 z_6136 z_6137 z_6138 z_6139 z_6140 z_6141 z_6142
 z_6143 z_6144 z_6145 z_6146 z_6147 z_6148 z_6149 z_6150 z_6151 z_6152 z_6153
 z_6154 z_6155 z_6156 z_6157 z_6158 z_6159 z_6160 z_6161 z_6162 z_6163 z_6164
 z_6165 z_6166 z_6167 z_6168 z_6169 z_6170 z_6171 z_6172 z_6173 z_6174 z_6175
 z_6176 z_6177 z_6178 z_6179 z_6180 z_6181 z_6182 z_6183 z_6184 z_6185 z_6186
 z_6187 z_6188 z_6189 z_6190 z_6191 z_6192 z_6193 z_6194 z_6195 z_6196 z_6197
 z_6198 z_6199 z_6200 z_6201 z_6202 z_6203 z_6204 z_6205 z_6206 z_6207 z_6208
 z_6209 z_6210 z_6211 z_6212 z_6213 z_6214 z_6215 z_6216 z_6217 z_6218 z_6219
 z_6220 z_6221 z_6222 z_6223 z_6224 z_6225 z_6226 z_6227 z_6228 z_6229 z_6230
 z_6231 z_6232 z_6233 z_6234 z_6235 z_6236 z_6237 z_6238 z_6239 z_6240 z_6241
 z_6242 z_6243 z_6244 z_6245 z_6246 z_6247 z_6248 z_6249 z_6250 z_6251 z_6252
 z_6253 z_6254 z_6255 z_6256 z_6257 z_6258 z_6259 z_6260 z_6261 z_6262 z_6263
 z_6264 z_6265 z_6266 z_6267 z_6268 z_6269 z_6270 z_6271 z_6272 z_6273 z_6274
 z_6275 z_6276 z_6277 z_6278 z_6279 z_6280 z_6281 z_6282 z_6283 z_6284 z_6285
 z_6286 z_6287 z_6288 z_6289 z_6290 z_6291 z_6292 z_6293 z_6294 z_6295 z_6296
 z_6297 z_6298 z_6299 z_6300 z_6301 z_6302 z_6303 z_6304 z_6305 z_6306 z_6307
 z_6308 z_6309 z_6310 z_6311 z_6312 z_6313 z_6314 z_6315 z_6316 z_6317 z_6318
 z_6319 z_6320 z_6321 z_6322 z_6323 z_6324 z_6325 z_6326 z_6327 z_6328 z_6329
 z_6330 z_6331 z_6332 z_6333 z_6334 z_6335 z_6336 z_6337 z_6338 z_6339 z_6340
 z_6341 z_6342 z_6343 z_6344 z_6345 z_6346 z_6347 z_6348 z_6349 z_6350 z_6351
 z_6352 z_6353 z_6354 z_6355 z_6356 z_6357 z_6358 z_6359 z_6360 z_6361 z_6362
 z_6363 z_6364 z_6365 z_6366 z_6367 z_6368 z_6369 z_6370 z_6371 z_6372 z_6373
 z_6374 z_6375 z_6376 z_6377 z_6378 z_6379 z_6380 z_6381 z_6382 z_6383 z_6384
 z_6385 z_6386 z_6387 z_6388 z_6389 z_6390 z_6391 z_6392 z_6393 z_6394 z_6395
 z_6396 z_6397 z_6398 z_6399 z_6400 z_6401 z_6402 z_6403 z_6404 z_6405 z_6406
 z_6407 z_6408 z_6409 z_6410 z_6411 z_6412 z_6413 z_6414 z_6415 z_6416 z_6417
 z_6418 z_6419 z_6420 z_6421 z_6422 z_6423 z_6424 z_6425 z_6426 z_6427 z_6428
 z_6429 z_6430 z_6431 z_6432 z_6433 z_6434 z_6435 z_6436 z_6437 z_6438 z_6439
 z_6440 z_6441 z_6442 z_6443 z_6444 z_6445 z_6446 z_6447 z_6448 z_6449 z_6450
 z_6451 z_6452 z_6453 z_6454 z_6455 z_6456 z_6457 z_6458 z_6459 z_6460 z_6461
 z_6462 z_6463 z_6464 z_6465 z_6466 z_6467 z_6468 z_6469 z_6470 z_6471 z_6472
 z_6473 z_6474 z_6475 z_6476 z_6477 z_6478 z_6479 z_6480 z_6481 z_6482 z_6483
 z_6484 z_6485 z_6486 z_6487 z_6488 z_6489 z_6490 z_6491 z_6492 z_6493 z_6494
 z_6495 z_6496 z_6497 z_6498 z_6499 z_6500 z_6501 z_6502 z_6503 z_6504 z_6505
 z_6506 z_6507 z_6508 z_6509 z_6510 z_6511 z_6512 z_6513 z_6514 z_6515 z_6516
 z_6517 z_6518 z_6519 z_6520 z_6521 z_6522 z_6523 z_6524 z_6525 z_6526 z_6527
 z_6528 z_6529 z_6530 z_6531 z_6532 z_6533 z_6534 z_6535 z_6536 z_6537 z_6538
 z_6539 z_6540 z_6541 z_6542 z_6543 z_6544 z_6545 z_6546 z_6547 z_6548 z_6549
 z_6550 z_6551 z_6552 z_6553 z_6554 z_6555 z_6556 z_6557 z_6558 z_6559 z_6560
 z_6561 z_6562 z_6563 z_6564 z_6565 z_6566 z_6567 z_6568 z_6569 z_6570 z_6571
 z_6572 z_6573 z_6574 z_6575 z_6576 z_6577 z_6578 z_6579 z_6580 z_6581 z_6582
 z_6583 z_6584 z_6585 z_6586 z_6587 z_6588 z_6589 z_6590 z_6591 z_6592 z_6593
 z_6594 z_6595 z_6596 z_6597 z_6598 z_6599 z_6600 z_6601 z_6602 z_6603 z_6604
 z_6605 z_6606 z_6607 z_6608 z_6609 z_6610 z_6611 z_6612 z_6613 z_6614 z_6615
 z_6616 z_6617 z_6618 z_6619 z_6620 z_6621 z_6622 z_6623 z_6624 z_6625 z_6626
 z_6627 z_6628 z_6629 z_6630 z_6631 z_6632 z_6633 z_6634 z_6635 z_6636 z_6637
 z_6638 z_6639 z_6640 z_6641 z_6642 z_6643 z_6644 z_6645 z_6646 z_6647 z_6648
 z_6649 z_6650 z_6651 z_6652 z_6653 z_6654 z_6655 z_6656 z_6657 z_6658 z_6659
 z_6660 z_6661 z_6662 z_6663 z_6664 z_6665 z_6666 z_6667 z_6668 z_6669 z_6670
 z_6671 z_6672 z_6673 z_6674 z_6675 z_6676 z_6677 z_6678 z_6679 z_6680 z_6681
 z_6682 z_6683 z_6684 z_6685 z_6686 z_6687 z_6688 z_6689 z_6690 z_6691 z_6692
 z_6693 z_6694 z_6695 z_6696 z_6697 z_6698 z_6699 z_6700 z_6701 z_6702 z_6703
 z_6704 z_6705 z_6706 z_6707 z_6708 z_6709 z_6710 z_6711 z_6712 z_6713 z_6714
 z_6715 z_6716 z_6717 z_6718 z_6719 z_6720 z_6721 z_6722 z_6723 z_6724 z_6725
 z_6726 z_6727 z_6728 z_6729 z_6730 z_6731 z_6732 z_6733 z_6734 z_6735 z_6736
 z_6737 z_6738 z_6739 z_6740 z_6741 z_6742 z_6743 z_6744 z_6745 z_6746 z_6747
 z_6748 z_6749 z_6750 z_6751 z_6752 z_6753 z_6754 z_6755 z_6756 z_6757 z_6758
 z_6759 z_6760 z_6761 z_6762 z_6763 z_6764 z_6765 z_6766 z_6767 z_6768 z_6769
 z_6770 z_6771 z_6772 z_6773 z_6774 z_6775 z_6776 z_6777 z_6778 z_6779 z_6780
 z_6781 z_6782 z_6783 z_6784 z_6785 z_6786 z_6787 z_6788 z_6789 z_6790 z_6791
 z_6792 z_6793 z_6794 z_6795 z_6796 z_6797 z_6798 z_6799 z_6800 z_6801 z_6802
 z_6803 z_6804 z_6805 z_6806 z_6807 z_6808 z_6809 z_6810 z_6811 z_6812 z_6813
 z_6814 z_6815 z_6816 z_6817 z_6818 z_6819 z_6820 z_6821 z_6822 z_6823 z_6824
 z_6825 z_6826 z_6827 z_6828 z_6829 z_6830 z_6831 z_6832 z_6833 z_6834 z_6835
 z_6836 z_6837 z_6838 z_6839 z_6840 z_6841 z_6842 z_6843 z_6844 z_6845 z_6846
 z_6847 z_6848 z_6849 z_6850 z_6851 z_6852 z_6853 z_6854 z_6855 z_6856 z_6857
 z_6858 z_6859 z_6860 z_6861 z_6862 z_6863 z_6864 z_6865 z_6866 z_6867 z_6868
 z_6869 z_6870 z_6871 z_6872 z_6873 z_6874 z_6875 z_6876 z_6877 z_6878 z_6879
 z_6880 z_6881 z_6882 z_6883 z_6884 z_6885 z_6886 z_6887 z_6888 z_6889 z_6890
 z_6891 z_6892 z_6893 z_6894 z_6895 z_6896 z_6897 z_6898 z_6899 z_6900 z_6901
 z_6902 z_6903 z_6904 z_6905 z_6906 z_6907 z_6908 z_6909 z_6910 z_6911 z_6912
 z_6913 z_6914 z_6915 z_6916 z_6917 z_6918 z_6919 z_6920 z_6921 z_6922 z_6923
 z_6924 z_6925 z_6926 z_6927 z_6928 z_6929 z_6930 z_6931 z_6932 z_6933 z_6934
 z_6935 z_6936 z_6937 z_6938 z_6939 z_6940 z_6941 z_6942 z_6943 z_6944 z_6945
 z_6946 z_6947 z_6948 z_6949 z_6950 z_6951 z_6952 z_6953 z_6954 z_6955 z_6956
 z_6957 z_6958 z_6959 z_6960 z_6961 z_6962 z_6963 z_6964 z_6965 z_6966 z_6967
 z_6968 z_6969 z_6970 z_6971 z_6972 z_6973 z_6974 z_6975 z_6976 z_6977 z_6978
 z_6979 z_6980 z_6981 z_6982 z_6983 z_6984 z_6985 z_6986 z_6987 z_6988 z_6989
 z_6990 z_6991 z_6992 z_6993 z_6994 z_6995 z_6996 z_6997 z_6998 z_6999 z_7000
 z_7001 z_7002 z_7003 z_7004 z_7005 z_7006 z_7007 z_7008 z_7009 z_7010 z_7011
 z_7012 z_7013 z_7014 z_7015 z_7016 z_7017 z_7018 z_7019 z_7020 z_7021 z_7022
 z_7023 z_7024 z_7025 z_7026 z_7027 z_7028 z_7029 z_7030 z_7031 z_7032 z_7033
 z_7034 z_7035 z_7036 z_7037 z_7038 z_7039 z_7040 z_7041 z_7042 z_7043 z_7044
 z_7045 z_7046 z_7047 z_7048 z_7049 z_7050 z_7051 z_7052 z_7053 z_7054 z_7055
 z_7056 z_7057 z_7058 z_7059 z_7060 z_7061 z_7062 z_7063 z_7064 z_7065 z_7066
 z_7067 z_7068 z_7069 z_7070 z_7071 z_7072 z_7073 z_7074 z_7075 z_7076 z_7077
 z_7078 z_7079 z_7080 z_7081 z_7082 z_7083 z_7084 z_7085 z_7086 z_7087 z_7088
 z_7089 z_7090 z_7091 z_7092 z_7093 z_7094 z_7095 z_7096 z_7097 z_7098 z_7099
 z_7100 z_7101 z_7102 z_7103 z_7104 z_7105 z_7106 z_7107 z_7108 z_7109 z_7110
 z_7111 z_7112 z_7113 z_7114 z_7115 z_7116 z_7117 z_7118 z_7119 z_7120 z_7121
 z_7122 z_7123 z_7124 z_7125 z_7126 z_7127 z_7128 z_7129 z_7130 z_7131 z_7132
 z_7133 z_7134 z_7135 z_7136 z_7137 z_7138 z_7139 z_7140 z_7141 z_7142 z_7143
 z_7144 z_7145 z_7146 z_7147 z_7148 z_7149 z_7150 z_7151 z_7152 z_7153 z_7154
 z_7155 z_7156 z_7157 z_7158 z_7159 z_7160 z_7161 z_7162 z_7163 z_7164 z_7165
 z_7166 z_7167 z_7168 z_7169 z_7170 z_7171 z_7172 z_7173 z_7174 z_7175 z_7176
 z_7177 z_7178 z_7179 z_7180 z_7181 z_7182 z_7183 z_7184 z_7185 z_7186 z_7187
 z_7188 z_7189 z_7190 z_7191 z_7192 z_7193 z_7194 z_7195 z_7196 z_7197 z_7198
 z_7199 z_7200 z_7201 z_7202 z_7203 z_7204 z_7205 z_7206 z_7207 z_7208 z_7209
 z_7210 z_7211 z_7212 z_7213 z_7214 z_7215 z_7216 z_7217 z_7218 z_7219 z_7220
 z_7221 z_7222 z_7223 z_7224 z_7225 z_7226 z_7227 z_7228 z_7229 z_7230 z_7231
 z_7232 z_7233 z_7234 z_7235 z_7236 z_7237 z_7238 z_7239 z_7240 z_7241 z_7242
 z_7243 z_7244 z_7245 z_7246 z_7247 z_7248 z_7249 z_7250 z_7251 z_7252 z_7253
 z_7254 z_7255 z_7256 z_7257 z_7258 z_7259 z_7260 z_7261 z_7262 z_7263 z_7264
 z_7265 z_7266 z_7267 z_7268 z_7269 z_7270 z_7271 z_7272 z_7273 z_7274 z_7275
 z_7276 z_7277 z_7278 z_7279 z_7280 z_7281 z_7282 z_7283 z_7284 z_7285 z_7286
 z_7287 z_7288 z_7289 z_7290 z_7291 z_7292 z_7293 z_7294 z_7295 z_7296 z_7297
 z_7298 z_7299 z_7300 z_7301 z_7302 z_7303 z_7304 z_7305 z_7306 z_7307 z_7308
 z_7309 z_7310 z_7311 z_7312 z_7313 z_7314 z_7315 z_7316 z_7317 z_7318 z_7319
 z_7320 z_7321 z_7322 z_7323 z_7324 z_7325 z_7326 z_7327 z_7328 z_7329 z_7330
 z_7331 z_7332 z_7333 z_7334 z_7335 z_7336 z_7337 z_7338 z_7339 z_7340 z_7341
 z_7342 z_7343 z_7344 z_7345 z_7346 z_7347 z_7348 z_7349 z_7350 z_7351 z_7352
 z_7353 z_7354 z_7355 z_7356 z_7357 z_7358 z_7359 z_7360 z_7361 z_7362 z_7363
 z_7364 z_7365 z_7366 z_7367 z_7368 z_7369 z_7370 z_7371 z_7372 z_7373 z_7374
 z_7375 z_7376 z_7377 z_7378 z_7379 z_7380 z_7381 z_7382 z_7383 z_7384 z_7385
 z_7386 z_7387 z_7388 z_7389 z_7390 z_7391 z_7392 z_7393 z_7394 z_7395 z_7396
 z_7397 z_7398 z_7399 z_7400 z_7401 z_7402 z_7403 z_7404 z_7405 z_7406 z_7407
 z_7408 z_7409 z_7410 z_7411 z_7412 z_7413 z_7414 z_7415 z_7416 z_7417 z_7418
 z_7419 z_7420 z_7421 z_7422 z_7423 z_7424 z_7425 z_7426 z_7427 z_7428 z_7429
 z_7430 z_7431 z_7432 z_7433 z_7434 z_7435 z_7436 z_7437 z_7438 z_7439 z_7440
 z_7441 z_7442 z_7443 z_7444 z_7445 z_7446 z_7447 z_7448 z_7449 z_7450 z_7451
 z_7452 z_7453 z_7454 z_7455 z_7456 z_7457 z_7458 z_7459 z_7460 z_7461 z_7462
 z_7463 z_7464 z_7465 z_7466 z_7467 z_7468 z_7469 z_7470 z_7471 z_7472 z_7473
 z_7474 z_7475 z_7476 z_7477 z_7478 z_7479 z_7480 z_7481 z_7482 z_7483 z_7484
 z_7485 z_7486 z_7487 z_7488 z_7489 z_7490 z_7491 z_7492 z_7493 z_7494 z_7495
 z_7496 z_7497 z_7498 z_7499 z_7500 z_7501 z_7502 z_7503 z_7504 z_7505 z_7506
 z_7507 z_7508 z_7509 z_7510 z_7511 z_7512 z_7513 z_7514 z_7515 z_7516 z_7517
 z_7518 z_7519 z_7520 z_7521 z_7522 z_7523 z_7524 z_7525 z_7526 z_7527 z_7528
 z_7529 z_7530 z_7531 z_7532 z_7533 z_7534 z_7535 z_7536 z_7537 z_7538 z_7539
 z_7540 z_7541 z_7542 z_7543 z_7544 z_7545 z_7546 z_7547 z_7548 z_7549 z_7550
 z_7551 z_7552 z_7553 z_7554 z_7555 z_7556 z_7557 z_7558 z_7559 z_7560 z_7561
 z_7562 z_7563 z_7564 z_7565 z_7566 z_7567 z_7568 z_7569 z_7570 z_7571 z_7572
 z_7573 z_7574 z_7575 z_7576 z_7577 z_7578 z_7579 z_7580 z_7581 z_7582 z_7583
 z_7584 z_7585 z_7586 z_7587 z_7588 z_7589 z_7590 z_7591 z_7592 z_7593 z_7594
 z_7595 z_7596 z_7597 z_7598 z_7599 z_7600 z_7601 z_7602 z_7603 z_7604 z_7605
 z_7606 z_7607 z_7608 z_7609 z_7610 z_7611 z_7612 z_7613 z_7614 z_7615 z_7616
 z_7617 z_7618 z_7619 z_7620 z_7621 z_7622 z_7623 z_7624 z_7625 z_7626 z_7627
 z_7628 z_7629 z_7630 z_7631 z_7632 z_7633 z_7634 z_7635 z_7636 z_7637 z_7638
 z_7639 z_7640 z_7641 z_7642 z_7643 z_7644 z_7645 z_7646 z_7647 z_7648 z_7649
 z_7650 z_7651 z_7652 z_7653 z_7654 z_7655 z_7656 z_7657 z_7658 z_7659 z_7660
 z_7661 z_7662 z_7663 z_7664 z_7665 z_7666 z_7667 z_7668 z_7669 z_7670 z_7671
 z_7672 z_7673 z_7674 z_7675 z_7676 z_7677 z_7678 z_7679 z_7680 z_7681 z_7682
 z_7683 z_7684 z_7685 z_7686 z_7687 z_7688 z_7689 z_7690 z_7691 z_7692 z_7693
 z_7694 z_7695 z_7696 z_7697 z_7698 z_7699 z_7700 z_7701 z_7702 z_7703 z_7704
 z_7705 z_7706 z_7707 z_7708 z_7709 z_7710 z_7711 z_7712 z_7713 z_7714 z_7715
 z_7716 z_7717 z_7718 z_7719 z_7720 z_7721 z_7722 z_7723 z_7724 z_7725 z_7726
 z_7727 z_7728 z_7729 z_7730 z_7731 z_7732 z_7733 z_7734 z_7735 z_7736 z_7737
 z_7738 z_7739 z_7740 z_7741 z_7742 z_7743 z_7744 z_7745 z_7746 z_7747 z_7748
 z_7749 z_7750 z_7751 z_7752 z_7753 z_7754 z_7755 z_7756 z_7757 z_7758 z_7759
 z_7760 z_7761 z_7762 z_7763 z_7764 z_7765 z_7766 z_7767 z_7768 z_7769 z_7770
 z_7771 z_7772 z_7773 z_7774 z_7775 z_7776 z_7777 z_7778 z_7779 z_7780 z_7781
 z_7782 z_7783 z_7784 z_7785 z_7786 z_7787 z_7788 z_7789 z_7790 z_7791 z_7792
 z_7793 z_7794 z_7795 z_7796 z_7797 z_7798 z_7799 z_7800 z_7801 z_7802 z_7803
 z_7804 z_7805 z_7806 z_7807 z_7808 z_7809 z_7810 z_7811 z_7812 z_7813 z_7814
 z_7815 z_7816 z_7817 z_7818 z_7819 z_7820 z_7821 z_7822 z_7823 z_7824 z_7825
 z_7826 z_7827 z_7828 z_7829 z_7830 z_7831 z_7832 z_7833 z_7834 z_7835 z_7836
 z_7837 z_7838 z_7839 z_7840 z_7841 z_7842 z_7843 z_7844 z_7845 z_7846 z_7847
 z_7848 z_7849 z_7850 z_7851 z_7852 z_7853 z_7854 z_7855 z_7856 z_7857 z_7858
 z_7859 z_7860 z_7861 z_7862 z_7863 z_7864 z_7865 z_7866 z_7867 z_7868 z_7869
 z_7870 z_7871 z_7872 z_7873 z_7874 z_7875 z_7876 z_7877 z_7878 z_7879 z_7880
 z_7881 z_7882 z_7883 z_7884 z_7885 z_7886 z_7887 z_7888 z_7889 z_7890 z_7891
 z_7892 z_7893 z_7894 z_7895 z_7896 z_7897 z_7898 z_7899 z_7900 z_7901 z_7902
 z_7903 z_7904 z_7905 z_7906 z_7907 z_7908 z_7909 z_7910 z_7911 z_7912 z_7913
 z_7914 z_7915 z_7916 z_7917 z_7918 z_7919 z_7920 z_7921 z_7922 z_7923 z_7924
 z_7925 z_7926 z_7927 z_7928 z_7929 z_7930 z_7931 z_7932 z_7933 z_7934 z_7935
 z_7936 z_7937 z_7938 z_7939 z_7940 z_7941 z_7942 z_7943 z_7944 z_7945 z_7946
 z_7947 z_7948 z_7949 z_7950 z_7951 z_7952 z_7953 z_7954 z_7955 z_7956 z_7957
 z_7958 z_7959 z_7960 z_7961 z_7962 z_7963 z_7964 z_7965 z_7966 z_7967 z_7968
 z_7969 z_7970 z_7971 z_7972 z_7973 z_7974 z_7975 z_7976 z_7977 z_7978 z_7979
 z_7980 z_7981 z_7982 z_7983 z_7984 z_7985 z_7986 z_7987 z_7988 z_7989 z_7990
 z_7991 z_7992 z_7993 z_7994 z_7995 z_7996 z_7997 z_7998 z_7999 z_8000 z_8001
 z_8002 z_8003 z_8004 z_8005 z_8006 z_8007 z_8008 z_8009 z_8010 z_8011 z_8012
 z_8013 z_8014 z_8015 z_8016 z_8017 z_8018 z_8019 z_8020 z_8021 z_8022 z_8023
 z_8024 z_8025 z_8026 z_8027 z_8028 z_8029 z_8030 z_8031 z_8032 z_8033 z_8034
 z_8035 z_8036 z_8037 z_8038 z_8039 z_8040 z_8041 z_8042 z_8043 z_8044 z_8045
 z_8046 z_8047 z_8048 z_8049 z_8050 z_8051 z_8052 z_8053 z_8054 z_8055 z_8056
 z_8057 z_8058 z_8059 z_8060 z_8061 z_8062 z_8063 z_8064 z_8065 z_8066 z_8067
 z_8068 z_8069 z_8070 z_8071 z_8072 z_8073 z_8074 z_8075 z_8076 z_8077 z_8078
 z_8079 z_8080 z_8081 z_8082 z_8083 z_8084 z_8085 z_8086 z_8087 z_8088 z_8089
 z_8090 z_8091 z_8092 z_8093 z_8094 z_8095 z_8096 z_8097 z_8098 z_8099 z_8100
 z_8101 z_8102 z_8103 z_8104 z_8105 z_8106 z_8107 z_8108 z_8109 z_8110 z_8111
 z_8112 z_8113 z_8114 z_8115 z_8116 z_8117 z_8118 z_8119 z_8120 z_8121 z_8122
 z_8123 z_8124 z_8125 z_8126 z_8127 z_8128 z_8129 z_8130 z_8131 z_8132 z_8133
 z_8134 z_8135 z_8136 z_8137 z_8138 z_8139 z_8140 z_8141 z_8142 z_8143 z_8144
 z_8145 z_8146 z_8147 z_8148 z_8149 z_8150 z_8151 z_8152 z_8153 z_8154 z_8155
 z_8156 z_8157 z_8158 z_8159 z_8160 z_8161 z_8162 z_8163 z_8164 z_8165 z_8166
 z_8167 z_8168 z_8169 z_8170 z_8171 z_8172 z_8173 z_8174 z_8175 z_8176 z_8177
 z_8178 z_8179 z_8180 z_8181 z_8182 z_8183 z_8184 z_8185 z_8186 z_8187 z_8188
 z_8189 z_8190 z_8191 z_8192 z_8193 z_8194 z_8195 z_8196 z_8197 z_8198 z_8199
 z_8200 z_8201 z_8202 z_8203 z_8204 z_8205 z_8206 z_8207 z_8208 z_8209 z_8210
 z_8211 z_8212 z_8213 z_8214 z_8215 z_8216 z_8217 z_8218 z_8219 z_8220 z_8221
 z_8222 z_8223 z_8224 z_8225 z_8226 z_8227 z_8228 z_8229 z_8230 z_8231 z_8232
 z_8233 z_8234 z_8235 z_8236 z_8237 z_8238 z_8239 z_8240 z_8241 z_8242 z_8243
 z_8244 z_8245 z_8246 z_8247 z_8248 z_8249 z_8250 z_8251 z_8252 z_8253 z_8254
 z_8255 z_8256 z_8257 z_8258 z_8259 z_8260 z_8261 z_8262 z_8263 z_8264 z_8265
 z_8266 z_8267 z_8268 z_8269 z_8270 z_8271 z_8272 z_8273 z_8274 z_8275 z_8276
 z_8277 z_8278 z_8279 z_8280 z_8281 z_8282 z_8283 z_8284 z_8285 z_8286 z_8287
 z_8288 z_8289 z_8290 z_8291 z_8292 z_8293 z_8294 z_8295 z_8296 z_8297 z_8298
 z_8299 z_8300 z_8301 z_8302 z_8303 z_8304 z_8305 z_8306 z_8307 z_8308 z_8309
 z_8310 z_8311 z_8312 z_8313 z_8314 z_8315 z_8316 z_8317 z_8318 z_8319 z_8320
 z_8321 z_8322 z_8323 z_8324 z_8325 z_8326 z_8327 z_8328 z_8329 z_8330 z_8331
 z_8332 z_8333 z_8334 z_8335 z_8336 z_8337 z_8338 z_8339 z_8340 z_8341 z_8342
 z_8343 z_8344 z_8345 z_8346 z_8347 z_8348 z_8349 z_8350 z_8351 z_8352 z_8353
 z_8354 z_8355 z_8356 z_8357 z_8358 z_8359 z_8360 z_8361 z_8362 z_8363 z_8364
 z_8365 z_8366 z_8367 z_8368 z_8369 z_8370 z_8371 z_8372 z_8373 z_8374 z_8375
 z_8376 z_8377 z_8378 z_8379 z_8380 z_8381 z_8382 z_8383 z_8384 z_8385 z_8386
 z_8387 z_8388 z_8389 z_8390 z_8391 z_8392 z_8393 z_8394 z_8395 z_8396 z_8397
 z_8398 z_8399 z_8400 z_8401 z_8402 z_8403 z_8404 z_8405 z_8406 z_8407 z_8408
 z_8409 z_8410 z_8411 z_8412 z_8413 z_8414 z_8415 z_8416 z_8417 z_8418 z_8419
 z_8420 z_8421 z_8422 z_8423 z_8424 z_8425 z_8426 z_8427 z_8428 z_8429 z_8430
 z_8431 z_8432 z_8433 z_8434 z_8435 z_8436 z_8437 z_8438 z_8439 z_8440 z_8441
 z_8442 z_8443 z_8444 z_8445 z_8446 z_8447 z_8448 z_8449 z_8450 z_8451 z_8452
 z_8453 z_8454 z_8455 z_8456 z_8457 z_8458 z_8459 z_8460 z_8461 z_8462 z_8463
 z_8464 z_8465 z_8466 z_8467 z_8468 z_8469 z_8470 z_8471 z_8472 z_8473 z_8474
 z_8475 z_8476 z_8477 z_8478 z_8479 z_8480 z_8481 z_8482 z_8483 z_8484 z_8485
 z_8486 z_8487 z_8488 z_8489 z_8490 z_8491 z_8492 z_8493 z_8494 z_8495 z_8496
 z_8497 z_8498 z_8499 z_8500 z_8501 z_8502 z_8503 z_8504 z_8505 z_8506 z_8507
 z_8508 z_8509 z_8510 z_8511 z_8512 z_8513 z_8514 z_8515 z_8516 z_8517 z_8518
 z_8519 z_8520 z_8521 z_8522 z_8523 z_8524 z_8525 z_8526 z_8527 z_8528 z_8529
 z_8530 z_8531 z_8532 z_8533 z_8534 z_8535 z_8536 z_8537 z_8538 z_8539 z_8540
 z_8541 z_8542 z_8543 z_8544 z_8545 z_8546 z_8547 z_8548 z_8549 z_8550 z_8551
 z_8552 z_8553 z_8554 z_8555 z_8556 z_8557 z_8558 z_8559 z_8560 z_8561 z_8562
 z_8563 z_8564 z_8565 z_8566 z_8567 z_8568 z_8569 z_8570 z_8571 z_8572 z_8573
 z_8574 z_8575 z_8576 z_8577 z_8578 z_8579 z_8580 z_8581 z_8582 z_8583 z_8584
 z_8585 z_8586 z_8587 z_8588 z_8589 z_8590 z_8591 z_8592 z_8593 z_8594 z_8595
 z_8596 z_8597 z_8598 z_8599 z_8600 z_8601 z_8602 z_8603 z_8604 z_8605 z_8606
 z_8607 z_8608 z_8609 z_8610 z_8611 z_8612 z_8613 z_8614 z_8615 z_8616 z_8617
 z_8618 z_8619 z_8620 z_8621 z_8622 z_8623 z_8624 z_8625 z_8626 z_8627 z_8628
 z_8629 z_8630 z_8631 z_8632 z_8633 z_8634 z_8635 z_8636 z_8637 z_8638 z_8639
 z_8640 z_8641 z_8642 z_8643 z_8644 z_8645 z_8646 z_8647 z_8648 z_8649 z_8650
 z_8651 z_8652 z_8653 z_8654 z_8655 z_8656 z_8657 z_8658 z_8659 z_8660 z_8661
 z_8662 z_8663 z_8664 z_8665 z_8666 z_8667 z_8668 z_8669 z_8670 z_8671 z_8672
 z_8673 z_8674 z_8675 z_8676 z_8677 z_8678 z_8679 z_8680 z_8681 z_8682 z_8683
 z_8684 z_8685 z_8686 z_8687 z_8688 z_8689 z_8690 z_8691 z_8692 z_8693 z_8694
 z_8695 z_8696 z_8697 z_8698 z_8699 z_8700 z_8701 z_8702 z_8703 z_8704 z_8705
 z_8706 z_8707 z_8708 z_8709 z_8710 z_8711 z_8712 z_8713 z_8714 z_8715 z_8716
 z_8717 z_8718 z_8719 z_8720 z_8721 z_8722 z_8723 z_8724 z_8725 z_8726 z_8727
 z_8728 z_8729 z_8730 z_8731 z_8732 z_8733 z_8734 z_8735 z_8736 z_8737 z_8738
 z_8739 z_8740 z_8741 z_8742 z_8743 z_8744 z_8745 z_8746 z_8747 z_8748 z_8749
 z_8750 z_8751 z_8752 z_8753 z_8754 z_8755 z_8756 z_8757 z_8758 z_8759 z_8760
 z_8761 z_8762 z_8763 z_8764 z_8765 z_8766 z_8767 z_8768 z_8769 z_8770 z_8771
 z_8772 z_8773 z_8774 z_8775 z_8776 z_8777 z_8778 z_8779 z_8780 z_8781 z_8782
 z_8783 z_8784 z_8785 z_8786 z_8787 z_8788 z_8789 z_8790 z_8791 z_8792 z_8793
 z_8794 z_8795 z_8796 z_8797 z_8798 z_8799 z_8800 z_8801 z_8802 z_8803 z_8804
 z_8805 z_8806 z_8807 z_8808 z_8809 z_8810 z_8811 z_8812 z_8813 z_8814 z_8815
 z_8816 z_8817 z_8818 z_8819 z_8820 z_8821 z_8822 z_8823 z_8824 z_8825 z_8826
 z_8827 z_8828 z_8829 z_8830 z_8831 z_8832 z_8833 z_8834 z_8835 z_8836 z_8837
 z_8838 z_8839 z_8840 z_8841 z_8842 z_8843 z_8844 z_8845 z_8846 z_8847 z_8848
 z_8849 z_8850 z_8851 z_8852 z_8853 z_8854 z_8855 z_8856 z_8857 z_8858 z_8859
 z_8860 z_8861 z_8862 z_8863 z_8864 z_8865 z_8866 z_8867 z_8868 z_8869 z_8870
 z_8871 z_8872 z_8873 z_8874 z_8875 z_8876 z_8877 z_8878 z_8879 z_8880 z_8881
 z_8882 z_8883 z_8884 z_8885 z_8886 z_8887 z_8888 z_8889 z_8890 z_8891 z_8892
 z_8893 z_8894 z_8895 z_8896 z_8897 z_8898 z_8899 z_8900 z_8901 z_8902 z_8903
 z_8904 z_8905 z_8906 z_8907 z_8908 z_8909 z_8910 z_8911 z_8912 z_8913 z_8914
 z_8915 z_8916 z_8917 z_8918 z_8919 z_8920 z_8921 z_8922 z_8923 z_8924 z_8925
 z_8926 z_8927 z_8928 z_8929 z_8930 z_8931 z_8932 z_8933 z_8934 z_8935 z_8936
 z_8937 z_8938 z_8939 z_8940 z_8941 z_8942 z_8943 z_8944 z_8945 z_8946 z_8947
 z_8948 z_8949 z_8950 z_8951 z_8952 z_8953 z_8954 z_8955 z_8956 z_8957 z_8958
 z_8959 z_8960 z_8961 z_8962 z_8963 z_8964 z_8965 z_8966 z_8967 z_8968 z_8969
 z_8970 z_8971 z_8972 z_8973 z_8974 z_8975 z_8976 z_8977 z_8978 z_8979 z_8980
 z_8981 z_8982 z_8983 z_8984 z_8985 z_8986 z_8987 z_8988 z_8989 z_8990 z_8991
 z_8992 z_8993 z_8994 z_8995 z_8996 z_8997 z_8998 z_8999 z_9000 z_9001 z_9002
 z_9003 z_9004 z_9005 z_9006 z_9007 z_9008 z_9009 z_9010 z_9011 z_9012 z_9013
 z_9014 z_9015 z_9016 z_9017 z_9018 z_9019 z_9020 z_9021 z_9022 z_9023 z_9024
 z_9025 z_9026 z_9027 z_9028 z_9029 z_9030 z_9031 z_9032 z_9033 z_9034 z_9035
 z_9036 z_9037 z_9038 z_9039 z_9040 z_9041 z_9042 z_9043 z_9044 z_9045 z_9046
 z_9047 z_9048 z_9049 z_9050 z_9051 z_9052 z_9053 z_9054 z_9055 z_9056 z_9057
 z_9058 z_9059 z_9060 z_9061 z_9062 z_9063 z_9064 z_9065 z_9066 z_9067 z_9068
 z_9069 z_9070 z_9071 z_9072 z_9073 z_9074 z_9075 z_9076 z_9077 z_9078 z_9079
 z_9080 z_9081 z_9082 z_9083 z_9084 z_9085 z_9086 z_9087 z_9088 z_9089 z_9090
 z_9091 z_9092 z_9093 z_9094 z_9095 z_9096 z_9097 z_9098 z_9099 z_9100 z_9101
 z_9102 z_9103 z_9104 z_9105 z_9106 z_9107 z_9108 z_9109 z_9110 z_9111 z_9112
 z_9113 z_9114 z_9115 z_9116 z_9117 z_9118 z_9119 z_9120 z_9121 z_9122 z_9123
 z_9124 z_9125 z_9126 z_9127 z_9128 z_9129 z_9130 z_9131 z_9132 z_9133 z_9134
 z_9135 z_9136 z_9137 z_9138 z_9139 z_9140 z_9141 z_9142 z_9143 z_9144 z_9145
 z_9146 z_9147 z_9148 z_9149 z_9150 z_9151 z_9152 z_9153 z_9154 z_9155 z_9156
 z_9157 z_9158 z_9159 z_9160 z_9161 z_9162 z_9163 z_9164 z_9165 z_9166 z_9167
 z_9168 z_9169 z_9170 z_9171 z_9172 z_9173 z_9174 z_9175 z_9176 z_9177 z_9178
 z_9179 z_9180 z_9181 z_9182 z_9183 z_9184 z_9185 z_9186 z_9187 z_9188 z_9189
 z_9190 z_9191 z_9192 z_9193 z_9194 z_9195 z_9196 z_9197 z_9198 z_9199 z_9200
 z_9201 z_9202 z_9203 z_9204 z_9205 z_9206 z_9207 z_9208 z_9209 z_9210 z_9211
 z_9212 z_9213 z_9214 z_9215 z_9216 z_9217 z_9218 z_9219 z_9220 z_9221 z_9222
 z_9223 z_9224 z_9225 z_9226 z_9227 z_9228 z_9229 z_9230 z_9231 z_9232 z_9233
 z_9234 z_9235 z_9236 z_9237 z_9238 z_9239 z_9240 z_9241 z_9242 z_9243 z_9244
 z_9245 z_9246 z_9247 z_9248 z_9249 z_9250 z_9251 z_9252 z_9253 z_9254 z_9255
 z_9256 z_9257 z_9258 z_9259 z_9260 z_9261 z_9262 z_9263 z_9264 z_9265 z_9266
 z_9267 z_9268 z_9269 z_9270 z_9271 z_9272 z_9273 z_9274 z_9275 z_9276 z_9277
 z_9278 z_9279 z_9280 z_9281 z_9282 z_9283 z_9284 z_9285 z_9286 z_9287 z_9288
 z_9289 z_9290 z_9291 z_9292 z_9293 z_9294 z_9295 z_9296 z_9297 z_9298 z_9299
 z_9300 z_9301 z_9302 z_9303 z_9304 z_9305 z_9306 z_9307 z_9308 z_9309 z_9310
 z_9311 z_9312 z_9313 z_9314 z_9315 z_9316 z_9317 z_9318 z_9319 z_9320 z_9321
 z_9322 z_9323 z_9324 z_9325 z_9326 z_9327 z_9328 z_9329 z_9330 z_9331 z_9332
 z_9333 z_9334 z_9335 z_9336 z_9337 z_9338 z_9339 z_9340 z_9341 z_9342 z_9343
 z_9344 z_9345 z_9346 z_9347 z_9348 z_9349 z_9350 z_9351 z_9352 z_9353 z_9354
 z_9355 z_9356 z_9357 z_9358 z_9359 z_9360 z_9361 z_9362 z_9363 z_9364 z_9365
 z_9366 z_9367 z_9368 z_9369 z_9370 z_9371 z_9372 z_9373 z_9374 z_9375 z_9376
 z_9377 z_9378 z_9379 z_9380 z_9381 z_9382 z_9383 z_9384 z_9385 z_9386 z_9387
 z_9388 z_9389 z_9390 z_9391 z_9392 z_9393 z_9394 z_9395 z_9396 z_9397 z_9398
 z_9399 z_9400 z_9401 z_9402 z_9403 z_9404 z_9405 z_9406 z_9407 z_9408 z_9409
 z_9410 z_9411 z_9412 z_9413 z_9414 z_9415 z_9416 z_9417 z_9418 z_9419 z_9420
 z_9421 z_9422 z_9423 z_9424 z_9425 z_9426 z_9427 z_9428 z_9429 z_9430 z_9431
 z_9432 z_9433 z_9434 z_9435 z_9436 z_9437 z_9438 z_9439 z_9440 z_9441 z_9442
 z_9443 z_9444 z_9445 z_9446 z_9447 z_9448 z_9449 z_9450 z_9451 z_9452 z_9453
 z_9454 z_9455 z_9456 z_9457 z_9458 z_9459 z_9460 z_9461 z_9462 z_9463 z_9464
 z_9465 z_9466 z_9467 z_9468 z_9469 z_9470 z_9471 z_9472 z_9473 z_9474 z_9475
 z_9476 z_9477 z_9478 z_9479 z_9480 z_9481 z_9482 z_9483 z_9484 z_9485 z_9486
 z_9487 z_9488 z_9489 z_9490 z_9491 z_9492 z_9493 z_9494 z_9495 z_9496 z_9497
 z_9498 z_9499 z_9500 z_9501 z_9502 z_9503 z_9504 z_9505 z_9506 z_9507 z_9508
 z_9509 z_9510 z_9511 z_9512 z_9513 z_9514 z_9515 z_9516 z_9517 z_9518 z_9519
 z_9520 z_9521 z_9522 z_9523 z_9524 z_9525 z_9526 z_9527 z_9528 z_9529 z_9530
 z_9531 z_9532 z_9533 z_9534 z_9535 z_9536 z_9537 z_9538 z_9539 z_9540 z_9541
 z_9542 z_9543 z_9544 z_9545 z_9546 z_9547 z_9548 z_9549 z_9550 z_9551 z_9552
 z_9553 z_9554 z_9555 z_9556 z_9557 z_9558 z_9559 z_9560 z_9561 z_9562 z_9563
 z_9564 z_9565 z_9566 z_9567 z_9568 z_9569 z_9570 z_9571 z_9572 z_9573 z_9574
 z_9575 z_9576 z_9577 z_9578 z_9579 z_9580 z_9581 z_9582 z_9583 z_9584 z_9585
 z_9586 z_9587 z_9588 z_9589 z_9590 z_9591 z_9592 z_9593 z_9594 z_9595 z_9596
 z_9597 z_9598 z_9599 z_9600 z_9601 z_9602 z_9603 z_9604 z_9605 z_9606 z_9607
 z_9608 z_9609 z_9610 z_9611 z_9612 z_9613 z_9614 z_9615 z_9616 z_9617 z_9618
 z_9619 z_9620 z_9621 z_9622 z_9623 z_9624 z_9625 z_9626 z_9627 z_9628 z_9629
 z_9630 z_9631 z_9632 z_9633 z_9634 z_9635 z_9636 z_9637 z_9638 z_9639 z_9640
 z_9641 z_9642 z_9643 z_9644 z_9645 z_9646 z_9647 z_9648 z_9649 z_9650 z_9651
 z_9652 z_9653 z_9654 z_9655 z_9656 z_9657 z_9658 z_9659 z_9660 z_9661 z_9662
 z_9663 z_9664 z_9665 z_9666 z_9667 z_9668 z_9669 z_9670 z_9671 z_9672 z_9673
 z_9674 z_9675 z_9676 z_9677 z_9678 z_9679 z_9680 z_9681 z_9682 z_9683 z_9684
 z_9685 z_9686 z_9687 z_9688 z_9689 z_9690 z_9691 z_9692 z_9693 z_9694 z_9695
 z_9696 z_9697 z_9698 z_9699 z_9700 z_9701 z_9702 z_9703 z_9704 z_9705 z_9706
 z_9707 z_9708 z_9709 z_9710 z_9711 z_9712 z_9713 z_9714 z_9715 z_9716 z_9717
 z_9718 z_9719 z_9720 z_9721 z_9722 z_9723 z_9724 z_9725 z_9726 z_9727 z_9728
 z_9729 z_9730 z_9731 z_9732 z_9733 z_9734 z_9735 z_9736 z_9737 z_9738 z_9739
 z_9740 z_9741 z_9742 z_9743 z_9744 z_9745 z_9746 z_9747 z_9748 z_9749 z_9750
 z_9751 z_9752 z_9753 z_9754 z_9755 z_9756 z_9757 z_9758 z_9759 z_9760 z_9761
 z_9762 z_9763 z_9764 z_9765 z_9766 z_9767 z_9768 z_9769 z_9770 z_9771 z_9772
 z_9773 z_9774 z_9775 z_9776 z_9777 z_9778 z_9779 z_9780 z_9781 z_9782 z_9783
 z_9784 z_9785 z_9786 z_9787 z_9788 z_9789 z_9790 z_9791 z_9792 z_9793 z_9794
 z_9795 z_9796 z_9797 z_9798 z_9799 z_9800 z_9801 z_9802 z_9803 z_9804 z_9805
 z_9806 z_9807 z_9808 z_9809 z_9810 z_9811 z_9812 z_9813 z_9814 z_9815 z_9816
 z_9817 z_9818 z_9819 z_9820 z_9821 z_9822 z_9823 z_9824 z_9825 z_9826 z_9827
 z_9828 z_9829 z_9830 z_9831 z_9832 z_9833 z_9834 z_9835 z_9836 z_9837 z_9838
 z_9839 z_9840 z_9841 z_9842 z_9843 z_9844 z_9845 z_9846 z_9847 z_9848 z_9849
 z_9850 z_9851 z_9852 z_9853 z_9854 z_9855 z_9856 z_9857 z_9858 z_9859 z_9860
 z_9861 z_9862 z_9863 z_9864 z_9865 z_9866 z_9867 z_9868 z_9869 z_9870 z_9871
 z_9872 z_9873 z_9874 z_9875 z_9876 z_9877 z_9878 z_9879 z_9880 z_9881 z_9882
 z_9883 z_9884 z_9885 z_9886 z_9887 z_9888 z_9889 z_9890 z_9891 z_9892 z_9893
 z_9894 z_9895 z_9896 z_9897 z_9898 z_9899 z_9900 z_9901 z_9902 z_9903 z_9904
 z_9905 z_9906 z_9907 z_9908 z_9909 z_9910 z_9911 z_9912 z_9913 z_9914 z_9915
 z_9916 z_9917 z_9918 z_9919 z_9920 z_9921 z_9922 z_9923 z_9924 z_9925 z_9926
 z_9927 z_9928 z_9929 z_9930 z_9931 z_9932 z_9933 z_9934 z_9935 z_9936 z_9937
 z_9938 z_9939 z_9940 z_9941 z_9942 z_9943 z_9944 z_9945 z_9946 z_9947 z_9948
 z_9949 z_9950 z_9951 z_9952 z_9953 z_9954 z_9955 z_9956 z_9957 z_9958 z_9959
 z_9960 z_9961 z_9962 z_9963 z_9964 z_9965 z_9966 z_9967 z_9968 z_9969 z_9970
 z_9971 z_9972 z_9973 z_9974 z_9975 z_9976 z_9977 z_9978 z_9979 z_9980 z_9981
 z_9982 z_9983 z_9984 z_9985 z_9986 z_9987 z_9988 z_9989 z_9990 z_9991 z_9992
 z_9993 z_9994 z_9995 z_9996 z_9997 z_9998 z_9999
End
