\ Model PLCP_GUROBI_GRID_PSCLP_n100_m1000_d1_100_f10_100_s1
\ LP format - for model browsing. Use MPS format to capture full model detail.
\ Signature: 0x22bcfdf5b771ba6
Minimize
  75 y[0] + 40 y[1] + 69 y[2] + 32 y[3] + 16 y[4] + 80 y[5] + 36 y[6]
   + 38 y[7] + 88 y[8] + 26 y[9] + 27 y[10] + 34 y[11] + 50 y[12]
   + 80 y[13] + 79 y[14] + 28 y[15] + 11 y[16] + 16 y[17] + 52 y[18]
   + 31 y[19] + 85 y[20] + 29 y[21] + 85 y[22] + 31 y[23] + 12 y[24]
   + 39 y[25] + 74 y[26] + 66 y[27] + 26 y[28] + 96 y[29] + 47 y[30]
   + 91 y[31] + 35 y[32] + 69 y[33] + 76 y[34] + 95 y[35] + 11 y[36]
   + 11 y[37] + 32 y[38] + 89 y[39] + 27 y[40] + 12 y[41] + 22 y[42]
   + 31 y[43] + 46 y[44] + 54 y[45] + 12 y[46] + 47 y[47] + 24 y[48]
   + 54 y[49] + 68 y[50] + 62 y[51] + 37 y[52] + 15 y[53] + 83 y[54]
   + 39 y[55] + 98 y[56] + 56 y[57] + 58 y[58] + 77 y[59] + 51 y[60]
   + 58 y[61] + 67 y[62] + 39 y[63] + 26 y[64] + 43 y[65] + 33 y[66]
   + 27 y[67] + 98 y[68] + 18 y[69] + 69 y[70] + 79 y[71] + 74 y[72]
   + 44 y[73] + 63 y[74] + 19 y[75] + 89 y[76] + 65 y[77] + 19 y[78]
   + 12 y[79] + 18 y[80] + 40 y[81] + 64 y[82] + 45 y[83] + 46 y[84]
   + 46 y[85] + 37 y[86] + 97 y[87] + 55 y[88] + 49 y[89] + 74 y[90]
   + 59 y[91] + 97 y[92] + 94 y[93] + 88 y[94] + 77 y[95] + 90 y[96]
   + 74 y[97] + 57 y[98] + 88 y[99]
Subject To
 R0: y[31] + y[37] + y[89] + y[99] - z[0] >= 0
 R1: y[7] + y[23] + y[31] + y[51] + y[62] + y[98] - z[1] >= 0
 R2: y[17] + y[53] + y[58] + y[63] + y[91] - z[2] >= 0
 R3: y[11] + y[19] + y[43] + y[52] + y[59] + y[67] + y[68] + y[69] - z[3]
   >= 0
 R4: y[2] + y[83] + y[84] + y[85] - z[4] >= 0
 R5: y[16] + y[39] + y[40] + y[54] + y[63] + y[66] + y[87] - z[5] >= 0
 R6: y[16] + y[39] + y[40] + y[54] + y[66] + y[87] - z[6] >= 0
 R7: y[16] + y[39] + y[42] + y[53] + y[54] + y[55] + y[63] + y[64] + y[66]
   - z[7] >= 0
 R8: y[22] + y[56] + y[65] - z[8] >= 0
 R9: y[9] + y[26] + y[67] + y[71] + y[97] - z[9] >= 0
 R10: y[4] + y[9] + y[19] + y[26] + y[32] + y[38] + y[44] + y[67] + y[69]
   - z[10] >= 0
 R11: y[15] + y[18] + y[21] + y[36] + y[41] + y[47] + y[95] - z[11] >= 0
 R12: y[4] + y[6] + y[32] + y[90] - z[12] >= 0
 R13: y[40] + y[92] - z[13] >= 0
 R14: y[5] + y[6] + y[34] + y[90] - z[14] >= 0
 R15: y[0] + y[27] + y[45] - z[15] >= 0
 R16: y[3] + y[19] + y[21] + y[33] + y[36] + y[38] + y[41] + y[43] + y[47]
   + y[48] + y[79] - z[16] >= 0
 R17: y[25] + y[29] + y[35] + y[77] - z[17] >= 0
 R18: y[4] + y[5] + y[6] + y[32] + y[44] + y[90] - z[18] >= 0
 R19: y[2] + y[27] + y[42] + y[55] + y[83] - z[19] >= 0
 R20: y[17] + y[39] + y[53] + y[58] + y[63] + y[64] + y[91] - z[20] >= 0
 R21: y[16] + y[50] + y[54] + y[56] + y[58] + y[66] - z[21] >= 0
 R22: y[40] + y[54] + y[87] + y[92] - z[22] >= 0
 R23: y[25] + y[35] + y[40] + y[77] + y[92] - z[23] >= 0
 R24: y[3] + y[5] + y[20] + y[33] + y[34] + y[38] + y[44] + y[48] + y[61]
   + y[79] + y[93] - z[24] >= 0
 R25: y[8] + y[17] + y[75] + y[96] - z[25] >= 0
 R26: y[50] + y[56] + y[65] - z[26] >= 0
 R27: y[5] + y[8] + y[17] + y[34] + y[75] + y[80] + y[96] - z[27] >= 0
 R28: y[0] + y[16] + y[39] + y[42] + y[53] + y[54] + y[55] + y[63] + y[64]
   - z[28] >= 0
 R29: y[40] + y[55] + y[92] - z[29] >= 0
 R30: y[37] + y[45] + y[73] + y[89] - z[30] >= 0
 R31: y[16] + y[39] + y[40] + y[54] + y[63] + y[66] + y[87] - z[31] >= 0
 R32: y[25] + y[29] + y[35] + y[50] + y[77] + y[87] - z[32] >= 0
 R33: y[3] + y[19] + y[21] + y[30] + y[38] + y[43] + y[52] + y[59] + y[94]
   - z[33] >= 0
 R34: y[40] + y[87] + y[92] - z[34] >= 0
 R35: y[12] + y[57] + y[72] + y[88] - z[35] >= 0
 R36: y[5] + y[8] + y[17] + y[34] + y[91] - z[36] >= 0
 R37: y[16] + y[39] + y[40] + y[54] + y[55] + y[63] + y[64] + y[66] + y[87]
   - z[37] >= 0
 R38: y[0] + y[27] + y[42] + y[55] + y[63] + y[64] - z[38] >= 0
 R39: y[56] + y[65] - z[39] >= 0
 R40: y[84] + y[85] - z[40] >= 0
 R41: y[0] + y[27] + y[42] + y[55] + y[64] - z[41] >= 0
 R42: y[12] + y[22] + y[32] + y[88] - z[42] >= 0
 R43: y[7] + y[31] + y[51] + y[62] + y[89] + y[98] + y[99] - z[43] >= 0
 R44: y[1] + y[8] + y[73] + y[75] + y[96] - z[44] >= 0
 R45: y[9] + y[11] + y[26] + y[67] + y[68] + y[69] + y[97] - z[45] >= 0
 R46: y[3] + y[19] + y[21] + y[33] + y[38] + y[41] + y[44] + y[48] + y[61]
   + y[79] - z[46] >= 0
 R47: y[7] + y[23] + y[31] + y[51] + y[62] + y[89] + y[98] + y[99] - z[47]
   >= 0
 R48: y[2] + y[14] + y[42] + y[55] + y[82] + y[83] + y[85] - z[48] >= 0
 R49: y[96] - z[49] >= 0
 R50: y[19] + y[21] + y[30] + y[43] + y[48] + y[59] + y[94] - z[50] >= 0
 R51: y[7] + y[23] + y[31] + y[51] + y[62] + y[89] + y[98] + y[99] - z[51]
   >= 0
 R52: y[5] + y[34] + y[90] - z[52] >= 0
 R53: y[12] + y[57] + y[65] + y[72] + y[78] + y[88] - z[53] >= 0
 R54: y[0] + y[45] - z[54] >= 0
 R55: y[15] + y[18] + y[20] + y[21] + y[33] + y[36] + y[41] + y[47] + y[48]
   + y[61] + y[79] + y[93] + y[95] - z[55] >= 0
 R56: y[16] + y[50] + y[54] + y[56] + y[58] + y[66] - z[56] >= 0
 R57: y[9] + y[11] + y[26] + y[38] + y[67] + y[68] + y[69] - z[57] >= 0
 R58: y[40] + y[87] + y[92] - z[58] >= 0
 R59: y[17] + y[53] + y[58] + y[63] + y[91] - z[59] >= 0
 R60: y[1] + y[37] + y[73] + y[89] + y[96] + y[99] - z[60] >= 0
 R61: y[13] + y[57] + y[60] + y[65] + y[72] + y[76] + y[78] + y[81] - z[61]
   >= 0
 R62: y[25] + y[29] + y[35] + y[50] + y[56] + y[77] + y[87] - z[62] >= 0
 R63: y[12] + y[57] + y[72] + y[88] - z[63] >= 0
 R64: y[21] + y[30] + y[36] + y[41] + y[43] + y[47] + y[48] + y[94] - z[64]
   >= 0
 R65: y[37] + y[45] - z[65] >= 0
 R66: y[1] + y[23] + y[31] + y[37] + y[73] + y[89] + y[98] + y[99] - z[66]
   >= 0
 R67: y[16] + y[50] + y[54] + y[56] + y[58] + y[66] - z[67] >= 0
 R68: y[3] + y[5] + y[33] + y[34] + y[38] + y[44] + y[90] - z[68] >= 0
 R69: y[16] + y[39] + y[40] + y[50] + y[54] + y[66] + y[87] - z[69] >= 0
 R70: y[13] + y[28] + y[60] + y[76] + y[81] - z[70] >= 0
 R71: y[9] + y[26] + y[67] + y[69] + y[71] + y[97] - z[71] >= 0
 R72: y[22] + y[50] + y[56] + y[65] - z[72] >= 0
 R73: y[29] - z[73] >= 0
 R74: y[15] + y[18] + y[21] + y[36] + y[41] + y[47] + y[48] + y[79] + y[94]
   - z[74] >= 0
 R75: y[16] + y[39] + y[50] + y[54] + y[66] + y[87] - z[75] >= 0
 R76: y[1] + y[8] + y[20] + y[46] + y[75] + y[80] + y[93] - z[76] >= 0
 R77: y[25] + y[29] + y[35] + y[50] + y[56] + y[66] + y[77] + y[87] - z[77]
   >= 0
 R78: y[37] + y[45] + y[73] + y[96] - z[78] >= 0
 R79: y[16] + y[25] + y[50] + y[54] + y[56] + y[66] + y[77] + y[87] - z[79]
   >= 0
 R80: y[16] + y[17] + y[39] + y[53] + y[58] + y[63] + y[91] - z[80] >= 0
 R81: y[0] + y[27] + y[42] + y[55] + y[64] - z[81] >= 0
 R82: y[12] + y[22] + y[57] + y[65] + y[72] + y[88] - z[82] >= 0
 R83: y[8] + y[73] + y[96] - z[83] >= 0
 R84: y[14] + y[27] + y[82] - z[84] >= 0
 R85: y[2] + y[14] + y[82] + y[83] + y[84] + y[85] - z[85] >= 0
 R86: y[25] + y[29] + y[35] + y[77] - z[86] >= 0
 R87: y[1] + y[31] + y[73] + y[89] + y[99] - z[87] >= 0
 R88: y[65] - z[88] >= 0
 R89: y[1] + y[31] + y[37] + y[73] + y[89] + y[99] - z[89] >= 0
 R90: y[12] + y[71] + y[88] - z[90] >= 0
 R91: y[37] + y[45] + y[89] - z[91] >= 0
 R92: y[4] + y[12] + y[22] + y[32] + y[88] - z[92] >= 0
 R93: y[2] + y[83] + y[84] + y[85] - z[93] >= 0
 R94: y[12] + y[57] + y[88] - z[94] >= 0
 R95: y[3] + y[4] + y[19] + y[26] + y[32] + y[33] + y[38] + y[44] + y[90]
   - z[95] >= 0
 R96: y[2] + y[40] + y[83] + y[85] + y[92] - z[96] >= 0
 R97: y[13] + y[28] + y[60] + y[76] + y[81] - z[97] >= 0
 R98: y[3] + y[15] + y[20] + y[21] + y[33] + y[34] + y[41] + y[48] + y[61]
   + y[79] + y[80] + y[93] - z[98] >= 0
 R99: y[17] + y[39] + y[53] + y[58] + y[63] + y[64] + y[91] - z[99] >= 0
 R100: y[9] + y[26] + y[71] - z[100] >= 0
 R101: y[5] + y[17] + y[53] + y[58] + y[91] - z[101] >= 0
 R102: y[16] + y[39] + y[53] + y[54] + y[58] + y[63] + y[66] + y[91]
   - z[102] >= 0
 R103: y[3] + y[19] + y[21] + y[30] + y[36] + y[41] + y[43] + y[47] + y[48]
   + y[59] + y[94] - z[103] >= 0
 R104: y[25] + y[29] + y[35] + y[50] + y[56] + y[66] + y[77] + y[87]
   - z[104] >= 0
 R105: y[17] + y[53] + y[58] + y[91] - z[105] >= 0
 R106: y[8] + y[17] + y[34] + y[96] - z[106] >= 0
 R107: y[3] + y[11] + y[19] + y[30] + y[38] + y[43] + y[52] + y[59] + y[67]
   + y[68] + y[69] - z[107] >= 0
 R108: y[13] + y[28] + y[60] + y[76] + y[78] + y[81] - z[108] >= 0
 R109: y[2] + y[14] + y[82] + y[83] + y[84] + y[85] - z[109] >= 0
 R110: y[50] + y[56] + y[66] + y[87] - z[110] >= 0
 R111: y[0] + y[2] + y[27] + y[42] + y[55] + y[64] - z[111] >= 0
 R112: y[3] + y[19] + y[21] + y[33] + y[36] + y[41] + y[43] + y[47] + y[48]
   + y[79] + y[94] - z[112] >= 0
 R113: y[3] + y[19] + y[21] + y[33] + y[38] + y[41] + y[43] + y[44] + y[48]
   + y[79] - z[113] >= 0
 R114: y[35] + y[40] + y[92] - z[114] >= 0
 R115: y[3] + y[11] + y[19] + y[26] + y[33] + y[38] + y[43] + y[44] + y[67]
   + y[68] + y[69] - z[115] >= 0
 R116: y[8] + y[15] + y[20] + y[46] + y[49] + y[74] + y[75] + y[80] + y[93]
   + y[95] - z[116] >= 0
 R117: y[22] + y[56] + y[57] + y[65] + y[72] - z[117] >= 0
 R118: y[4] + y[9] + y[26] + y[32] + y[67] + y[69] - z[118] >= 0
 R119: y[9] + y[11] + y[26] + y[67] + y[68] + y[69] + y[97] - z[119] >= 0
 R120: y[1] + y[73] + y[96] - z[120] >= 0
 R121: y[12] + y[22] + y[57] + y[88] - z[121] >= 0
 R122: y[4] + y[6] + y[22] + y[32] + y[90] - z[122] >= 0
 R123: y[12] + y[22] + y[57] + y[88] - z[123] >= 0
 R124: y[25] + y[29] + y[35] + y[50] + y[56] + y[66] + y[77] + y[87]
   - z[124] >= 0
 R125: y[25] + y[29] + y[35] + y[77] - z[125] >= 0
 R126: y[6] + y[22] - z[126] >= 0
 R127: y[3] + y[19] + y[26] + y[33] + y[38] + y[44] + y[48] + y[69]
   - z[127] >= 0
 R128: y[3] + y[4] + y[9] + y[19] + y[26] + y[32] + y[38] + y[44] + y[67]
   + y[69] + y[90] - z[128] >= 0
 R129: y[15] + y[18] + y[36] + y[41] + y[46] + y[47] + y[49] + y[74]
   + y[79] + y[95] - z[129] >= 0
 R130: y[1] + y[8] + y[46] + y[49] + y[73] + y[75] + y[80] + y[95] - z[130]
   >= 0
 R131: y[16] + y[39] + y[42] + y[53] + y[54] + y[55] + y[63] + y[64]
   + y[66] - z[131] >= 0
 R132: y[35] + y[92] - z[132] >= 0
 R133: y[15] + y[18] + y[20] + y[21] + y[36] + y[41] + y[46] + y[47]
   + y[48] + y[61] + y[75] + y[79] + y[80] + y[93] + y[95] - z[133] >= 0
 R134: y[8] + y[17] + y[34] + y[75] + y[80] + y[96] - z[134] >= 0
 R135: y[16] + y[39] + y[53] + y[58] + y[91] - z[135] >= 0
 R136: y[3] + y[19] + y[33] + y[38] + y[44] + y[48] + y[61] + y[79]
   - z[136] >= 0
 R137: y[1] + y[37] + y[73] + y[96] - z[137] >= 0
 R138: y[13] + y[28] + y[60] + y[76] - z[138] >= 0
 R139: y[9] + y[11] + y[26] + y[67] + y[68] + y[69] + y[97] - z[139] >= 0
 R140: y[4] + y[9] + y[26] + y[32] + y[67] + y[69] - z[140] >= 0
 R141: y[17] + y[96] - z[141] >= 0
 R142: y[28] - z[142] >= 0
 R143: y[22] + y[57] + y[65] + y[72] - z[143] >= 0
 R144: y[1] + y[8] + y[46] + y[49] + y[74] + y[75] + y[80] + y[95] - z[144]
   >= 0
 R145: y[12] + y[22] + y[57] + y[72] + y[88] - z[145] >= 0
 R146: y[1] + y[46] + y[49] + y[74] + y[75] + y[95] - z[146] >= 0
 R147: y[16] + y[39] + y[53] + y[54] + y[55] + y[58] + y[63] + y[64]
   + y[66] - z[147] >= 0
 R148: y[2] + y[14] + y[82] + y[83] + y[85] - z[148] >= 0
 R149: y[4] + y[9] + y[12] + y[32] + y[71] + y[88] - z[149] >= 0
 R150: y[1] + y[37] + y[73] + y[96] - z[150] >= 0
 R151: y[2] + y[14] + y[82] + y[83] + y[85] - z[151] >= 0
 R152: y[3] + y[5] + y[19] + y[33] + y[34] + y[38] + y[44] + y[48] + y[61]
   + y[79] - z[152] >= 0
 R153: y[45] - z[153] >= 0
 R154: y[1] + y[23] + y[46] + y[49] + y[74] + y[98] - z[154] >= 0
 R155: y[30] + y[43] + y[52] + y[59] + y[94] - z[155] >= 0
 R156: y[15] + y[18] + y[36] + y[41] + y[46] + y[47] + y[49] + y[74]
   + y[95] - z[156] >= 0
 R157: y[5] + y[6] + y[34] + y[90] + y[91] - z[157] >= 0
 R158: y[7] + y[31] + y[37] + y[51] + y[89] + y[99] - z[158] >= 0
 R159: y[73] + y[96] - z[159] >= 0
 R160: y[46] + y[49] + y[74] - z[160] >= 0
 R161: y[0] + y[2] + y[14] + y[27] + y[42] + y[82] - z[161] >= 0
 R162: y[45] + y[96] - z[162] >= 0
 R163: y[8] + y[20] + y[46] + y[75] + y[80] + y[93] + y[95] - z[163] >= 0
 R164: y[1] + y[23] + y[31] + y[46] + y[73] + y[75] + y[89] + y[99]
   - z[164] >= 0
 R165: y[4] + y[6] + y[9] + y[26] + y[32] + y[38] + y[44] + y[90] - z[165]
   >= 0
 R166: y[25] + y[29] + y[35] + y[50] + y[56] + y[66] + y[77] + y[87]
   - z[166] >= 0
 R167: y[1] + y[23] + y[31] + y[46] + y[49] + y[73] + y[89] + y[98] + y[99]
   - z[167] >= 0
 R168: y[37] + y[45] + y[73] + y[96] - z[168] >= 0
 R169: y[5] + y[6] + y[34] + y[44] + y[90] - z[169] >= 0
 R170: y[5] + y[8] + y[17] + y[34] + y[75] + y[80] + y[93] - z[170] >= 0
 R171: y[25] + y[29] + y[35] + y[50] + y[56] + y[66] + y[77] + y[87]
   - z[171] >= 0
 R172: y[25] + y[29] + y[35] + y[77] + y[92] - z[172] >= 0
 R173: y[17] + y[53] + y[63] + y[91] + y[96] - z[173] >= 0
 R174: y[0] - z[174] >= 0
 R175: y[9] + y[12] + y[71] + y[88] - z[175] >= 0
 R176: y[25] + y[29] + y[35] + y[77] - z[176] >= 0
 R177: y[0] + y[27] + y[42] + y[55] + y[63] + y[64] - z[177] >= 0
 R178: y[17] + y[39] + y[53] + y[58] + y[63] + y[64] + y[91] - z[178] >= 0
 R179: y[12] + y[88] - z[179] >= 0
 R180: y[12] + y[22] + y[32] + y[88] - z[180] >= 0
 R181: y[67] + y[68] + y[97] - z[181] >= 0
 R182: y[8] + y[15] + y[20] + y[46] + y[61] + y[75] + y[79] + y[80] + y[93]
   + y[95] - z[182] >= 0
 R183: y[17] + y[39] + y[53] + y[58] + y[63] + y[91] - z[183] >= 0
 R184: y[18] + y[21] + y[36] + y[41] + y[47] - z[184] >= 0
 R185: y[13] + y[28] + y[60] + y[76] + y[78] + y[81] - z[185] >= 0
 R186: y[8] + y[17] + y[96] - z[186] >= 0
 R187: y[57] + y[65] + y[72] - z[187] >= 0
 R188: y[46] + y[49] + y[74] + y[95] - z[188] >= 0
 R189: y[0] + y[17] + y[53] + y[63] + y[64] - z[189] >= 0
 R190: y[3] + y[15] + y[18] + y[20] + y[21] + y[33] + y[36] + y[41] + y[47]
   + y[48] + y[61] + y[79] + y[93] + y[95] - z[190] >= 0
 R191: y[7] + y[31] + y[51] + y[62] + y[89] + y[98] - z[191] >= 0
 R192: y[1] + y[31] + y[37] + y[73] + y[89] + y[99] - z[192] >= 0
 R193: y[4] + y[6] + y[32] + y[90] - z[193] >= 0
 R194: y[4] + y[12] + y[22] + y[32] + y[88] - z[194] >= 0
 R195: y[0] + y[27] + y[45] - z[195] >= 0
 R196: y[7] + y[23] + y[31] + y[51] + y[62] + y[98] + y[99] - z[196] >= 0
 R197: y[4] + y[12] + y[32] + y[88] - z[197] >= 0
 R198: y[1] + y[73] + y[75] + y[96] + y[99] - z[198] >= 0
 R199: y[2] + y[14] + y[27] + y[42] + y[55] + y[82] + y[83] - z[199] >= 0
 R200: y[23] + y[49] + y[74] + y[98] - z[200] >= 0
 R201: y[6] + y[22] - z[201] >= 0
 R202: y[5] + y[17] + y[34] + y[58] + y[91] - z[202] >= 0
 R203: y[16] + y[40] + y[54] + y[66] + y[87] + y[92] - z[203] >= 0
 R204: y[56] + y[58] + y[91] - z[204] >= 0
 R205: y[46] + y[49] + y[74] + y[95] - z[205] >= 0
 R206: y[4] + y[9] + y[26] + y[32] + y[67] - z[206] >= 0
 R207: y[2] + y[83] + y[85] - z[207] >= 0
 R208: y[50] + y[56] + y[65] - z[208] >= 0
 R209: y[8] + y[17] + y[96] - z[209] >= 0
 R210: y[8] + y[17] + y[96] - z[210] >= 0
 R211: y[9] + y[71] - z[211] >= 0
 R212: y[16] + y[39] + y[50] + y[54] + y[56] + y[66] + y[87] - z[212] >= 0
 R213: y[10] - z[213] >= 0
 R214: y[24] + y[70] + y[86] - z[214] >= 0
 R215: y[8] + y[15] + y[20] + y[34] + y[46] + y[61] + y[75] + y[80] + y[93]
   + y[95] - z[215] >= 0
 R216: y[7] + y[23] + y[31] + y[51] + y[62] + y[89] + y[98] + y[99]
   - z[216] >= 0
 R217: y[12] + y[32] + y[71] + y[88] - z[217] >= 0
 R218: y[15] + y[20] + y[21] + y[33] + y[34] + y[41] + y[47] + y[48]
   + y[61] + y[79] + y[80] + y[93] + y[95] - z[218] >= 0
 R219: y[46] + y[49] + y[74] + y[95] - z[219] >= 0
 R220: y[12] + y[22] + y[57] + y[72] + y[78] + y[88] - z[220] >= 0
 R221: y[0] + y[27] + y[42] + y[55] + y[64] - z[221] >= 0
 R222: y[1] + y[31] + y[37] + y[73] + y[89] + y[99] - z[222] >= 0
 R223: y[16] + y[50] + y[56] + y[66] - z[223] >= 0
 R224: y[2] + y[14] + y[82] + y[83] + y[84] + y[85] - z[224] >= 0
 R225: y[37] + y[45] + y[73] + y[96] - z[225] >= 0
 R226: y[1] + y[23] + y[46] + y[49] + y[74] + y[98] - z[226] >= 0
 R227: y[12] + y[22] + y[57] + y[65] + y[72] + y[78] + y[88] - z[227] >= 0
 R228: y[13] + y[57] + y[60] + y[65] + y[72] + y[76] + y[78] + y[81]
   - z[228] >= 0
 R229: y[16] + y[25] + y[40] + y[54] + y[66] + y[87] + y[92] - z[229] >= 0
 R230: y[10] + y[13] + y[57] + y[60] + y[72] + y[76] + y[78] + y[81]
   - z[230] >= 0
 R231: y[83] + y[84] + y[85] - z[231] >= 0
 R232: y[13] + y[28] + y[60] + y[72] + y[76] + y[78] + y[81] - z[232] >= 0
 R233: y[5] + y[20] + y[33] + y[34] + y[44] + y[61] + y[90] + y[93]
   - z[233] >= 0
 R234: y[2] + y[82] + y[83] + y[84] + y[85] - z[234] >= 0
 R235: y[25] + y[35] + y[40] + y[77] + y[87] + y[92] - z[235] >= 0
 R236: y[4] + y[6] + y[32] + y[90] - z[236] >= 0
 R237: y[50] + y[56] - z[237] >= 0
 R238: y[30] + y[43] + y[52] + y[59] + y[94] - z[238] >= 0
 R239: y[16] + y[25] + y[40] + y[50] + y[54] + y[56] + y[66] + y[77]
   + y[87] - z[239] >= 0
 R240: y[12] + y[71] + y[88] - z[240] >= 0
 R241: y[1] + y[31] + y[37] + y[73] + y[89] + y[96] + y[99] - z[241] >= 0
 R242: y[18] + y[21] + y[30] + y[36] + y[47] + y[94] - z[242] >= 0
 R243: y[9] + y[71] - z[243] >= 0
 R244: y[4] + y[9] + y[26] + y[32] + y[38] + y[67] + y[69] - z[244] >= 0
 R245: y[16] + y[39] + y[42] + y[53] + y[54] + y[55] + y[63] + y[64]
   - z[245] >= 0
 R246: y[37] + y[45] + y[73] - z[246] >= 0
 R247: y[29] - z[247] >= 0
 R248: y[1] + y[23] + y[46] + y[49] + y[73] + y[75] + y[98] + y[99]
   - z[248] >= 0
 R249: y[8] + y[73] + y[75] + y[96] - z[249] >= 0
 R250: y[0] + y[2] + y[14] + y[27] + y[42] + y[55] - z[250] >= 0
 R251: y[0] + y[16] + y[39] + y[42] + y[54] + y[55] + y[63] + y[64]
   - z[251] >= 0
 R252: y[2] + y[40] + y[55] + y[83] + y[85] - z[252] >= 0
 R253: y[25] + y[29] + y[35] + y[77] + y[87] + y[92] - z[253] >= 0
 R254: y[10] + y[13] + y[60] + y[72] + y[76] + y[78] + y[81] - z[254] >= 0
 R255: y[13] + y[60] + y[65] + y[72] - z[255] >= 0
 R256: y[25] + y[29] + y[35] + y[77] + y[87] + y[92] - z[256] >= 0
 R257: y[7] + y[23] + y[31] + y[51] + y[62] + y[89] + y[98] + y[99]
   - z[257] >= 0
 R258: y[24] + y[52] + y[59] + y[70] + y[86] - z[258] >= 0
 R259: y[50] + y[56] + y[66] - z[259] >= 0
 R260: y[16] + y[25] + y[35] + y[40] + y[50] + y[54] + y[66] + y[77]
   + y[87] + y[92] - z[260] >= 0
 R261: y[17] + y[39] + y[53] + y[58] + y[63] + y[91] - z[261] >= 0
 R262: y[1] + y[7] + y[23] + y[31] + y[49] + y[51] + y[98] + y[99] - z[262]
   >= 0
 R263: y[5] + y[17] + y[34] + y[91] - z[263] >= 0
 R264: y[16] + y[40] + y[54] + y[55] + y[92] - z[264] >= 0
 R265: y[4] + y[9] + y[19] + y[26] + y[32] + y[38] + y[44] + y[90] - z[265]
   >= 0
 R266: y[25] + y[29] + y[35] + y[77] - z[266] >= 0
 R267: y[0] + y[27] + y[42] - z[267] >= 0
 R268: y[4] + y[9] + y[12] + y[26] + y[32] + y[88] - z[268] >= 0
 R269: y[22] + y[50] + y[56] + y[65] - z[269] >= 0
 R270: y[8] + y[17] + y[75] + y[96] - z[270] >= 0
 R271: y[50] + y[56] - z[271] >= 0
 R272: y[16] + y[39] + y[42] + y[53] + y[54] + y[55] + y[63] + y[64]
   - z[272] >= 0
 R273: y[3] + y[11] + y[19] + y[26] + y[38] + y[43] + y[52] + y[67] + y[68]
   + y[69] - z[273] >= 0
 R274: y[3] + y[4] + y[9] + y[19] + y[26] + y[33] + y[38] + y[44] + y[67]
   + y[69] - z[274] >= 0
 R275: y[11] + y[24] + y[52] + y[68] + y[70] + y[86] + y[97] - z[275] >= 0
 R276: y[45] + y[96] - z[276] >= 0
 R277: y[3] + y[4] + y[19] + y[26] + y[32] + y[33] + y[38] + y[44] + y[90]
   - z[277] >= 0
 R278: y[15] + y[18] + y[20] + y[21] + y[36] + y[41] + y[46] + y[47]
   + y[48] + y[61] + y[79] + y[80] + y[93] + y[95] - z[278] >= 0
 R279: y[22] + y[57] + y[65] + y[72] - z[279] >= 0
 R280: y[9] + y[12] + y[71] - z[280] >= 0
 R281: y[37] + y[45] - z[281] >= 0
 R282: y[15] + y[20] + y[41] + y[46] + y[47] + y[48] + y[61] + y[75]
   + y[79] + y[80] + y[93] + y[95] - z[282] >= 0
 R283: y[31] + y[37] + y[89] + y[99] - z[283] >= 0
 R284: y[22] + y[65] - z[284] >= 0
 R285: y[13] + y[28] + y[60] + y[76] + y[81] - z[285] >= 0
 R286: y[71] - z[286] >= 0
 R287: y[3] + y[19] + y[26] + y[33] + y[38] + y[44] + y[69] - z[287] >= 0
 R288: y[0] + y[96] - z[288] >= 0
 R289: y[25] + y[29] + y[35] + y[50] + y[77] - z[289] >= 0
 R290: y[4] + y[9] + y[12] + y[32] + y[88] - z[290] >= 0
 R291: y[83] + y[84] + y[85] - z[291] >= 0
 R292: y[10] + y[57] + y[60] + y[72] + y[76] + y[78] + y[81] - z[292] >= 0
 R293: y[8] + y[17] + y[96] - z[293] >= 0
 R294: y[24] + y[52] + y[59] + y[70] + y[86] - z[294] >= 0
 R295: y[2] + y[14] + y[82] + y[83] + y[85] - z[295] >= 0
 R296: y[3] + y[5] + y[15] + y[20] + y[33] + y[34] + y[41] + y[48] + y[61]
   + y[79] + y[80] + y[93] - z[296] >= 0
 R297: y[85] + y[92] - z[297] >= 0
 R298: y[8] + y[15] + y[20] + y[34] + y[61] + y[75] + y[80] + y[93] + y[95]
   - z[298] >= 0
 R299: y[1] + y[23] + y[46] + y[49] + y[74] + y[98] - z[299] >= 0
 R300: y[11] + y[52] + y[59] + y[67] + y[68] + y[69] + y[97] - z[300] >= 0
 R301: y[2] + y[14] + y[82] + y[83] + y[84] + y[85] - z[301] >= 0
 R302: y[22] + y[57] + y[65] + y[72] - z[302] >= 0
 R303: y[40] + y[83] + y[85] + y[92] - z[303] >= 0
 R304: y[16] + y[39] + y[40] + y[42] + y[54] + y[55] + y[63] + y[64]
   - z[304] >= 0
 R305: y[11] + y[24] + y[30] + y[43] + y[52] + y[59] + y[70] - z[305] >= 0
 R306: y[40] + y[83] + y[85] + y[92] - z[306] >= 0
 R307: y[7] + y[31] + y[37] + y[51] + y[62] + y[89] + y[99] - z[307] >= 0
 R308: y[3] + y[19] + y[33] + y[38] + y[44] + y[48] + y[90] - z[308] >= 0
 R309: y[6] + y[58] + y[91] - z[309] >= 0
 R310: y[16] + y[39] + y[53] + y[54] + y[55] + y[58] + y[63] + y[64]
   + y[66] - z[310] >= 0
 R311: y[25] + y[35] + y[40] + y[66] + y[77] + y[87] + y[92] - z[311] >= 0
 R312: y[12] + y[88] - z[312] >= 0
 R313: y[9] + y[26] + y[67] + y[68] + y[69] + y[97] - z[313] >= 0
 R314: y[11] + y[24] + y[43] + y[52] + y[59] + y[68] + y[70] + y[86]
   - z[314] >= 0
 R315: y[16] + y[25] + y[40] + y[50] + y[54] + y[56] + y[66] + y[87]
   - z[315] >= 0
 R316: y[17] + y[53] + y[91] + y[96] - z[316] >= 0
 R317: y[21] + y[30] + y[36] + y[43] + y[47] + y[94] - z[317] >= 0
 R318: y[40] + y[83] + y[85] + y[92] - z[318] >= 0
 R319: y[9] + y[71] - z[319] >= 0
 R320: y[50] + y[56] + y[65] - z[320] >= 0
 R321: y[25] + y[29] + y[50] + y[56] + y[77] - z[321] >= 0
 R322: y[4] + y[6] + y[22] + y[32] + y[90] - z[322] >= 0
 R323: y[71] + y[97] - z[323] >= 0
 R324: y[12] + y[71] + y[88] - z[324] >= 0
 R325: y[11] + y[52] + y[67] + y[68] + y[69] + y[97] - z[325] >= 0
 R326: y[1] + y[73] + y[96] - z[326] >= 0
 R327: y[7] + y[23] + y[31] + y[51] + y[62] + y[89] + y[98] + y[99]
   - z[327] >= 0
 R328: y[13] + y[28] + y[60] + y[76] + y[81] - z[328] >= 0
 R329: y[25] + y[29] + y[35] + y[50] + y[54] + y[56] + y[66] + y[77]
   + y[87] - z[329] >= 0
 R330: y[2] + y[14] + y[82] + y[83] + y[84] + y[85] - z[330] >= 0
 R331: y[4] + y[5] + y[6] + y[32] + y[44] + y[90] - z[331] >= 0
 R332: y[8] + y[20] + y[34] + y[75] + y[80] + y[93] + y[96] - z[332] >= 0
 R333: y[16] + y[39] + y[53] + y[58] + y[91] - z[333] >= 0
 R334: y[45] + y[96] - z[334] >= 0
 R335: y[2] + y[14] + y[27] + y[82] + y[83] - z[335] >= 0
 R336: y[0] + y[27] + y[42] + y[55] + y[63] + y[64] - z[336] >= 0
 R337: y[29] + y[77] - z[337] >= 0
 R338: y[0] + y[27] + y[42] + y[55] + y[63] + y[64] - z[338] >= 0
 R339: y[1] + y[23] + y[46] + y[49] + y[74] + y[98] - z[339] >= 0
 R340: y[1] + y[7] + y[23] + y[31] + y[37] + y[51] + y[73] + y[89] + y[98]
   + y[99] - z[340] >= 0
 R341: y[8] + y[17] + y[73] + y[96] - z[341] >= 0
 R342: y[5] + y[34] + y[61] + y[93] - z[342] >= 0
 R343: y[5] + y[34] - z[343] >= 0
 R344: y[35] + y[40] + y[92] - z[344] >= 0
 R345: y[17] + y[73] + y[96] - z[345] >= 0
 R346: y[13] + y[57] + y[60] + y[72] + y[76] + y[78] + y[81] - z[346] >= 0
 R347: y[3] + y[11] + y[19] + y[26] + y[38] + y[43] + y[52] + y[59] + y[67]
   + y[68] + y[69] - z[347] >= 0
 R348: y[1] + y[31] + y[37] + y[73] + y[89] + y[99] - z[348] >= 0
 R349: y[9] + y[26] + y[38] + y[67] + y[68] + y[69] - z[349] >= 0
 R350: y[65] - z[350] >= 0
 R351: y[2] + y[83] + y[84] + y[85] - z[351] >= 0
 R352: y[16] + y[50] + y[54] + y[56] + y[66] - z[352] >= 0
 R353: y[12] + y[22] + y[57] + y[65] + y[72] + y[88] - z[353] >= 0
 R354: y[46] + y[49] + y[74] + y[95] - z[354] >= 0
 R355: y[4] + y[9] + y[12] + y[32] + y[88] - z[355] >= 0
 R356: y[1] + y[23] + y[49] + y[74] + y[98] - z[356] >= 0
 R357: y[10] + y[12] + y[57] + y[72] + y[78] + y[88] - z[357] >= 0
 R358: y[5] + y[8] + y[20] + y[34] + y[61] + y[75] + y[80] + y[93] - z[358]
   >= 0
 R359: y[2] + y[14] + y[27] + y[42] + y[55] + y[82] + y[83] - z[359] >= 0
 R360: y[8] + y[17] + y[75] + y[96] - z[360] >= 0
 R361: y[1] + y[23] + y[31] + y[37] + y[73] + y[89] + y[98] + y[99]
   - z[361] >= 0
 R362: y[85] + y[92] - z[362] >= 0
 R363: y[5] + y[8] + y[17] + y[34] + y[80] - z[363] >= 0
 R364: y[1] + y[8] + y[46] + y[73] + y[75] + y[99] - z[364] >= 0
 R365: - z[365] >= 0
 R366: y[2] + y[14] + y[82] + y[83] + y[85] - z[366] >= 0
 R367: y[12] + y[22] + y[57] + y[72] + y[88] - z[367] >= 0
 R368: y[58] - z[368] >= 0
 R369: y[25] + y[35] + y[40] + y[77] + y[87] + y[92] - z[369] >= 0
 R370: y[3] + y[19] + y[21] + y[30] + y[33] + y[36] + y[38] + y[41] + y[43]
   + y[47] + y[48] + y[94] - z[370] >= 0
 R371: y[25] + y[35] + y[40] + y[77] + y[87] + y[92] - z[371] >= 0
 R372: y[1] + y[31] + y[37] + y[73] + y[89] + y[96] + y[99] - z[372] >= 0
 R373: y[22] - z[373] >= 0
 R374: y[22] + y[50] + y[56] + y[65] - z[374] >= 0
 R375: y[25] + y[35] + y[40] + y[77] + y[87] + y[92] - z[375] >= 0
 R376: y[0] + y[27] + y[42] - z[376] >= 0
 R377: y[37] + y[45] + y[73] + y[96] - z[377] >= 0
 R378: y[6] + y[58] + y[90] + y[91] - z[378] >= 0
 R379: y[22] + y[57] + y[65] + y[72] - z[379] >= 0
 R380: y[4] + y[6] + y[9] + y[26] + y[32] + y[90] - z[380] >= 0
 R381: y[65] - z[381] >= 0
 R382: y[0] + y[17] + y[53] + y[63] + y[64] - z[382] >= 0
 R383: y[25] + y[29] + y[50] + y[56] + y[66] + y[77] + y[87] - z[383] >= 0
 R384: y[2] + y[83] + y[85] - z[384] >= 0
 R385: y[57] + y[65] + y[72] - z[385] >= 0
 R386: y[24] + y[70] + y[86] - z[386] >= 0
 R387: y[3] + y[19] + y[21] + y[33] + y[38] + y[43] + y[44] + y[48] + y[69]
   - z[387] >= 0
 R388: y[8] + y[34] + y[75] + y[80] + y[93] + y[96] - z[388] >= 0
 R389: y[13] + y[28] + y[60] + y[76] - z[389] >= 0
 R390: y[7] + y[31] + y[37] + y[89] + y[99] - z[390] >= 0
 R391: y[11] + y[24] + y[43] + y[52] + y[59] + y[67] + y[68] + y[69]
   + y[70] + y[86] + y[97] - z[391] >= 0
 R392: y[30] + y[43] + y[52] + y[59] + y[70] + y[94] - z[392] >= 0
 R393: y[5] + y[8] + y[20] + y[34] + y[61] + y[75] + y[80] + y[93] - z[393]
   >= 0
 R394: y[15] + y[20] + y[21] + y[33] + y[36] + y[41] + y[47] + y[48]
   + y[61] + y[79] + y[80] + y[93] + y[95] - z[394] >= 0
 R395: y[1] + y[31] + y[37] + y[45] + y[73] + y[89] + y[99] - z[395] >= 0
 R396: y[29] + y[50] + y[56] + y[65] - z[396] >= 0
 R397: y[2] + y[83] + y[85] - z[397] >= 0
 R398: y[16] + y[39] + y[53] + y[54] + y[55] + y[63] + y[64] + y[66]
   - z[398] >= 0
 R399: y[4] + y[6] + y[32] + y[90] - z[399] >= 0
 R400: y[5] + y[34] + y[44] + y[61] + y[90] + y[93] - z[400] >= 0
 R401: y[0] + y[17] + y[39] + y[53] + y[63] + y[64] + y[91] - z[401] >= 0
 R402: y[25] + y[29] + y[35] + y[77] - z[402] >= 0
 R403: y[57] + y[65] + y[72] - z[403] >= 0
 R404: y[17] + y[39] + y[53] + y[58] + y[63] + y[64] + y[91] - z[404] >= 0
 R405: y[4] + y[9] + y[19] + y[26] + y[32] + y[38] + y[44] + y[67] + y[69]
   - z[405] >= 0
 R406: y[12] + y[22] + y[57] + y[65] + y[72] + y[88] - z[406] >= 0
 R407: y[53] + y[58] + y[91] - z[407] >= 0
 R408: y[29] - z[408] >= 0
 R409: y[11] + y[52] + y[59] + y[67] + y[68] + y[69] + y[97] - z[409] >= 0
 R410: y[7] + y[23] + y[31] + y[51] + y[62] + y[98] - z[410] >= 0
 R411: y[16] + y[39] + y[50] + y[54] + y[56] + y[58] + y[66] + y[87]
   - z[411] >= 0
 R412: y[12] + y[22] + y[57] + y[72] + y[88] - z[412] >= 0
 R413: y[3] + y[15] + y[18] + y[20] + y[21] + y[33] + y[36] + y[41] + y[47]
   + y[48] + y[61] + y[79] + y[93] + y[95] - z[413] >= 0
 R414: y[1] + y[8] + y[46] + y[49] + y[73] + y[75] + y[80] + y[95] - z[414]
   >= 0
 R415: y[29] + y[50] + y[56] + y[65] - z[415] >= 0
 R416: y[25] + y[29] + y[35] + y[50] + y[56] + y[77] - z[416] >= 0
 R417: y[18] + y[46] + y[49] + y[74] + y[95] - z[417] >= 0
 R418: y[11] + y[24] + y[43] + y[52] + y[59] + y[68] + y[69] + y[70]
   + y[86] - z[418] >= 0
 R419: y[11] + y[19] + y[38] + y[43] + y[52] + y[59] + y[67] + y[68]
   + y[69] + y[97] - z[419] >= 0
 R420: y[6] + y[22] - z[420] >= 0
 R421: y[5] + y[6] + y[90] - z[421] >= 0
 R422: y[23] + y[49] + y[74] + y[98] - z[422] >= 0
 R423: y[2] + y[14] + y[82] + y[83] + y[84] + y[85] - z[423] >= 0
 R424: y[13] + y[28] + y[60] + y[76] + y[81] - z[424] >= 0
 R425: y[7] + y[23] + y[31] + y[51] + y[62] + y[89] + y[98] + y[99]
   - z[425] >= 0
 R426: y[12] + y[71] + y[88] - z[426] >= 0
 R427: y[13] + y[57] + y[60] + y[65] + y[72] + y[76] + y[78] - z[427] >= 0
 R428: y[73] + y[96] - z[428] >= 0
 R429: y[12] + y[71] + y[88] - z[429] >= 0
 R430: y[6] + y[90] - z[430] >= 0
 R431: y[8] + y[15] + y[20] + y[46] + y[49] + y[61] + y[75] + y[79] + y[80]
   + y[93] + y[95] - z[431] >= 0
 R432: y[16] + y[25] + y[40] + y[50] + y[54] + y[56] + y[66] + y[77]
   + y[87] - z[432] >= 0
 R433: y[1] + y[37] + y[73] + y[96] - z[433] >= 0
 R434: y[24] + y[52] + y[59] + y[70] + y[86] - z[434] >= 0
 R435: y[58] + y[91] - z[435] >= 0
 R436: y[21] + y[30] + y[36] + y[41] + y[43] + y[47] + y[48] + y[94]
   - z[436] >= 0
 R437: y[2] + y[14] + y[82] + y[83] + y[84] + y[85] - z[437] >= 0
 R438: y[1] + y[7] + y[23] + y[31] + y[51] + y[62] + y[89] + y[98] + y[99]
   - z[438] >= 0
 R439: y[11] + y[24] + y[30] + y[43] + y[52] + y[59] + y[70] + y[94]
   - z[439] >= 0
 R440: y[2] + y[82] + y[83] + y[84] + y[85] - z[440] >= 0
 R441: y[7] + y[23] + y[51] + y[98] - z[441] >= 0
 R442: y[25] + y[29] + y[35] + y[77] - z[442] >= 0
 R443: y[12] + y[22] + y[57] + y[65] + y[72] + y[88] - z[443] >= 0
 R444: y[16] + y[39] + y[40] + y[54] + y[63] + y[66] + y[87] - z[444] >= 0
 R445: y[85] + y[92] - z[445] >= 0
 R446: y[0] + y[16] + y[39] + y[42] + y[53] + y[54] + y[55] + y[63] + y[64]
   - z[446] >= 0
 R447: y[0] + y[2] + y[27] + y[42] + y[55] - z[447] >= 0
 R448: y[5] + y[8] + y[20] + y[34] + y[61] + y[75] + y[80] + y[93] - z[448]
   >= 0
 R449: y[37] + y[45] - z[449] >= 0
 R450: y[16] + y[17] + y[39] + y[53] + y[58] + y[63] + y[64] + y[91]
   - z[450] >= 0
 R451: y[24] + y[70] + y[86] - z[451] >= 0
 R452: y[18] + y[21] + y[30] + y[36] + y[41] + y[43] + y[47] + y[48]
   + y[94] - z[452] >= 0
 R453: y[10] + y[57] + y[60] + y[72] + y[76] + y[78] + y[81] - z[453] >= 0
 R454: y[0] + y[27] + y[42] + y[55] + y[64] - z[454] >= 0
 R455: y[9] + y[11] + y[19] + y[26] + y[38] + y[67] + y[68] + y[69]
   - z[455] >= 0
 R456: y[29] - z[456] >= 0
 R457: y[1] + y[23] + y[46] + y[49] + y[74] + y[95] + y[98] - z[457] >= 0
 R458: y[24] + y[52] + y[70] + y[86] + y[97] - z[458] >= 0
 R459: y[4] + y[9] + y[26] + y[32] + y[67] + y[69] - z[459] >= 0
 R460: y[11] + y[24] + y[30] + y[43] + y[52] + y[59] + y[68] + y[70]
   - z[460] >= 0
 R461: y[1] + y[23] + y[46] + y[49] + y[74] + y[75] + y[95] - z[461] >= 0
 R462: y[4] + y[6] + y[32] + y[90] - z[462] >= 0
 R463: y[11] + y[43] + y[52] + y[59] + y[67] + y[68] + y[69] - z[463] >= 0
 R464: y[13] + y[60] + y[65] + y[72] + y[76] - z[464] >= 0
 R465: y[15] + y[18] + y[20] + y[21] + y[33] + y[36] + y[41] + y[47]
   + y[48] + y[61] + y[79] + y[93] + y[95] - z[465] >= 0
 R466: y[17] + y[53] + y[58] + y[91] - z[466] >= 0
 R467: y[1] + y[7] + y[23] + y[31] + y[51] + y[62] + y[89] + y[98] + y[99]
   - z[467] >= 0
 R468: y[18] + y[21] + y[36] + y[41] + y[47] + y[94] - z[468] >= 0
 R469: y[13] + y[57] + y[60] + y[65] + y[72] + y[76] + y[78] + y[81]
   - z[469] >= 0
 R470: y[12] + y[22] + y[57] + y[65] + y[72] + y[88] - z[470] >= 0
 R471: y[37] + y[45] - z[471] >= 0
 R472: y[4] + y[5] + y[6] + y[32] + y[44] + y[90] - z[472] >= 0
 R473: y[16] + y[39] + y[53] + y[54] + y[58] + y[91] - z[473] >= 0
 R474: y[5] + y[8] + y[20] + y[34] + y[61] + y[79] + y[80] + y[93] - z[474]
   >= 0
 R475: y[9] + y[71] + y[97] - z[475] >= 0
 R476: y[8] + y[20] + y[34] + y[61] + y[75] + y[80] + y[93] - z[476] >= 0
 R477: y[15] + y[18] + y[20] + y[21] + y[36] + y[41] + y[47] + y[61]
   + y[79] + y[93] + y[95] - z[477] >= 0
 R478: y[3] + y[4] + y[9] + y[19] + y[26] + y[32] + y[38] + y[44] + y[67]
   + y[69] - z[478] >= 0
 R479: y[0] + y[17] + y[39] + y[53] + y[63] + y[64] - z[479] >= 0
 R480: y[2] + y[40] + y[55] + y[83] + y[85] + y[92] - z[480] >= 0
 R481: y[22] + y[65] - z[481] >= 0
 R482: y[16] + y[40] + y[54] + y[66] + y[87] + y[92] - z[482] >= 0
 R483: y[13] - z[483] >= 0
 R484: y[12] + y[71] + y[88] - z[484] >= 0
 R485: y[12] + y[22] + y[57] + y[88] - z[485] >= 0
 R486: y[40] + y[83] + y[85] + y[92] - z[486] >= 0
 R487: y[10] + y[13] + y[28] + y[60] + y[76] + y[78] + y[81] - z[487] >= 0
 R488: y[17] + y[96] - z[488] >= 0
 R489: y[16] + y[50] + y[54] + y[56] + y[66] + y[87] - z[489] >= 0
 R490: y[4] + y[9] + y[26] + y[32] + y[90] - z[490] >= 0
 R491: y[1] + y[7] + y[23] + y[31] + y[37] + y[51] + y[62] + y[89] + y[98]
   + y[99] - z[491] >= 0
 R492: y[12] + y[22] + y[32] + y[88] - z[492] >= 0
 R493: y[0] + y[17] + y[53] + y[63] + y[64] - z[493] >= 0
 R494: y[12] + y[71] + y[88] - z[494] >= 0
 R495: y[7] + y[23] + y[31] + y[51] + y[62] + y[89] + y[98] + y[99]
   - z[495] >= 0
 R496: y[16] + y[39] + y[40] + y[54] + y[63] + y[66] + y[87] - z[496] >= 0
 R497: y[12] + y[22] + y[57] + y[65] + y[72] + y[88] - z[497] >= 0
 R498: y[6] + y[58] + y[90] + y[91] - z[498] >= 0
 R499: y[4] + y[6] + y[26] + y[32] + y[44] + y[90] - z[499] >= 0
 R500: y[0] + y[45] - z[500] >= 0
 R501: y[37] + y[45] - z[501] >= 0
 R502: y[46] + y[49] + y[74] + y[95] - z[502] >= 0
 R503: y[0] + y[27] + y[42] + y[55] + y[63] + y[64] - z[503] >= 0
 R504: y[16] + y[39] + y[50] + y[54] + y[56] + y[58] + y[66] - z[504] >= 0
 R505: y[8] + y[20] + y[46] + y[75] + y[80] + y[93] - z[505] >= 0
 R506: y[0] + y[45] - z[506] >= 0
 R507: y[25] + y[29] + y[35] + y[40] + y[77] + y[87] + y[92] - z[507] >= 0
 R508: y[0] + y[2] + y[14] + y[27] + y[42] + y[82] - z[508] >= 0
 R509: y[25] + y[29] + y[35] + y[77] + y[87] + y[92] - z[509] >= 0
 R510: y[0] + y[96] - z[510] >= 0
 R511: y[0] + y[27] + y[42] - z[511] >= 0
 R512: y[2] + y[40] + y[83] + y[85] + y[92] - z[512] >= 0
 R513: y[16] + y[39] + y[40] + y[54] + y[55] + y[66] + y[87] + y[92]
   - z[513] >= 0
 R514: y[25] + y[35] + y[77] + y[92] - z[514] >= 0
 R515: y[0] + y[64] - z[515] >= 0
 R516: y[8] + y[15] + y[20] + y[34] + y[41] + y[48] + y[61] + y[75] + y[79]
   + y[80] + y[93] + y[95] - z[516] >= 0
 R517: y[10] + y[13] + y[57] + y[60] + y[72] + y[76] + y[78] + y[81]
   - z[517] >= 0
 R518: y[1] + y[23] + y[46] + y[49] + y[74] + y[98] + y[99] - z[518] >= 0
 R519: y[16] + y[39] + y[50] + y[54] + y[56] + y[58] + y[66] + y[87]
   - z[519] >= 0
 R520: y[57] + y[65] + y[72] - z[520] >= 0
 R521: y[10] + y[13] + y[28] + y[60] + y[76] + y[78] + y[81] - z[521] >= 0
 R522: y[8] + y[17] + y[73] + y[96] - z[522] >= 0
 R523: y[4] + y[9] + y[19] + y[26] + y[38] + y[44] + y[67] + y[69] - z[523]
   >= 0
 R524: y[7] + y[31] + y[37] + y[51] + y[89] + y[99] - z[524] >= 0
 R525: y[1] + y[8] + y[73] + y[75] + y[96] - z[525] >= 0
 R526: y[3] + y[4] + y[19] + y[26] + y[32] + y[33] + y[38] + y[44] + y[90]
   - z[526] >= 0
 R527: y[13] + y[28] + y[60] + y[76] + y[81] - z[527] >= 0
 R528: y[1] + y[23] + y[31] + y[46] + y[49] + y[73] + y[89] + y[98] + y[99]
   - z[528] >= 0
 R529: y[6] + y[22] - z[529] >= 0
 R530: y[2] + y[83] + y[85] - z[530] >= 0
 R531: y[0] + y[27] + y[42] + y[55] + y[64] - z[531] >= 0
 R532: y[7] + y[23] + y[31] + y[51] + y[62] + y[98] - z[532] >= 0
 R533: y[5] + y[8] + y[15] + y[20] + y[34] + y[61] + y[75] + y[80] + y[93]
   - z[533] >= 0
 R534: y[2] + y[14] + y[82] + y[83] + y[84] + y[85] - z[534] >= 0
 R535: y[10] + y[13] + y[60] + y[76] + y[78] + y[81] - z[535] >= 0
 R536: - z[536] >= 0
 R537: - z[537] >= 0
 R538: y[17] + y[39] + y[53] + y[58] + y[63] + y[91] - z[538] >= 0
 R539: y[17] + y[96] - z[539] >= 0
 R540: y[4] + y[6] + y[12] + y[22] + y[32] + y[88] - z[540] >= 0
 R541: y[4] + y[6] + y[32] + y[44] + y[90] - z[541] >= 0
 R542: y[12] + y[71] + y[88] - z[542] >= 0
 R543: y[1] + y[46] + y[49] + y[74] + y[75] + y[80] + y[95] - z[543] >= 0
 R544: y[21] + y[30] + y[36] + y[43] + y[47] + y[94] - z[544] >= 0
 R545: y[57] + y[65] + y[72] - z[545] >= 0
 R546: y[13] + y[28] + y[60] + y[76] + y[78] + y[81] - z[546] >= 0
 R547: y[25] + y[29] + y[35] + y[77] + y[87] + y[92] - z[547] >= 0
 R548: y[10] + y[13] + y[28] + y[60] + y[72] + y[76] + y[78] + y[81]
   - z[548] >= 0
 R549: y[23] + y[49] + y[74] + y[98] - z[549] >= 0
 R550: y[3] + y[11] + y[19] + y[26] + y[33] + y[38] + y[43] + y[44] + y[67]
   + y[68] + y[69] - z[550] >= 0
 R551: y[4] + y[9] + y[26] + y[32] + y[71] - z[551] >= 0
 R552: y[0] + y[27] + y[42] + y[55] + y[63] + y[64] - z[552] >= 0
 R553: y[17] + y[39] + y[53] + y[58] + y[63] + y[91] - z[553] >= 0
 R554: y[0] + y[2] + y[27] + y[42] + y[55] - z[554] >= 0
 R555: y[10] + y[13] + y[28] + y[60] + y[76] + y[78] + y[81] - z[555] >= 0
 R556: y[0] + y[39] + y[42] + y[53] + y[55] + y[63] + y[64] - z[556] >= 0
 R557: y[1] + y[23] + y[46] + y[49] + y[73] + y[75] - z[557] >= 0
 R558: y[0] + y[27] + y[42] + y[55] + y[63] + y[64] - z[558] >= 0
 R559: y[40] + y[87] + y[92] - z[559] >= 0
 R560: y[18] + y[21] + y[36] + y[41] + y[47] + y[48] + y[94] - z[560] >= 0
 R561: y[4] + y[6] + y[32] + y[90] - z[561] >= 0
 R562: y[24] + y[52] + y[59] + y[70] + y[86] - z[562] >= 0
 R563: y[25] + y[29] + y[35] + y[40] + y[50] + y[66] + y[77] + y[87]
   + y[92] - z[563] >= 0
 R564: y[10] + y[12] + y[57] + y[78] + y[88] - z[564] >= 0
 R565: y[10] + y[12] + y[57] + y[72] + y[78] + y[88] - z[565] >= 0
 R566: y[10] + y[57] + y[60] + y[72] + y[76] + y[78] + y[81] - z[566] >= 0
 R567: y[7] + y[23] + y[31] + y[51] + y[62] + y[89] + y[98] + y[99]
   - z[567] >= 0
 R568: y[17] + y[39] + y[53] + y[58] + y[63] + y[91] - z[568] >= 0
 R569: y[4] + y[5] + y[6] + y[32] + y[44] + y[90] - z[569] >= 0
 R570: y[0] + y[27] + y[42] + y[55] + y[63] + y[64] - z[570] >= 0
 R571: y[17] + y[53] + y[96] - z[571] >= 0
 R572: y[0] + y[17] + y[39] + y[53] + y[63] + y[64] - z[572] >= 0
 R573: y[4] + y[5] + y[6] + y[32] + y[44] + y[90] - z[573] >= 0
 R574: y[83] + y[85] - z[574] >= 0
 R575: y[16] + y[40] + y[54] + y[55] + y[66] + y[87] + y[92] - z[575] >= 0
 R576: y[13] + y[28] + y[60] + y[76] + y[81] - z[576] >= 0
 R577: y[40] + y[92] - z[577] >= 0
 R578: y[2] + y[14] + y[27] + y[82] - z[578] >= 0
 R579: y[13] + y[28] + y[60] + y[76] - z[579] >= 0
 R580: y[16] + y[39] + y[40] + y[54] + y[63] + y[66] + y[87] - z[580] >= 0
 R581: y[3] + y[19] + y[33] + y[38] + y[44] + y[48] + y[61] + y[79]
   - z[581] >= 0
 R582: y[16] + y[50] + y[54] + y[56] + y[66] + y[87] - z[582] >= 0
 R583: y[16] + y[40] + y[54] + y[66] + y[87] + y[92] - z[583] >= 0
 R584: y[92] - z[584] >= 0
 R585: y[17] + y[96] - z[585] >= 0
 R586: y[4] + y[6] + y[32] + y[90] - z[586] >= 0
 R587: y[10] + y[13] + y[28] + y[60] + y[72] + y[76] + y[78] + y[81]
   - z[587] >= 0
 R588: y[0] + y[27] + y[45] - z[588] >= 0
 R589: y[1] + y[8] + y[46] + y[73] + y[75] + y[80] - z[589] >= 0
 R590: y[16] + y[39] + y[53] + y[58] + y[91] - z[590] >= 0
 R591: y[45] - z[591] >= 0
 R592: y[3] + y[5] + y[20] + y[33] + y[34] + y[44] + y[48] + y[61] + y[79]
   + y[80] + y[93] - z[592] >= 0
 R593: y[16] + y[17] + y[39] + y[53] + y[54] + y[58] + y[63] + y[91]
   - z[593] >= 0
 R594: y[11] + y[67] + y[68] + y[97] - z[594] >= 0
 R595: y[5] + y[33] + y[34] + y[44] + y[61] + y[90] + y[93] - z[595] >= 0
 R596: y[11] + y[52] + y[68] + y[86] + y[97] - z[596] >= 0
 R597: y[4] + y[5] + y[6] + y[32] + y[44] + y[90] - z[597] >= 0
 R598: y[13] + y[28] + y[60] + y[76] + y[81] - z[598] >= 0
 R599: y[1] + y[23] + y[31] + y[46] + y[73] + y[75] + y[89] + y[99]
   - z[599] >= 0
 R600: y[9] + y[71] - z[600] >= 0
 R601: y[4] + y[6] + y[22] + y[32] + y[90] - z[601] >= 0
 R602: y[12] + y[71] - z[602] >= 0
 R603: y[15] + y[18] + y[36] + y[41] + y[46] + y[47] + y[49] + y[74]
   + y[95] - z[603] >= 0
 R604: y[2] + y[14] + y[27] + y[42] + y[55] + y[82] + y[83] - z[604] >= 0
 R605: y[0] + y[39] + y[42] + y[53] + y[55] + y[63] + y[64] - z[605] >= 0
 R606: y[8] + y[20] + y[75] + y[80] + y[93] + y[96] - z[606] >= 0
 R607: y[2] + y[82] + y[83] + y[84] + y[85] - z[607] >= 0
 R608: y[5] + y[6] + y[90] - z[608] >= 0
 R609: y[58] + y[91] - z[609] >= 0
 R610: y[30] + y[43] + y[52] + y[59] + y[94] - z[610] >= 0
 R611: y[10] + y[12] + y[57] + y[72] + y[78] + y[81] + y[88] - z[611] >= 0
 R612: y[0] + y[17] + y[53] + y[63] + y[64] - z[612] >= 0
 R613: y[1] + y[23] + y[31] + y[37] + y[73] + y[89] + y[98] + y[99]
   - z[613] >= 0
 R614: y[5] + y[20] + y[34] + y[61] + y[80] + y[93] - z[614] >= 0
 R615: y[17] + y[53] + y[58] + y[91] - z[615] >= 0
 R616: y[11] + y[24] + y[30] + y[43] + y[52] + y[59] + y[70] - z[616] >= 0
 R617: y[2] + y[14] + y[82] + y[83] - z[617] >= 0
 R618: y[4] + y[6] + y[32] + y[90] - z[618] >= 0
 R619: y[10] + y[13] + y[57] + y[60] + y[72] + y[76] + y[78] + y[81]
   - z[619] >= 0
 R620: y[1] + y[23] + y[31] + y[46] + y[49] + y[73] + y[89] + y[98] + y[99]
   - z[620] >= 0
 R621: y[17] + y[39] + y[53] + y[58] + y[63] + y[91] - z[621] >= 0
 R622: y[5] + y[17] + y[34] + y[53] + y[58] + y[91] - z[622] >= 0
 R623: y[18] + y[36] + y[47] + y[74] + y[95] - z[623] >= 0
 R624: y[13] + y[28] + y[60] + y[76] + y[81] - z[624] >= 0
 R625: y[50] + y[56] - z[625] >= 0
 R626: y[45] - z[626] >= 0
 R627: y[8] + y[20] + y[34] + y[61] + y[75] + y[80] + y[93] - z[627] >= 0
 R628: y[45] - z[628] >= 0
 R629: y[5] + y[17] + y[53] + y[58] + y[91] - z[629] >= 0
 R630: y[13] + y[28] + y[60] + y[72] + y[76] + y[78] + y[81] - z[630] >= 0
 R631: y[10] + y[57] + y[72] + y[78] + y[81] - z[631] >= 0
 R632: y[13] + y[28] + y[60] + y[76] + y[81] - z[632] >= 0
 R633: y[58] + y[91] - z[633] >= 0
 R634: y[5] + y[8] + y[17] + y[34] + y[80] + y[93] - z[634] >= 0
 R635: y[16] + y[39] + y[53] + y[54] + y[58] + y[63] + y[66] + y[91]
   - z[635] >= 0
 R636: y[25] + y[50] + y[56] + y[66] + y[87] - z[636] >= 0
 R637: y[83] + y[85] + y[92] - z[637] >= 0
 R638: y[0] + y[27] + y[39] + y[42] + y[55] + y[63] + y[64] - z[638] >= 0
 R639: y[11] + y[24] + y[52] + y[67] + y[68] + y[69] + y[70] + y[86]
   + y[97] - z[639] >= 0
 R640: y[4] + y[6] + y[32] + y[90] - z[640] >= 0
 R641: y[12] + y[57] + y[72] + y[88] - z[641] >= 0
 R642: y[31] + y[37] + y[89] - z[642] >= 0
 R643: y[24] + y[70] + y[86] - z[643] >= 0
 R644: y[4] + y[9] + y[26] + y[32] + y[90] - z[644] >= 0
 R645: y[16] + y[50] + y[54] + y[56] + y[58] + y[66] - z[645] >= 0
 R646: y[17] + y[53] + y[96] - z[646] >= 0
 R647: y[8] + y[15] + y[20] + y[34] + y[46] + y[61] + y[75] + y[80] + y[93]
   + y[95] - z[647] >= 0
 R648: y[25] + y[29] + y[35] + y[50] + y[77] + y[87] + y[92] - z[648] >= 0
 R649: y[13] + y[28] + y[60] + y[72] + y[76] + y[78] + y[81] - z[649] >= 0
 R650: y[1] + y[8] + y[46] + y[73] + y[75] + y[96] - z[650] >= 0
 R651: y[25] + y[50] + y[56] + y[66] + y[87] - z[651] >= 0
 R652: y[2] + y[14] + y[27] + y[82] - z[652] >= 0
 R653: y[3] + y[19] + y[26] + y[33] + y[38] + y[44] + y[67] + y[69]
   - z[653] >= 0
 R654: y[16] + y[39] + y[53] + y[54] + y[58] + y[63] + y[66] + y[87]
   + y[91] - z[654] >= 0
 R655: y[15] + y[18] + y[36] + y[41] + y[46] + y[47] + y[49] + y[74]
   + y[95] - z[655] >= 0
 R656: y[1] + y[37] + y[73] + y[96] - z[656] >= 0
 R657: y[3] + y[11] + y[19] + y[33] + y[38] + y[43] + y[44] + y[48] + y[67]
   + y[69] - z[657] >= 0
 R658: y[50] + y[56] + y[58] - z[658] >= 0
 R659: y[1] + y[73] + y[96] - z[659] >= 0
 R660: y[0] + y[2] + y[14] + y[27] + y[42] + y[55] + y[82] - z[660] >= 0
 R661: y[9] + y[71] + y[97] - z[661] >= 0
 R662: y[37] + y[73] + y[96] - z[662] >= 0
 R663: y[6] + y[22] - z[663] >= 0
 R664: y[17] + y[53] + y[63] + y[64] + y[96] - z[664] >= 0
 R665: y[58] + y[91] - z[665] >= 0
 R666: y[30] + y[43] + y[52] + y[59] + y[94] - z[666] >= 0
 R667: y[16] + y[40] + y[54] + y[55] + y[66] + y[87] + y[92] - z[667] >= 0
 R668: y[30] + y[43] + y[52] + y[59] + y[94] - z[668] >= 0
 R669: y[7] + y[31] + y[37] + y[51] + y[62] + y[89] + y[99] - z[669] >= 0
 R670: y[4] + y[6] + y[12] + y[22] + y[32] + y[88] + y[90] - z[670] >= 0
 R671: y[83] + y[85] + y[92] - z[671] >= 0
 R672: y[13] + y[28] + y[60] + y[76] - z[672] >= 0
 R673: y[37] + y[45] + y[73] + y[96] - z[673] >= 0
 R674: y[4] + y[5] + y[6] + y[33] + y[34] + y[44] + y[90] - z[674] >= 0
 R675: y[22] + y[57] + y[65] + y[72] - z[675] >= 0
 R676: y[0] + y[2] + y[14] + y[27] + y[42] + y[55] - z[676] >= 0
 R677: y[1] + y[31] + y[37] + y[73] + y[89] + y[99] - z[677] >= 0
 R678: y[2] + y[14] + y[27] + y[82] - z[678] >= 0
 R679: y[9] + y[11] + y[26] + y[67] + y[68] + y[69] + y[97] - z[679] >= 0
 R680: y[73] + y[96] - z[680] >= 0
 R681: y[13] + y[28] + y[60] - z[681] >= 0
 R682: y[8] + y[15] + y[20] + y[46] + y[49] + y[61] + y[75] + y[79] + y[80]
   + y[93] + y[95] - z[682] >= 0
 R683: y[3] + y[11] + y[19] + y[38] + y[43] + y[52] + y[59] + y[67] + y[68]
   + y[69] - z[683] >= 0
 R684: y[2] + y[40] + y[55] + y[83] + y[85] + y[92] - z[684] >= 0
 R685: y[25] + y[35] + y[40] + y[77] + y[87] + y[92] - z[685] >= 0
 R686: y[16] + y[17] + y[39] + y[53] + y[54] + y[58] + y[63] + y[64]
   + y[91] - z[686] >= 0
 R687: y[11] + y[24] + y[52] + y[59] + y[67] + y[68] + y[69] + y[70]
   + y[86] + y[97] - z[687] >= 0
 R688: y[15] + y[18] + y[21] + y[36] + y[41] + y[47] + y[79] + y[95]
   - z[688] >= 0
 R689: y[15] + y[18] + y[20] + y[21] + y[33] + y[36] + y[41] + y[47]
   + y[48] + y[61] + y[79] + y[80] + y[93] + y[95] - z[689] >= 0
 R690: y[8] + y[15] + y[20] + y[34] + y[46] + y[61] + y[75] + y[79] + y[80]
   + y[93] + y[95] - z[690] >= 0
 R691: y[9] + y[12] + y[71] + y[88] - z[691] >= 0
 R692: y[13] + y[28] + y[60] + y[76] - z[692] >= 0
 R693: y[13] + y[60] - z[693] >= 0
 R694: y[12] + y[22] + y[57] + y[65] + y[72] + y[88] - z[694] >= 0
 R695: y[92] - z[695] >= 0
 R696: y[7] + y[23] + y[31] + y[51] + y[62] + y[89] + y[98] + y[99]
   - z[696] >= 0
 R697: y[9] + y[71] - z[697] >= 0
 R698: y[16] + y[39] + y[40] + y[42] + y[54] + y[55] + y[63] + y[64]
   - z[698] >= 0
 R699: y[4] + y[6] + y[32] + y[90] - z[699] >= 0
 R700: y[18] + y[21] + y[36] + y[41] + y[47] + y[94] - z[700] >= 0
 R701: y[25] + y[29] + y[35] + y[40] + y[77] + y[87] + y[92] - z[701] >= 0
 R702: y[3] + y[5] + y[19] + y[33] + y[34] + y[38] + y[44] + y[48] + y[61]
   + y[90] - z[702] >= 0
 R703: y[7] + y[23] + y[31] + y[37] + y[51] + y[62] + y[89] + y[98] + y[99]
   - z[703] >= 0
 R704: y[16] + y[17] + y[39] + y[53] + y[54] + y[58] + y[63] + y[64]
   + y[91] - z[704] >= 0
 R705: y[16] + y[40] + y[54] + y[66] + y[87] + y[92] - z[705] >= 0
 R706: y[11] + y[43] + y[52] + y[59] + y[67] + y[68] + y[69] + y[97]
   - z[706] >= 0
 R707: y[16] + y[39] + y[40] + y[54] + y[55] + y[66] + y[87] + y[92]
   - z[707] >= 0
 R708: y[1] + y[7] + y[23] + y[31] + y[49] + y[51] + y[89] + y[98] + y[99]
   - z[708] >= 0
 R709: y[13] - z[709] >= 0
 R710: y[13] - z[710] >= 0
 R711: y[10] + y[13] + y[28] + y[60] + y[72] + y[76] + y[78] + y[81]
   - z[711] >= 0
 R712: y[2] + y[14] + y[82] + y[83] + y[85] - z[712] >= 0
 R713: y[8] + y[17] + y[75] + y[80] + y[96] - z[713] >= 0
 R714: y[18] + y[21] + y[36] + y[41] + y[47] + y[94] - z[714] >= 0
 R715: y[11] + y[24] + y[30] + y[43] + y[52] + y[59] + y[67] + y[68]
   + y[69] + y[70] - z[715] >= 0
 R716: y[31] + y[37] + y[89] + y[99] - z[716] >= 0
 R717: y[0] + y[14] + y[27] + y[42] + y[82] - z[717] >= 0
 R718: y[15] + y[18] + y[21] + y[33] + y[36] + y[41] + y[47] + y[48]
   + y[61] + y[79] + y[95] - z[718] >= 0
 R719: y[13] + y[28] + y[60] + y[76] - z[719] >= 0
 R720: y[3] + y[19] + y[21] + y[30] + y[38] + y[43] + y[48] + y[52] + y[59]
   + y[94] - z[720] >= 0
 R721: y[4] + y[12] + y[22] + y[32] + y[88] - z[721] >= 0
 R722: y[23] + y[46] + y[49] + y[74] + y[95] - z[722] >= 0
 R723: y[17] + y[39] + y[53] + y[58] + y[63] + y[91] - z[723] >= 0
 R724: y[1] + y[7] + y[23] + y[31] + y[51] + y[89] + y[98] + y[99] - z[724]
   >= 0
 R725: y[25] + y[29] + y[35] + y[77] + y[87] + y[92] - z[725] >= 0
 R726: y[37] + y[45] + y[73] + y[89] + y[99] - z[726] >= 0
 R727: y[11] + y[19] + y[38] + y[43] + y[52] + y[59] + y[67] + y[68]
   + y[69] - z[727] >= 0
 R728: y[1] + y[7] + y[23] + y[31] + y[51] + y[73] + y[89] + y[98] + y[99]
   - z[728] >= 0
 R729: y[50] + y[56] + y[66] - z[729] >= 0
 R730: y[37] + y[45] + y[73] + y[96] - z[730] >= 0
 R731: y[11] + y[26] + y[43] + y[52] + y[59] + y[67] + y[68] + y[69]
   + y[97] - z[731] >= 0
 R732: y[25] + y[29] + y[35] + y[50] + y[56] + y[77] - z[732] >= 0
 R733: y[11] + y[24] + y[43] + y[52] + y[59] + y[67] + y[68] + y[69]
   + y[70] + y[86] + y[97] - z[733] >= 0
 R734: y[2] + y[14] + y[27] + y[82] - z[734] >= 0
 R735: y[2] + y[14] + y[27] + y[42] + y[55] + y[82] + y[83] - z[735] >= 0
 R736: y[13] + y[57] + y[60] + y[72] + y[76] + y[78] + y[81] - z[736] >= 0
 R737: y[1] + y[8] + y[46] + y[49] + y[74] + y[75] + y[80] + y[95] - z[737]
   >= 0
 R738: y[10] + y[12] + y[57] + y[72] + y[78] + y[88] - z[738] >= 0
 R739: y[21] + y[30] + y[36] + y[41] + y[43] + y[47] + y[94] - z[739] >= 0
 R740: y[11] + y[19] + y[30] + y[43] + y[52] + y[59] + y[94] - z[740] >= 0
 R741: y[2] + y[14] + y[82] + y[83] + y[84] + y[85] - z[741] >= 0
 R742: y[16] + y[25] + y[40] + y[50] + y[54] + y[66] + y[77] + y[87]
   + y[92] - z[742] >= 0
 R743: y[27] + y[45] - z[743] >= 0
 R744: y[71] - z[744] >= 0
 R745: y[1] + y[23] + y[46] + y[49] + y[73] + y[75] + y[98] + y[99]
   - z[745] >= 0
 R746: y[11] + y[24] + y[43] + y[52] + y[59] + y[68] + y[70] + y[86]
   - z[746] >= 0
 R747: y[17] + y[53] + y[58] + y[63] + y[91] - z[747] >= 0
 R748: y[31] + y[37] + y[89] - z[748] >= 0
 R749: y[18] + y[21] + y[30] + y[36] + y[41] + y[47] + y[94] - z[749] >= 0
 R750: y[10] + y[72] + y[76] + y[78] + y[81] - z[750] >= 0
 R751: y[13] + y[57] + y[65] + y[72] - z[751] >= 0
 R752: y[15] + y[18] + y[21] + y[36] + y[41] + y[47] + y[48] + y[79]
   - z[752] >= 0
 R753: y[9] + y[71] - z[753] >= 0
 R754: y[12] + y[22] + y[57] + y[65] + y[72] + y[88] - z[754] >= 0
 R755: y[6] + y[58] + y[90] + y[91] - z[755] >= 0
 R756: y[4] + y[12] + y[22] + y[32] + y[88] - z[756] >= 0
 R757: y[8] + y[15] + y[20] + y[46] + y[49] + y[61] + y[74] + y[75] + y[80]
   + y[93] + y[95] - z[757] >= 0
 R758: y[5] + y[8] + y[17] + y[34] + y[91] - z[758] >= 0
 R759: y[4] + y[6] + y[26] + y[32] + y[38] + y[44] + y[90] - z[759] >= 0
 R760: y[13] + y[28] + y[60] + y[76] + y[81] - z[760] >= 0
 R761: y[25] + y[29] + y[35] + y[50] + y[56] + y[77] + y[87] - z[761] >= 0
 R762: y[2] + y[82] + y[83] + y[84] + y[85] - z[762] >= 0
 R763: y[46] + y[49] + y[74] + y[95] - z[763] >= 0
 R764: y[7] + y[23] + y[51] + y[98] - z[764] >= 0
 R765: y[7] + y[23] + y[31] + y[51] + y[62] + y[89] + y[98] + y[99]
   - z[765] >= 0
 R766: y[13] + y[65] + y[72] - z[766] >= 0
 R767: y[9] + y[11] + y[26] + y[67] + y[68] + y[69] + y[97] - z[767] >= 0
 R768: y[10] + y[13] + y[28] + y[60] + y[76] + y[78] + y[81] - z[768] >= 0
 R769: y[22] + y[57] + y[65] + y[72] + y[88] - z[769] >= 0
 R770: y[5] + y[20] + y[33] + y[34] + y[44] + y[61] + y[80] + y[93]
   - z[770] >= 0
 R771: y[1] + y[8] + y[73] + y[75] + y[96] - z[771] >= 0
 R772: y[10] + y[12] + y[57] + y[72] + y[88] - z[772] >= 0
 R773: y[5] + y[8] + y[15] + y[20] + y[34] + y[61] + y[75] + y[79] + y[80]
   + y[93] - z[773] >= 0
 R774: y[7] + y[23] + y[31] + y[37] + y[51] + y[62] + y[89] + y[98] + y[99]
   - z[774] >= 0
 R775: y[21] + y[30] + y[36] + y[41] + y[43] + y[47] + y[94] - z[775] >= 0
 R776: y[1] + y[7] + y[31] + y[37] + y[73] + y[89] + y[98] + y[99] - z[776]
   >= 0
 R777: y[11] + y[24] + y[52] + y[59] + y[67] + y[68] + y[69] + y[70]
   + y[86] + y[97] - z[777] >= 0
 R778: y[1] + y[31] + y[37] + y[73] + y[89] + y[99] - z[778] >= 0
 R779: y[1] + y[8] + y[73] + y[75] + y[96] - z[779] >= 0
 R780: y[8] + y[73] + y[75] + y[96] - z[780] >= 0
 R781: y[18] + y[46] + y[49] + y[74] + y[95] - z[781] >= 0
 R782: y[1] + y[37] + y[73] + y[96] - z[782] >= 0
 R783: y[1] + y[8] + y[46] + y[49] + y[74] + y[75] + y[80] + y[95] - z[783]
   >= 0
 R784: y[1] + y[7] + y[23] + y[31] + y[49] + y[51] + y[89] + y[98] + y[99]
   - z[784] >= 0
 R785: y[10] + y[12] + y[57] + y[72] + y[78] + y[88] - z[785] >= 0
 R786: y[15] + y[20] + y[41] + y[46] + y[49] + y[61] + y[75] + y[79]
   + y[80] + y[93] + y[95] - z[786] >= 0
 R787: y[97] - z[787] >= 0
 R788: y[4] + y[9] + y[26] + y[32] + y[71] - z[788] >= 0
 R789: y[25] + y[29] + y[50] + y[56] + y[77] - z[789] >= 0
 R790: y[3] + y[5] + y[19] + y[20] + y[33] + y[34] + y[38] + y[44] + y[48]
   + y[61] + y[79] + y[93] - z[790] >= 0
 R791: y[10] + y[12] + y[57] + y[72] + y[78] + y[81] + y[88] - z[791] >= 0
 R792: y[25] + y[29] + y[35] + y[50] + y[56] + y[66] + y[77] + y[87]
   - z[792] >= 0
 R793: y[12] + y[71] + y[88] - z[793] >= 0
 R794: y[1] + y[7] + y[23] + y[31] + y[37] + y[51] + y[62] + y[89] + y[98]
   + y[99] - z[794] >= 0
 R795: y[9] + y[26] + y[67] + y[69] - z[795] >= 0
 R796: y[5] + y[15] + y[20] + y[33] + y[34] + y[41] + y[48] + y[61] + y[79]
   + y[80] + y[93] - z[796] >= 0
 R797: y[16] + y[39] + y[40] + y[53] + y[54] + y[63] + y[66] + y[87]
   - z[797] >= 0
 R798: y[50] + y[56] + y[66] - z[798] >= 0
 R799: y[10] + y[12] + y[57] + y[72] + y[78] + y[88] - z[799] >= 0
 R800: y[22] + y[57] + y[65] + y[72] + y[78] + y[88] - z[800] >= 0
 R801: y[8] + y[15] + y[20] + y[34] + y[46] + y[61] + y[75] + y[79] + y[80]
   + y[93] + y[95] - z[801] >= 0
 R802: y[9] + y[26] + y[71] - z[802] >= 0
 R803: y[50] + y[56] + y[66] - z[803] >= 0
 R804: y[11] + y[24] + y[43] + y[52] + y[59] + y[67] + y[68] + y[69]
   + y[70] - z[804] >= 0
 R805: y[4] + y[5] + y[6] + y[32] + y[90] - z[805] >= 0
 R806: y[17] + y[39] + y[53] + y[58] + y[63] + y[91] - z[806] >= 0
 R807: y[2] + y[40] + y[83] + y[85] + y[92] - z[807] >= 0
 R808: y[46] + y[49] + y[74] + y[95] - z[808] >= 0
 R809: y[5] + y[17] + y[34] + y[58] + y[91] - z[809] >= 0
 R810: y[1] + y[8] + y[73] + y[75] + y[96] - z[810] >= 0
 R811: y[22] + y[57] + y[65] + y[72] + y[78] + y[88] - z[811] >= 0
 R812: y[3] + y[15] + y[20] + y[21] + y[33] + y[36] + y[41] + y[47] + y[48]
   + y[61] + y[79] + y[80] + y[93] - z[812] >= 0
 R813: y[15] + y[18] + y[36] + y[41] + y[46] + y[47] + y[49] + y[74]
   + y[79] + y[95] - z[813] >= 0
 R814: y[9] + y[11] + y[26] + y[67] + y[68] + y[69] + y[97] - z[814] >= 0
 R815: y[12] + y[22] + y[57] + y[65] + y[72] + y[88] - z[815] >= 0
 R816: y[31] + y[37] + y[89] + y[99] - z[816] >= 0
 R817: y[13] + y[28] + y[60] + y[76] + y[81] - z[817] >= 0
 R818: y[4] + y[6] + y[32] + y[44] + y[90] - z[818] >= 0
 R819: y[4] + y[6] + y[22] + y[32] + y[90] - z[819] >= 0
 R820: y[3] + y[5] + y[19] + y[20] + y[33] + y[34] + y[38] + y[44] + y[48]
   + y[61] + y[79] + y[93] - z[820] >= 0
 R821: y[28] + y[60] + y[76] - z[821] >= 0
 R822: y[11] + y[19] + y[30] + y[38] + y[43] + y[52] + y[59] + y[67]
   + y[68] + y[69] - z[822] >= 0
 R823: y[11] + y[24] + y[43] + y[52] + y[59] + y[67] + y[68] + y[69]
   + y[70] - z[823] >= 0
 R824: y[1] + y[8] + y[73] + y[75] + y[96] - z[824] >= 0
 R825: y[4] + y[5] + y[6] + y[32] + y[90] - z[825] >= 0
 R826: y[4] + y[5] + y[6] + y[32] + y[44] + y[90] - z[826] >= 0
 R827: y[1] + y[23] + y[31] + y[46] + y[49] + y[73] + y[89] + y[98] + y[99]
   - z[827] >= 0
 R828: y[22] + y[50] + y[56] - z[828] >= 0
 R829: y[17] + y[53] + y[96] - z[829] >= 0
 R830: y[24] + y[70] + y[86] - z[830] >= 0
 R831: y[7] + y[23] + y[31] + y[51] + y[62] + y[98] + y[99] - z[831] >= 0
 R832: y[23] + y[46] + y[49] + y[74] + y[98] - z[832] >= 0
 R833: y[13] + y[28] + y[60] + y[76] + y[81] - z[833] >= 0
 R834: y[16] + y[50] + y[54] + y[56] + y[58] + y[66] - z[834] >= 0
 R835: y[15] + y[18] + y[36] + y[41] + y[46] + y[47] + y[49] + y[74]
   + y[79] + y[95] - z[835] >= 0
 R836: y[9] + y[71] - z[836] >= 0
 R837: y[2] + y[14] + y[27] + y[42] + y[82] - z[837] >= 0
 R838: y[25] + y[29] + y[35] + y[77] - z[838] >= 0
 R839: y[10] + y[13] + y[57] + y[60] + y[72] + y[76] + y[78] + y[81]
   - z[839] >= 0
 R840: y[17] + y[96] - z[840] >= 0
 R841: y[40] + y[54] + y[66] + y[87] + y[92] - z[841] >= 0
 R842: y[12] + y[71] + y[88] - z[842] >= 0
 R843: y[45] - z[843] >= 0
 R844: y[1] + y[73] + y[96] + y[99] - z[844] >= 0
 R845: y[11] + y[52] + y[67] + y[68] + y[69] + y[86] + y[97] - z[845] >= 0
 R846: y[23] + y[46] + y[49] + y[74] + y[75] + y[95] - z[846] >= 0
 R847: y[0] + y[27] + y[39] + y[42] + y[53] + y[55] + y[63] + y[64]
   - z[847] >= 0
 R848: y[1] + y[31] + y[37] + y[73] + y[89] + y[99] - z[848] >= 0
 R849: y[50] + y[56] + y[58] - z[849] >= 0
 R850: y[24] + y[52] + y[59] + y[70] + y[86] - z[850] >= 0
 R851: y[13] + y[57] + y[60] + y[65] + y[72] - z[851] >= 0
 R852: y[16] + y[25] + y[35] + y[40] + y[50] + y[54] + y[56] + y[66]
   + y[77] + y[87] + y[92] - z[852] >= 0
 R853: y[18] + y[21] + y[36] + y[41] + y[47] + y[94] - z[853] >= 0
 R854: y[4] + y[6] + y[9] + y[26] + y[32] + y[90] - z[854] >= 0
 R855: y[13] + y[28] + y[60] + y[76] - z[855] >= 0
 R856: y[11] + y[24] + y[52] + y[67] + y[68] + y[69] + y[70] + y[86]
   + y[97] - z[856] >= 0
 R857: y[13] + y[57] + y[60] + y[65] + y[72] + y[76] + y[78] + y[81]
   - z[857] >= 0
 R858: y[57] + y[65] + y[72] - z[858] >= 0
 R859: y[40] + y[92] - z[859] >= 0
 R860: y[1] + y[31] + y[37] + y[73] + y[89] + y[99] - z[860] >= 0
 R861: y[45] + y[96] - z[861] >= 0
 R862: y[5] + y[8] + y[17] + y[34] + y[96] - z[862] >= 0
 R863: y[0] + y[27] - z[863] >= 0
 R864: y[6] + y[22] - z[864] >= 0
 R865: y[0] + y[53] + y[63] + y[64] - z[865] >= 0
 R866: y[29] + y[35] + y[77] - z[866] >= 0
 R867: y[18] + y[46] + y[49] + y[74] + y[95] - z[867] >= 0
 R868: y[13] + y[28] + y[60] + y[76] - z[868] >= 0
 R869: y[0] + y[27] - z[869] >= 0
 R870: y[25] + y[29] + y[35] + y[40] + y[77] + y[87] + y[92] - z[870] >= 0
 R871: y[5] + y[33] + y[34] + y[44] + y[61] + y[90] + y[93] - z[871] >= 0
 R872: y[37] + y[45] + y[73] + y[96] - z[872] >= 0
 R873: y[2] + y[40] + y[83] + y[85] - z[873] >= 0
 R874: y[0] + y[96] - z[874] >= 0
 R875: y[9] + y[11] + y[19] + y[26] + y[38] + y[67] + y[68] + y[69]
   - z[875] >= 0
 R876: y[13] - z[876] >= 0
 R877: y[3] + y[11] + y[19] + y[30] + y[38] + y[43] + y[52] + y[59] + y[68]
   + y[69] - z[877] >= 0
 R878: y[16] + y[40] + y[54] + y[66] + y[87] + y[92] - z[878] >= 0
 R879: - z[879] >= 0
 R880: y[25] + y[29] + y[35] + y[40] + y[77] + y[87] + y[92] - z[880] >= 0
 R881: y[18] + y[21] + y[36] + y[41] + y[47] - z[881] >= 0
 R882: y[13] + y[28] + y[60] + y[76] + y[78] + y[81] - z[882] >= 0
 R883: y[2] + y[14] + y[27] + y[82] - z[883] >= 0
 R884: y[11] + y[24] + y[30] + y[43] + y[52] + y[59] + y[68] + y[70]
   - z[884] >= 0
 R885: y[1] + y[8] + y[46] + y[73] + y[75] + y[80] + y[96] - z[885] >= 0
 R886: y[2] + y[14] + y[82] + y[83] + y[84] + y[85] - z[886] >= 0
 R887: y[3] + y[15] + y[19] + y[21] + y[33] + y[36] + y[41] + y[47] + y[48]
   + y[61] + y[79] - z[887] >= 0
 R888: y[40] + y[42] + y[54] + y[55] + y[92] - z[888] >= 0
 R889: y[45] - z[889] >= 0
 R890: y[40] + y[55] + y[87] + y[92] - z[890] >= 0
 R891: y[24] + y[30] + y[43] + y[52] + y[59] + y[70] + y[94] - z[891] >= 0
 R892: y[4] + y[6] + y[12] + y[22] + y[32] + y[88] - z[892] >= 0
 R893: y[1] + y[7] + y[23] + y[31] + y[49] + y[51] + y[89] + y[98] + y[99]
   - z[893] >= 0
 R894: y[25] + y[35] + y[40] + y[77] + y[87] + y[92] - z[894] >= 0
 R895: y[2] + y[14] + y[27] + y[42] + y[82] + y[83] - z[895] >= 0
 R896: y[12] + y[22] + y[57] + y[88] - z[896] >= 0
 R897: y[22] + y[57] + y[65] + y[72] - z[897] >= 0
 R898: y[16] + y[25] + y[50] + y[54] + y[56] + y[66] + y[77] + y[87]
   - z[898] >= 0
 R899: y[5] + y[8] + y[20] + y[34] + y[61] + y[80] + y[93] - z[899] >= 0
 R900: y[10] + y[13] + y[57] + y[60] + y[72] + y[76] + y[78] + y[81]
   - z[900] >= 0
 R901: y[25] + y[29] + y[35] + y[77] - z[901] >= 0
 R902: y[3] + y[19] + y[21] + y[33] + y[38] + y[43] + y[48] - z[902] >= 0
 R903: y[83] + y[84] + y[85] - z[903] >= 0
 R904: y[11] + y[24] + y[52] + y[59] + y[68] + y[70] + y[86] + y[97]
   - z[904] >= 0
 R905: y[8] + y[15] + y[20] + y[34] + y[46] + y[61] + y[75] + y[79] + y[80]
   + y[93] + y[95] - z[905] >= 0
 R906: y[11] + y[52] + y[67] + y[68] + y[69] + y[97] - z[906] >= 0
 R907: y[0] + y[16] + y[39] + y[42] + y[54] + y[55] + y[63] + y[64]
   - z[907] >= 0
 R908: y[4] + y[6] + y[9] + y[26] + y[32] + y[90] - z[908] >= 0
 R909: y[11] + y[30] + y[43] + y[52] + y[59] + y[68] + y[70] - z[909] >= 0
 R910: y[40] + y[87] + y[92] - z[910] >= 0
 R911: y[11] + y[24] + y[43] + y[52] + y[59] + y[67] + y[68] + y[69]
   + y[70] + y[97] - z[911] >= 0
 R912: y[16] + y[39] + y[53] + y[54] + y[58] + y[66] + y[91] - z[912] >= 0
 R913: y[13] + y[28] + y[60] + y[76] + y[81] - z[913] >= 0
 R914: y[5] + y[17] + y[34] - z[914] >= 0
 R915: y[8] + y[73] + y[96] - z[915] >= 0
 R916: y[40] + y[83] + y[85] + y[92] - z[916] >= 0
 R917: y[40] + y[87] + y[92] - z[917] >= 0
 R918: y[45] - z[918] >= 0
 R919: y[13] + y[28] + y[60] + y[76] - z[919] >= 0
 R920: y[3] + y[5] + y[15] + y[20] + y[33] + y[34] + y[44] + y[48] + y[61]
   + y[79] + y[80] + y[93] - z[920] >= 0
 R921: y[0] + y[96] - z[921] >= 0
 R922: y[5] + y[17] + y[34] + y[91] - z[922] >= 0
 R923: y[1] + y[31] + y[37] + y[73] + y[89] + y[96] + y[99] - z[923] >= 0
 R924: y[13] + y[28] + y[60] + y[76] - z[924] >= 0
 R925: y[8] + y[15] + y[20] + y[46] + y[49] + y[61] + y[75] + y[80] + y[93]
   + y[95] - z[925] >= 0
 R926: y[11] + y[26] + y[52] + y[67] + y[68] + y[69] + y[97] - z[926] >= 0
 R927: y[8] + y[34] + y[75] + y[80] + y[96] - z[927] >= 0
 R928: y[9] + y[11] + y[26] + y[67] + y[68] + y[69] + y[97] - z[928] >= 0
 R929: y[8] + y[73] + y[75] + y[96] - z[929] >= 0
 R930: y[4] + y[6] + y[22] + y[32] + y[90] - z[930] >= 0
 R931: y[65] - z[931] >= 0
 R932: y[18] + y[46] + y[49] + y[74] + y[95] - z[932] >= 0
 R933: y[4] + y[9] + y[26] + y[32] - z[933] >= 0
 R934: y[16] + y[39] + y[50] + y[53] + y[54] + y[58] + y[63] + y[66]
   + y[91] - z[934] >= 0
 R935: y[25] + y[35] + y[77] + y[92] - z[935] >= 0
 R936: y[12] + y[71] + y[88] - z[936] >= 0
 R937: y[5] + y[17] + y[34] + y[91] - z[937] >= 0
 R938: y[14] + y[27] + y[82] - z[938] >= 0
 R939: y[65] - z[939] >= 0
 R940: y[21] + y[30] + y[36] + y[41] + y[43] + y[47] + y[48] + y[94]
   - z[940] >= 0
 R941: y[0] + y[45] - z[941] >= 0
 R942: y[17] + y[96] - z[942] >= 0
 R943: y[11] + y[19] + y[26] + y[38] + y[43] + y[52] + y[59] + y[67]
   + y[68] + y[69] + y[97] - z[943] >= 0
 R944: y[3] + y[19] + y[21] + y[30] + y[33] + y[36] + y[41] + y[43] + y[47]
   + y[48] + y[94] - z[944] >= 0
 R945: y[5] + y[20] + y[33] + y[34] + y[44] + y[61] + y[90] + y[93]
   - z[945] >= 0
 R946: y[3] + y[19] + y[33] + y[38] + y[44] + y[48] - z[946] >= 0
 R947: y[1] + y[23] + y[46] + y[49] + y[74] + y[98] + y[99] - z[947] >= 0
 R948: y[23] + y[46] + y[49] + y[74] + y[98] - z[948] >= 0
 R949: y[16] + y[50] + y[54] + y[56] + y[66] - z[949] >= 0
 R950: y[65] - z[950] >= 0
 R951: y[22] + y[57] + y[65] + y[88] - z[951] >= 0
 R952: y[15] + y[20] + y[41] + y[46] + y[48] + y[61] + y[75] + y[79]
   + y[80] + y[93] + y[95] - z[952] >= 0
 R953: y[0] + y[45] - z[953] >= 0
 R954: y[13] + y[57] + y[60] + y[72] + y[76] + y[78] + y[81] - z[954] >= 0
 R955: y[17] + y[53] + y[58] + y[63] + y[91] - z[955] >= 0
 R956: y[9] + y[26] + y[32] + y[71] - z[956] >= 0
 R957: y[11] + y[68] + y[86] + y[97] - z[957] >= 0
 R958: y[10] + y[13] + y[57] + y[60] + y[72] + y[76] + y[78] + y[81]
   - z[958] >= 0
 R959: y[17] + y[39] + y[53] + y[58] + y[63] + y[91] - z[959] >= 0
 R960: y[13] + y[28] + y[60] + y[76] + y[81] - z[960] >= 0
 R961: y[12] + y[57] + y[88] - z[961] >= 0
 R962: y[1] + y[23] + y[31] + y[46] + y[49] + y[98] + y[99] - z[962] >= 0
 R963: y[4] + y[6] + y[32] + y[90] - z[963] >= 0
 R964: y[1] + y[23] + y[31] + y[37] + y[73] + y[89] + y[98] + y[99]
   - z[964] >= 0
 R965: y[40] + y[83] + y[85] + y[92] - z[965] >= 0
 R966: y[2] + y[83] + y[84] + y[85] - z[966] >= 0
 R967: y[58] + y[91] - z[967] >= 0
 R968: y[0] + y[27] + y[42] + y[55] + y[64] - z[968] >= 0
 R969: y[83] + y[84] + y[85] - z[969] >= 0
 R970: y[5] + y[8] + y[17] + y[34] + y[91] - z[970] >= 0
 R971: y[5] + y[8] + y[15] + y[20] + y[34] + y[61] + y[75] + y[79] + y[80]
   + y[93] - z[971] >= 0
 R972: y[4] + y[9] + y[26] + y[32] + y[71] - z[972] >= 0
 R973: y[16] + y[50] + y[54] + y[56] + y[66] + y[87] - z[973] >= 0
 R974: y[40] + y[85] + y[92] - z[974] >= 0
 R975: y[1] + y[8] + y[46] + y[49] + y[73] + y[75] - z[975] >= 0
 R976: y[11] + y[43] + y[52] + y[59] + y[67] + y[68] + y[69] + y[97]
   - z[976] >= 0
 R977: y[11] + y[24] + y[30] + y[43] + y[52] + y[59] + y[68] + y[70]
   - z[977] >= 0
 R978: y[17] + y[53] + y[63] + y[64] + y[91] - z[978] >= 0
 R979: y[4] + y[5] + y[6] + y[90] - z[979] >= 0
 R980: y[57] + y[65] + y[72] - z[980] >= 0
 R981: y[16] + y[40] + y[54] + y[66] + y[87] + y[92] - z[981] >= 0
 R982: y[13] + y[57] + y[65] + y[72] - z[982] >= 0
 R983: y[25] + y[40] + y[66] + y[77] + y[87] + y[92] - z[983] >= 0
 R984: y[5] + y[17] + y[34] + y[91] - z[984] >= 0
 R985: y[13] + y[57] + y[60] + y[72] + y[76] + y[78] + y[81] - z[985] >= 0
 R986: y[9] + y[11] + y[19] + y[26] + y[38] + y[67] + y[68] + y[69] + y[97]
   - z[986] >= 0
 R987: y[0] + y[2] + y[27] + y[42] + y[55] - z[987] >= 0
 R988: y[6] + y[12] + y[22] + y[32] + y[88] - z[988] >= 0
 R989: y[25] + y[29] + y[35] + y[77] - z[989] >= 0
 R990: y[16] + y[50] + y[54] + y[56] + y[58] + y[66] + y[87] - z[990] >= 0
 R991: y[37] + y[73] + y[96] - z[991] >= 0
 R992: y[13] + y[28] + y[60] + y[76] - z[992] >= 0
 R993: y[8] + y[15] + y[20] + y[34] + y[46] + y[61] + y[75] + y[79] + y[80]
   + y[93] + y[95] - z[993] >= 0
 R994: y[15] + y[18] + y[21] + y[36] + y[41] + y[47] + y[95] - z[994] >= 0
 R995: y[3] + y[19] + y[21] + y[33] + y[38] + y[43] + y[44] + y[48]
   - z[995] >= 0
 R996: y[24] + y[30] + y[43] + y[52] + y[59] + y[70] + y[94] - z[996] >= 0
 R997: y[27] - z[997] >= 0
 R998: y[9] + y[26] + y[67] + y[69] - z[998] >= 0
 R999: y[5] + y[8] + y[20] + y[34] + y[61] + y[75] + y[80] + y[93] - z[999]
   >= 0
 R1000: 87 z[0] + 71 z[1] + 95 z[2] + 46 z[3] + 59 z[4] + 53 z[5] + 9 z[6]
   + 87 z[7] + 99 z[8] + 6 z[9] + 14 z[10] + 45 z[11] + 31 z[12] + 22 z[13]
   + 48 z[14] + 8 z[15] + 59 z[16] + z[17] + 79 z[18] + 30 z[19] + 8 z[20]
   + 59 z[21] + 54 z[22] + 80 z[23] + 8 z[24] + 73 z[25] + 76 z[26]
   + 11 z[27] + 3 z[28] + 5 z[29] + 9 z[30] + 41 z[31] + 27 z[32] + 3 z[33]
   + 87 z[34] + 86 z[35] + 7 z[36] + 47 z[37] + 24 z[38] + 5 z[39]
   + 52 z[40] + 38 z[41] + 2 z[42] + 34 z[43] + 11 z[44] + 49 z[45]
   + 93 z[46] + 70 z[47] + z[48] + 72 z[49] + 51 z[50] + 9 z[51] + 82 z[52]
   + 57 z[53] + 88 z[54] + 89 z[55] + 29 z[56] + 63 z[57] + 52 z[58]
   + 84 z[59] + 19 z[60] + 60 z[61] + 24 z[62] + 46 z[63] + 15 z[64]
   + 62 z[65] + 83 z[66] + 73 z[67] + 8 z[68] + 58 z[69] + 30 z[70]
   + 12 z[71] + 95 z[72] + 31 z[73] + 45 z[74] + 58 z[75] + 79 z[76]
   + 38 z[77] + 27 z[78] + 79 z[79] + 61 z[80] + 29 z[81] + 87 z[82]
   + 42 z[83] + 85 z[84] + 26 z[85] + 83 z[86] + 66 z[87] + 40 z[88]
   + 34 z[89] + 49 z[90] + 59 z[91] + 45 z[92] + 24 z[93] + 56 z[94]
   + 11 z[95] + 86 z[96] + 90 z[97] + 84 z[98] + 45 z[99] + 47 z[100]
   + 13 z[101] + 56 z[102] + 94 z[103] + 43 z[104] + z[105] + 51 z[106]
   + 21 z[107] + 90 z[108] + 29 z[109] + 51 z[110] + 50 z[111] + 57 z[112]
   + 38 z[113] + 43 z[114] + 42 z[115] + 15 z[116] + 25 z[117] + 59 z[118]
   + 55 z[119] + 10 z[120] + 59 z[121] + 65 z[122] + 55 z[123] + 82 z[124]
   + 20 z[125] + 17 z[126] + 19 z[127] + 61 z[128] + 100 z[129] + 64 z[130]
   + 7 z[131] + 64 z[132] + 19 z[133] + 100 z[134] + 6 z[135] + 71 z[136]
   + 2 z[137] + 78 z[138] + 12 z[139] + 30 z[140] + 29 z[141] + 13 z[142]
   + 87 z[143] + 18 z[144] + 56 z[145] + 80 z[146] + 84 z[147] + 80 z[148]
   + 90 z[149] + 38 z[150] + 90 z[151] + 48 z[152] + 54 z[153] + 96 z[154]
   + 81 z[155] + 25 z[156] + 12 z[157] + 100 z[158] + 85 z[159] + 12 z[160]
   + 15 z[161] + 44 z[162] + 27 z[163] + 85 z[164] + 43 z[165] + 33 z[166]
   + 8 z[167] + 97 z[168] + 62 z[169] + 19 z[170] + 26 z[171] + 42 z[172]
   + 32 z[173] + 64 z[174] + 11 z[175] + 87 z[176] + 95 z[177] + 95 z[178]
   + 18 z[179] + 36 z[180] + 84 z[181] + 59 z[182] + 83 z[183] + 38 z[184]
   + 54 z[185] + 16 z[186] + 14 z[187] + 18 z[188] + 15 z[189] + 99 z[190]
   + 81 z[191] + 81 z[192] + 42 z[193] + 7 z[194] + 65 z[195] + 36 z[196]
   + 39 z[197] + 24 z[198] + 32 z[199] + 53 z[200] + 43 z[201] + 10 z[202]
   + 46 z[203] + 26 z[204] + 25 z[205] + 57 z[206] + 64 z[207] + 72 z[208]
   + 3 z[209] + 81 z[210] + 7 z[211] + 86 z[212] + 92 z[213] + 90 z[214]
   + 75 z[215] + 45 z[216] + 57 z[217] + 89 z[218] + 62 z[219] + 71 z[220]
   + 39 z[221] + 42 z[222] + 3 z[223] + 80 z[224] + 49 z[225] + 19 z[226]
   + 67 z[227] + 39 z[228] + 43 z[229] + 51 z[230] + 43 z[231] + 85 z[232]
   + 60 z[233] + 89 z[234] + 62 z[235] + 36 z[236] + 97 z[237] + 25 z[238]
   + 7 z[239] + 99 z[240] + 57 z[241] + 14 z[242] + 36 z[243] + 48 z[244]
   + 55 z[245] + 63 z[246] + 45 z[247] + 11 z[248] + 3 z[249] + 58 z[250]
   + 33 z[251] + 41 z[252] + 52 z[253] + 87 z[254] + 72 z[255] + 100 z[256]
   + 5 z[257] + 90 z[258] + 90 z[259] + 47 z[260] + 40 z[261] + 85 z[262]
   + 83 z[263] + 51 z[264] + 73 z[265] + 44 z[266] + 87 z[267] + 69 z[268]
   + 20 z[269] + 93 z[270] + 19 z[271] + 77 z[272] + 58 z[273] + 54 z[274]
   + 76 z[275] + 64 z[276] + 16 z[277] + 20 z[278] + 26 z[279] + 70 z[280]
   + 78 z[281] + 10 z[282] + 10 z[283] + 81 z[284] + 96 z[285] + 33 z[286]
   + 32 z[287] + z[288] + 23 z[289] + 21 z[290] + 47 z[291] + 14 z[292]
   + 57 z[293] + 30 z[294] + 65 z[295] + 29 z[296] + 25 z[297] + 51 z[298]
   + 49 z[299] + 45 z[300] + 95 z[301] + 19 z[302] + 73 z[303] + 5 z[304]
   + 73 z[305] + 48 z[306] + 68 z[307] + 40 z[308] + 20 z[309] + 94 z[310]
   + 10 z[311] + 49 z[312] + 55 z[313] + 71 z[314] + 29 z[315] + 51 z[316]
   + 56 z[317] + 60 z[318] + 51 z[319] + 30 z[320] + 32 z[321] + 49 z[322]
   + 43 z[323] + 89 z[324] + 78 z[325] + 7 z[326] + 69 z[327] + 55 z[328]
   + 9 z[329] + 70 z[330] + 99 z[331] + 4 z[332] + 88 z[333] + 71 z[334]
   + 8 z[335] + 12 z[336] + 70 z[337] + 27 z[338] + 4 z[339] + 41 z[340]
   + 72 z[341] + 65 z[342] + 89 z[343] + 27 z[344] + 87 z[345] + 17 z[346]
   + 77 z[347] + 42 z[348] + 28 z[349] + 79 z[350] + 23 z[351] + 60 z[352]
   + 27 z[353] + 66 z[354] + 100 z[355] + 5 z[356] + 24 z[357] + 68 z[358]
   + 59 z[359] + 33 z[360] + 89 z[361] + 9 z[362] + 88 z[363] + 77 z[364]
   + 31 z[365] + 95 z[366] + 40 z[367] + 52 z[368] + 73 z[369] + 43 z[370]
   + 93 z[371] + 45 z[372] + 7 z[373] + 81 z[374] + 23 z[375] + 94 z[376]
   + 50 z[377] + 99 z[378] + 87 z[379] + 29 z[380] + 77 z[381] + 10 z[382]
   + 88 z[383] + 3 z[384] + 27 z[385] + 39 z[386] + 59 z[387] + 50 z[388]
   + 59 z[389] + 69 z[390] + 82 z[391] + 47 z[392] + 29 z[393] + 21 z[394]
   + 75 z[395] + 59 z[396] + 15 z[397] + 15 z[398] + 63 z[399] + 40 z[400]
   + 57 z[401] + 55 z[402] + 36 z[403] + 16 z[404] + 35 z[405] + 58 z[406]
   + 61 z[407] + 36 z[408] + 8 z[409] + 47 z[410] + 65 z[411] + 84 z[412]
   + 56 z[413] + 4 z[414] + 38 z[415] + 34 z[416] + 43 z[417] + 49 z[418]
   + 84 z[419] + z[420] + 69 z[421] + 17 z[422] + 47 z[423] + 50 z[424]
   + 38 z[425] + 22 z[426] + 60 z[427] + 4 z[428] + 88 z[429] + 22 z[430]
   + 43 z[431] + 44 z[432] + 76 z[433] + 78 z[434] + 11 z[435] + 63 z[436]
   + 87 z[437] + 71 z[438] + 98 z[439] + 94 z[440] + 18 z[441] + 62 z[442]
   + 29 z[443] + 25 z[444] + 18 z[445] + 67 z[446] + 59 z[447] + 60 z[448]
   + 67 z[449] + 94 z[450] + 60 z[451] + 87 z[452] + 10 z[453] + 58 z[454]
   + 36 z[455] + 47 z[456] + 31 z[457] + 96 z[458] + 3 z[459] + 18 z[460]
   + 17 z[461] + 97 z[462] + 14 z[463] + 93 z[464] + 75 z[465] + 24 z[466]
   + 7 z[467] + 61 z[468] + 95 z[469] + 4 z[470] + 7 z[471] + 64 z[472]
   + 18 z[473] + 35 z[474] + 40 z[475] + 35 z[476] + 53 z[477] + 50 z[478]
   + 94 z[479] + 19 z[480] + 43 z[481] + 5 z[482] + 6 z[483] + 5 z[484]
   + 14 z[485] + 93 z[486] + 3 z[487] + 45 z[488] + 88 z[489] + 5 z[490]
   + 62 z[491] + 57 z[492] + 2 z[493] + 27 z[494] + 49 z[495] + 28 z[496]
   + 51 z[497] + 55 z[498] + 40 z[499] + 97 z[500] + 10 z[501] + 46 z[502]
   + 12 z[503] + 27 z[504] + 81 z[505] + 3 z[506] + 13 z[507] + 33 z[508]
   + 53 z[509] + 58 z[510] + 4 z[511] + 47 z[512] + 62 z[513] + 61 z[514]
   + 51 z[515] + 28 z[516] + 53 z[517] + 54 z[518] + 72 z[519] + 41 z[520]
   + 58 z[521] + 85 z[522] + 49 z[523] + 11 z[524] + 12 z[525] + 49 z[526]
   + 38 z[527] + 14 z[528] + 55 z[529] + 78 z[530] + 62 z[531] + 64 z[532]
   + 75 z[533] + 25 z[534] + 43 z[535] + 55 z[536] + 27 z[537] + 55 z[538]
   + 40 z[539] + 79 z[540] + 65 z[541] + 43 z[542] + 26 z[543] + 78 z[544]
   + 3 z[545] + 28 z[546] + 5 z[547] + 55 z[548] + 81 z[549] + 76 z[550]
   + 47 z[551] + 91 z[552] + 61 z[553] + 95 z[554] + z[555] + 24 z[556]
   + 43 z[557] + 91 z[558] + 89 z[559] + 97 z[560] + 20 z[561] + 50 z[562]
   + 13 z[563] + 94 z[564] + 26 z[565] + 55 z[566] + 49 z[567] + 52 z[568]
   + 61 z[569] + 88 z[570] + 83 z[571] + 25 z[572] + 30 z[573] + 60 z[574]
   + 3 z[575] + 84 z[576] + 87 z[577] + 7 z[578] + 38 z[579] + 68 z[580]
   + 35 z[581] + 37 z[582] + 10 z[583] + 47 z[584] + 31 z[585] + 10 z[586]
   + 70 z[587] + 26 z[588] + 52 z[589] + 58 z[590] + 74 z[591] + 71 z[592]
   + 59 z[593] + 86 z[594] + 65 z[595] + 84 z[596] + 40 z[597] + 65 z[598]
   + 87 z[599] + 53 z[600] + 4 z[601] + 69 z[602] + 77 z[603] + 33 z[604]
   + 28 z[605] + 31 z[606] + 68 z[607] + 67 z[608] + 38 z[609] + 5 z[610]
   + 34 z[611] + 72 z[612] + 93 z[613] + 95 z[614] + 18 z[615] + 76 z[616]
   + 56 z[617] + 39 z[618] + z[619] + 8 z[620] + 48 z[621] + 74 z[622]
   + 78 z[623] + 58 z[624] + 60 z[625] + 94 z[626] + 93 z[627] + 51 z[628]
   + 58 z[629] + 79 z[630] + 3 z[631] + 61 z[632] + 48 z[633] + 32 z[634]
   + 45 z[635] + 27 z[636] + 62 z[637] + 12 z[638] + 93 z[639] + 99 z[640]
   + 69 z[641] + 78 z[642] + 22 z[643] + 61 z[644] + 72 z[645] + 91 z[646]
   + 88 z[647] + 80 z[648] + 81 z[649] + 88 z[650] + 87 z[651] + 80 z[652]
   + 14 z[653] + 64 z[654] + 37 z[655] + 25 z[656] + 10 z[657] + 29 z[658]
   + 75 z[659] + 67 z[660] + 60 z[661] + 30 z[662] + 28 z[663] + 59 z[664]
   + 61 z[665] + 72 z[666] + 85 z[667] + 74 z[668] + 36 z[669] + 30 z[670]
   + 25 z[671] + 4 z[672] + 59 z[673] + 46 z[674] + 16 z[675] + 83 z[676]
   + 89 z[677] + 4 z[678] + 62 z[679] + 69 z[680] + 43 z[681] + 48 z[682]
   + z[683] + 56 z[684] + 63 z[685] + 37 z[686] + 32 z[687] + 72 z[688]
   + 18 z[689] + 59 z[690] + 39 z[691] + 77 z[692] + 88 z[693] + 18 z[694]
   + 35 z[695] + 100 z[696] + 41 z[697] + 71 z[698] + 73 z[699] + 28 z[700]
   + 52 z[701] + 97 z[702] + 83 z[703] + 11 z[704] + 95 z[705] + 99 z[706]
   + 93 z[707] + 83 z[708] + 54 z[709] + 54 z[710] + 3 z[711] + 48 z[712]
   + 53 z[713] + 55 z[714] + 56 z[715] + 15 z[716] + 92 z[717] + 87 z[718]
   + 39 z[719] + 61 z[720] + 45 z[721] + 29 z[722] + 89 z[723] + 84 z[724]
   + 46 z[725] + 23 z[726] + 35 z[727] + 38 z[728] + 45 z[729] + 8 z[730]
   + 66 z[731] + 97 z[732] + 56 z[733] + 48 z[734] + 7 z[735] + 50 z[736]
   + 98 z[737] + 51 z[738] + 84 z[739] + 3 z[740] + 4 z[741] + 39 z[742]
   + 51 z[743] + 56 z[744] + 93 z[745] + 6 z[746] + 22 z[747] + 36 z[748]
   + 92 z[749] + 12 z[750] + 96 z[751] + 89 z[752] + 40 z[753] + 84 z[754]
   + 24 z[755] + 37 z[756] + 58 z[757] + 59 z[758] + 27 z[759] + 3 z[760]
   + 66 z[761] + 92 z[762] + 51 z[763] + 21 z[764] + 91 z[765] + 9 z[766]
   + 23 z[767] + 89 z[768] + 59 z[769] + 58 z[770] + 91 z[771] + 62 z[772]
   + 96 z[773] + 41 z[774] + 69 z[775] + 41 z[776] + 98 z[777] + 42 z[778]
   + 76 z[779] + 42 z[780] + 54 z[781] + 24 z[782] + 30 z[783] + 45 z[784]
   + 59 z[785] + 53 z[786] + 34 z[787] + 17 z[788] + 11 z[789] + 60 z[790]
   + 71 z[791] + 28 z[792] + 51 z[793] + 73 z[794] + z[795] + 41 z[796]
   + 81 z[797] + 75 z[798] + 81 z[799] + 39 z[800] + 32 z[801] + 72 z[802]
   + 100 z[803] + 80 z[804] + 64 z[805] + 20 z[806] + 20 z[807] + 62 z[808]
   + 13 z[809] + 47 z[810] + 55 z[811] + 18 z[812] + 70 z[813] + 84 z[814]
   + 63 z[815] + 29 z[816] + 88 z[817] + 96 z[818] + 97 z[819] + 51 z[820]
   + 55 z[821] + 67 z[822] + 30 z[823] + 57 z[824] + 39 z[825] + 30 z[826]
   + 97 z[827] + 19 z[828] + 56 z[829] + 30 z[830] + 9 z[831] + 88 z[832]
   + z[833] + 8 z[834] + 19 z[835] + 16 z[836] + 79 z[837] + 38 z[838]
   + 29 z[839] + 91 z[840] + 36 z[841] + 83 z[842] + 9 z[843] + 6 z[844]
   + 18 z[845] + 23 z[846] + 86 z[847] + 58 z[848] + 70 z[849] + 82 z[850]
   + 8 z[851] + 24 z[852] + 100 z[853] + 37 z[854] + 80 z[855] + 90 z[856]
   + 19 z[857] + 28 z[858] + 8 z[859] + 74 z[860] + 57 z[861] + 16 z[862]
   + 13 z[863] + 9 z[864] + 75 z[865] + 31 z[866] + 77 z[867] + 5 z[868]
   + 20 z[869] + 57 z[870] + 47 z[871] + 56 z[872] + 40 z[873] + 7 z[874]
   + 13 z[875] + 9 z[876] + 29 z[877] + 98 z[878] + 66 z[879] + 98 z[880]
   + 31 z[881] + 73 z[882] + 73 z[883] + 30 z[884] + 62 z[885] + 4 z[886]
   + 19 z[887] + 32 z[888] + 84 z[889] + 78 z[890] + 57 z[891] + 92 z[892]
   + 45 z[893] + 70 z[894] + 53 z[895] + 71 z[896] + 52 z[897] + 29 z[898]
   + 27 z[899] + 24 z[900] + 85 z[901] + 73 z[902] + 31 z[903] + 76 z[904]
   + 80 z[905] + 95 z[906] + 85 z[907] + 60 z[908] + 92 z[909] + 50 z[910]
   + 10 z[911] + 74 z[912] + 75 z[913] + 82 z[914] + 3 z[915] + 36 z[916]
   + 38 z[917] + 73 z[918] + 67 z[919] + 21 z[920] + 2 z[921] + 75 z[922]
   + 12 z[923] + 46 z[924] + 44 z[925] + 16 z[926] + 68 z[927] + 48 z[928]
   + 44 z[929] + 94 z[930] + 23 z[931] + 81 z[932] + 18 z[933] + 5 z[934]
   + 8 z[935] + 97 z[936] + 99 z[937] + 92 z[938] + 9 z[939] + 90 z[940]
   + 94 z[941] + 18 z[942] + 63 z[943] + 68 z[944] + 51 z[945] + 17 z[946]
   + 55 z[947] + 88 z[948] + 41 z[949] + 73 z[950] + 60 z[951] + 42 z[952]
   + 47 z[953] + 24 z[954] + 39 z[955] + 43 z[956] + 39 z[957] + 6 z[958]
   + 90 z[959] + 83 z[960] + 51 z[961] + 64 z[962] + 15 z[963] + 68 z[964]
   + 68 z[965] + 22 z[966] + 17 z[967] + 66 z[968] + 66 z[969] + 25 z[970]
   + 7 z[971] + 59 z[972] + 42 z[973] + 21 z[974] + 26 z[975] + 92 z[976]
   + 89 z[977] + 80 z[978] + 32 z[979] + 29 z[980] + 52 z[981] + 91 z[982]
   + 70 z[983] + 98 z[984] + 14 z[985] + 60 z[986] + 92 z[987] + 53 z[988]
   + 17 z[989] + 33 z[990] + 87 z[991] + 67 z[992] + 96 z[993] + z[994]
   + 86 z[995] + 15 z[996] + 74 z[997] + 2 z[998] + 80 z[999] >= 34941.2
Bounds
Binaries
 y[0] y[1] y[2] y[3] y[4] y[5] y[6] y[7] y[8] y[9] y[10] y[11] y[12] y[13]
 y[14] y[15] y[16] y[17] y[18] y[19] y[20] y[21] y[22] y[23] y[24] y[25]
 y[26] y[27] y[28] y[29] y[30] y[31] y[32] y[33] y[34] y[35] y[36] y[37]
 y[38] y[39] y[40] y[41] y[42] y[43] y[44] y[45] y[46] y[47] y[48] y[49]
 y[50] y[51] y[52] y[53] y[54] y[55] y[56] y[57] y[58] y[59] y[60] y[61]
 y[62] y[63] y[64] y[65] y[66] y[67] y[68] y[69] y[70] y[71] y[72] y[73]
 y[74] y[75] y[76] y[77] y[78] y[79] y[80] y[81] y[82] y[83] y[84] y[85]
 y[86] y[87] y[88] y[89] y[90] y[91] y[92] y[93] y[94] y[95] y[96] y[97]
 y[98] y[99] z[0] z[1] z[2] z[3] z[4] z[5] z[6] z[7] z[8] z[9] z[10] z[11]
 z[12] z[13] z[14] z[15] z[16] z[17] z[18] z[19] z[20] z[21] z[22] z[23]
 z[24] z[25] z[26] z[27] z[28] z[29] z[30] z[31] z[32] z[33] z[34] z[35]
 z[36] z[37] z[38] z[39] z[40] z[41] z[42] z[43] z[44] z[45] z[46] z[47]
 z[48] z[49] z[50] z[51] z[52] z[53] z[54] z[55] z[56] z[57] z[58] z[59]
 z[60] z[61] z[62] z[63] z[64] z[65] z[66] z[67] z[68] z[69] z[70] z[71]
 z[72] z[73] z[74] z[75] z[76] z[77] z[78] z[79] z[80] z[81] z[82] z[83]
 z[84] z[85] z[86] z[87] z[88] z[89] z[90] z[91] z[92] z[93] z[94] z[95]
 z[96] z[97] z[98] z[99] z[100] z[101] z[102] z[103] z[104] z[105] z[106]
 z[107] z[108] z[109] z[110] z[111] z[112] z[113] z[114] z[115] z[116]
 z[117] z[118] z[119] z[120] z[121] z[122] z[123] z[124] z[125] z[126]
 z[127] z[128] z[129] z[130] z[131] z[132] z[133] z[134] z[135] z[136]
 z[137] z[138] z[139] z[140] z[141] z[142] z[143] z[144] z[145] z[146]
 z[147] z[148] z[149] z[150] z[151] z[152] z[153] z[154] z[155] z[156]
 z[157] z[158] z[159] z[160] z[161] z[162] z[163] z[164] z[165] z[166]
 z[167] z[168] z[169] z[170] z[171] z[172] z[173] z[174] z[175] z[176]
 z[177] z[178] z[179] z[180] z[181] z[182] z[183] z[184] z[185] z[186]
 z[187] z[188] z[189] z[190] z[191] z[192] z[193] z[194] z[195] z[196]
 z[197] z[198] z[199] z[200] z[201] z[202] z[203] z[204] z[205] z[206]
 z[207] z[208] z[209] z[210] z[211] z[212] z[213] z[214] z[215] z[216]
 z[217] z[218] z[219] z[220] z[221] z[222] z[223] z[224] z[225] z[226]
 z[227] z[228] z[229] z[230] z[231] z[232] z[233] z[234] z[235] z[236]
 z[237] z[238] z[239] z[240] z[241] z[242] z[243] z[244] z[245] z[246]
 z[247] z[248] z[249] z[250] z[251] z[252] z[253] z[254] z[255] z[256]
 z[257] z[258] z[259] z[260] z[261] z[262] z[263] z[264] z[265] z[266]
 z[267] z[268] z[269] z[270] z[271] z[272] z[273] z[274] z[275] z[276]
 z[277] z[278] z[279] z[280] z[281] z[282] z[283] z[284] z[285] z[286]
 z[287] z[288] z[289] z[290] z[291] z[292] z[293] z[294] z[295] z[296]
 z[297] z[298] z[299] z[300] z[301] z[302] z[303] z[304] z[305] z[306]
 z[307] z[308] z[309] z[310] z[311] z[312] z[313] z[314] z[315] z[316]
 z[317] z[318] z[319] z[320] z[321] z[322] z[323] z[324] z[325] z[326]
 z[327] z[328] z[329] z[330] z[331] z[332] z[333] z[334] z[335] z[336]
 z[337] z[338] z[339] z[340] z[341] z[342] z[343] z[344] z[345] z[346]
 z[347] z[348] z[349] z[350] z[351] z[352] z[353] z[354] z[355] z[356]
 z[357] z[358] z[359] z[360] z[361] z[362] z[363] z[364] z[365] z[366]
 z[367] z[368] z[369] z[370] z[371] z[372] z[373] z[374] z[375] z[376]
 z[377] z[378] z[379] z[380] z[381] z[382] z[383] z[384] z[385] z[386]
 z[387] z[388] z[389] z[390] z[391] z[392] z[393] z[394] z[395] z[396]
 z[397] z[398] z[399] z[400] z[401] z[402] z[403] z[404] z[405] z[406]
 z[407] z[408] z[409] z[410] z[411] z[412] z[413] z[414] z[415] z[416]
 z[417] z[418] z[419] z[420] z[421] z[422] z[423] z[424] z[425] z[426]
 z[427] z[428] z[429] z[430] z[431] z[432] z[433] z[434] z[435] z[436]
 z[437] z[438] z[439] z[440] z[441] z[442] z[443] z[444] z[445] z[446]
 z[447] z[448] z[449] z[450] z[451] z[452] z[453] z[454] z[455] z[456]
 z[457] z[458] z[459] z[460] z[461] z[462] z[463] z[464] z[465] z[466]
 z[467] z[468] z[469] z[470] z[471] z[472] z[473] z[474] z[475] z[476]
 z[477] z[478] z[479] z[480] z[481] z[482] z[483] z[484] z[485] z[486]
 z[487] z[488] z[489] z[490] z[491] z[492] z[493] z[494] z[495] z[496]
 z[497] z[498] z[499] z[500] z[501] z[502] z[503] z[504] z[505] z[506]
 z[507] z[508] z[509] z[510] z[511] z[512] z[513] z[514] z[515] z[516]
 z[517] z[518] z[519] z[520] z[521] z[522] z[523] z[524] z[525] z[526]
 z[527] z[528] z[529] z[530] z[531] z[532] z[533] z[534] z[535] z[536]
 z[537] z[538] z[539] z[540] z[541] z[542] z[543] z[544] z[545] z[546]
 z[547] z[548] z[549] z[550] z[551] z[552] z[553] z[554] z[555] z[556]
 z[557] z[558] z[559] z[560] z[561] z[562] z[563] z[564] z[565] z[566]
 z[567] z[568] z[569] z[570] z[571] z[572] z[573] z[574] z[575] z[576]
 z[577] z[578] z[579] z[580] z[581] z[582] z[583] z[584] z[585] z[586]
 z[587] z[588] z[589] z[590] z[591] z[592] z[593] z[594] z[595] z[596]
 z[597] z[598] z[599] z[600] z[601] z[602] z[603] z[604] z[605] z[606]
 z[607] z[608] z[609] z[610] z[611] z[612] z[613] z[614] z[615] z[616]
 z[617] z[618] z[619] z[620] z[621] z[622] z[623] z[624] z[625] z[626]
 z[627] z[628] z[629] z[630] z[631] z[632] z[633] z[634] z[635] z[636]
 z[637] z[638] z[639] z[640] z[641] z[642] z[643] z[644] z[645] z[646]
 z[647] z[648] z[649] z[650] z[651] z[652] z[653] z[654] z[655] z[656]
 z[657] z[658] z[659] z[660] z[661] z[662] z[663] z[664] z[665] z[666]
 z[667] z[668] z[669] z[670] z[671] z[672] z[673] z[674] z[675] z[676]
 z[677] z[678] z[679] z[680] z[681] z[682] z[683] z[684] z[685] z[686]
 z[687] z[688] z[689] z[690] z[691] z[692] z[693] z[694] z[695] z[696]
 z[697] z[698] z[699] z[700] z[701] z[702] z[703] z[704] z[705] z[706]
 z[707] z[708] z[709] z[710] z[711] z[712] z[713] z[714] z[715] z[716]
 z[717] z[718] z[719] z[720] z[721] z[722] z[723] z[724] z[725] z[726]
 z[727] z[728] z[729] z[730] z[731] z[732] z[733] z[734] z[735] z[736]
 z[737] z[738] z[739] z[740] z[741] z[742] z[743] z[744] z[745] z[746]
 z[747] z[748] z[749] z[750] z[751] z[752] z[753] z[754] z[755] z[756]
 z[757] z[758] z[759] z[760] z[761] z[762] z[763] z[764] z[765] z[766]
 z[767] z[768] z[769] z[770] z[771] z[772] z[773] z[774] z[775] z[776]
 z[777] z[778] z[779] z[780] z[781] z[782] z[783] z[784] z[785] z[786]
 z[787] z[788] z[789] z[790] z[791] z[792] z[793] z[794] z[795] z[796]
 z[797] z[798] z[799] z[800] z[801] z[802] z[803] z[804] z[805] z[806]
 z[807] z[808] z[809] z[810] z[811] z[812] z[813] z[814] z[815] z[816]
 z[817] z[818] z[819] z[820] z[821] z[822] z[823] z[824] z[825] z[826]
 z[827] z[828] z[829] z[830] z[831] z[832] z[833] z[834] z[835] z[836]
 z[837] z[838] z[839] z[840] z[841] z[842] z[843] z[844] z[845] z[846]
 z[847] z[848] z[849] z[850] z[851] z[852] z[853] z[854] z[855] z[856]
 z[857] z[858] z[859] z[860] z[861] z[862] z[863] z[864] z[865] z[866]
 z[867] z[868] z[869] z[870] z[871] z[872] z[873] z[874] z[875] z[876]
 z[877] z[878] z[879] z[880] z[881] z[882] z[883] z[884] z[885] z[886]
 z[887] z[888] z[889] z[890] z[891] z[892] z[893] z[894] z[895] z[896]
 z[897] z[898] z[899] z[900] z[901] z[902] z[903] z[904] z[905] z[906]
 z[907] z[908] z[909] z[910] z[911] z[912] z[913] z[914] z[915] z[916]
 z[917] z[918] z[919] z[920] z[921] z[922] z[923] z[924] z[925] z[926]
 z[927] z[928] z[929] z[930] z[931] z[932] z[933] z[934] z[935] z[936]
 z[937] z[938] z[939] z[940] z[941] z[942] z[943] z[944] z[945] z[946]
 z[947] z[948] z[949] z[950] z[951] z[952] z[953] z[954] z[955] z[956]
 z[957] z[958] z[959] z[960] z[961] z[962] z[963] z[964] z[965] z[966]
 z[967] z[968] z[969] z[970] z[971] z[972] z[973] z[974] z[975] z[976]
 z[977] z[978] z[979] z[980] z[981] z[982] z[983] z[984] z[985] z[986]
 z[987] z[988] z[989] z[990] z[991] z[992] z[993] z[994] z[995] z[996]
 z[997] z[998] z[999]
End
