\ This file has been generated by DOcplex
\ ENCODING=ISO-8859-1
\Problem name: PLCP_CPLEX_GRID_PSCLP_n100_m5000_d1_100_f10_100_s1

Minimize
 obj: 79 y_0 + 64 y_1 + 95 y_2 + 99 y_3 + 72 y_4 + 93 y_5 + 79 y_6 + 61 y_7
      + 94 y_8 + 63 y_9 + 65 y_10 + 31 y_11 + 25 y_12 + 19 y_13 + 60 y_14
      + 45 y_15 + 18 y_16 + 54 y_17 + 11 y_18 + 72 y_19 + 14 y_20 + 16 y_21
      + 33 y_22 + 83 y_23 + 27 y_24 + 66 y_25 + 73 y_26 + 78 y_27 + 15 y_28
      + 11 y_29 + 98 y_30 + 47 y_31 + 66 y_32 + 55 y_33 + 45 y_34 + 37 y_35
      + 47 y_36 + 78 y_37 + 52 y_38 + 94 y_39 + 40 y_40 + 16 y_41 + 79 y_42
      + 56 y_43 + 79 y_44 + 38 y_45 + 54 y_46 + 87 y_47 + 46 y_48 + 56 y_49
      + 58 y_50 + 50 y_51 + 25 y_52 + 45 y_53 + 86 y_54 + 97 y_55 + 64 y_56
      + 58 y_57 + 74 y_58 + 69 y_59 + 23 y_60 + 72 y_61 + 15 y_62 + 79 y_63
      + 26 y_64 + 13 y_65 + 69 y_66 + 27 y_67 + 81 y_68 + 20 y_69 + 20 y_70
      + 75 y_71 + 81 y_72 + 52 y_73 + 84 y_74 + 59 y_75 + 81 y_76 + 37 y_77
      + 46 y_78 + 26 y_79 + 46 y_80 + 57 y_81 + 29 y_82 + 62 y_83 + 92 y_84
      + 14 y_85 + 58 y_86 + 55 y_87 + 26 y_88 + 85 y_89 + 23 y_90 + 39 y_91
      + 56 y_92 + 82 y_93 + 17 y_94 + 36 y_95 + 86 y_96 + 76 y_97 + 53 y_98
      + 29 y_99
Subject To
 c1: y_31 + y_37 + y_89 + y_99 - z_0 >= 0
 c2: y_7 + y_23 + y_31 + y_51 + y_62 + y_98 - z_1 >= 0
 c3: y_17 + y_53 + y_58 + y_63 + y_91 - z_2 >= 0
 c4: y_11 + y_19 + y_43 + y_52 + y_59 + y_67 + y_68 + y_69 - z_3 >= 0
 c5: y_2 + y_83 + y_84 + y_85 - z_4 >= 0
 c6: y_16 + y_39 + y_40 + y_54 + y_63 + y_66 + y_87 - z_5 >= 0
 c7: y_16 + y_39 + y_40 + y_54 + y_66 + y_87 - z_6 >= 0
 c8: y_16 + y_39 + y_42 + y_53 + y_54 + y_55 + y_63 + y_64 + y_66 - z_7 >= 0
 c9: y_22 + y_56 + y_65 - z_8 >= 0
 c10: y_9 + y_26 + y_67 + y_71 + y_97 - z_9 >= 0
 c11: y_4 + y_9 + y_19 + y_26 + y_32 + y_38 + y_44 + y_67 + y_69 - z_10 >= 0
 c12: y_15 + y_18 + y_21 + y_36 + y_41 + y_47 + y_95 - z_11 >= 0
 c13: y_4 + y_6 + y_32 + y_90 - z_12 >= 0
 c14: y_40 + y_92 - z_13 >= 0
 c15: y_5 + y_6 + y_34 + y_90 - z_14 >= 0
 c16: y_0 + y_27 + y_45 - z_15 >= 0
 c17: y_3 + y_19 + y_21 + y_33 + y_36 + y_38 + y_41 + y_43 + y_47 + y_48 + y_79
      - z_16 >= 0
 c18: y_25 + y_29 + y_35 + y_77 - z_17 >= 0
 c19: y_4 + y_5 + y_6 + y_32 + y_44 + y_90 - z_18 >= 0
 c20: y_2 + y_27 + y_42 + y_55 + y_83 - z_19 >= 0
 c21: y_17 + y_39 + y_53 + y_58 + y_63 + y_64 + y_91 - z_20 >= 0
 c22: y_16 + y_50 + y_54 + y_56 + y_58 + y_66 - z_21 >= 0
 c23: y_40 + y_54 + y_87 + y_92 - z_22 >= 0
 c24: y_25 + y_35 + y_40 + y_77 + y_92 - z_23 >= 0
 c25: y_3 + y_5 + y_20 + y_33 + y_34 + y_38 + y_44 + y_48 + y_61 + y_79 + y_93
      - z_24 >= 0
 c26: y_8 + y_17 + y_75 + y_96 - z_25 >= 0
 c27: y_50 + y_56 + y_65 - z_26 >= 0
 c28: y_5 + y_8 + y_17 + y_34 + y_75 + y_80 + y_96 - z_27 >= 0
 c29: y_0 + y_16 + y_39 + y_42 + y_53 + y_54 + y_55 + y_63 + y_64 - z_28 >= 0
 c30: y_40 + y_55 + y_92 - z_29 >= 0
 c31: y_37 + y_45 + y_73 + y_89 - z_30 >= 0
 c32: y_16 + y_39 + y_40 + y_54 + y_63 + y_66 + y_87 - z_31 >= 0
 c33: y_25 + y_29 + y_35 + y_50 + y_77 + y_87 - z_32 >= 0
 c34: y_3 + y_19 + y_21 + y_30 + y_38 + y_43 + y_52 + y_59 + y_94 - z_33 >= 0
 c35: y_40 + y_87 + y_92 - z_34 >= 0
 c36: y_12 + y_57 + y_72 + y_88 - z_35 >= 0
 c37: y_5 + y_8 + y_17 + y_34 + y_91 - z_36 >= 0
 c38: y_16 + y_39 + y_40 + y_54 + y_55 + y_63 + y_64 + y_66 + y_87 - z_37 >= 0
 c39: y_0 + y_27 + y_42 + y_55 + y_63 + y_64 - z_38 >= 0
 c40: y_56 + y_65 - z_39 >= 0
 c41: y_84 + y_85 - z_40 >= 0
 c42: y_0 + y_27 + y_42 + y_55 + y_64 - z_41 >= 0
 c43: y_12 + y_22 + y_32 + y_88 - z_42 >= 0
 c44: y_7 + y_31 + y_51 + y_62 + y_89 + y_98 + y_99 - z_43 >= 0
 c45: y_1 + y_8 + y_73 + y_75 + y_96 - z_44 >= 0
 c46: y_9 + y_11 + y_26 + y_67 + y_68 + y_69 + y_97 - z_45 >= 0
 c47: y_3 + y_19 + y_21 + y_33 + y_38 + y_41 + y_44 + y_48 + y_61 + y_79 - z_46
       >= 0
 c48: y_7 + y_23 + y_31 + y_51 + y_62 + y_89 + y_98 + y_99 - z_47 >= 0
 c49: y_2 + y_14 + y_42 + y_55 + y_82 + y_83 + y_85 - z_48 >= 0
 c50: y_96 - z_49 >= 0
 c51: y_19 + y_21 + y_30 + y_43 + y_48 + y_59 + y_94 - z_50 >= 0
 c52: y_7 + y_23 + y_31 + y_51 + y_62 + y_89 + y_98 + y_99 - z_51 >= 0
 c53: y_5 + y_34 + y_90 - z_52 >= 0
 c54: y_12 + y_57 + y_65 + y_72 + y_78 + y_88 - z_53 >= 0
 c55: y_0 + y_45 - z_54 >= 0
 c56: y_15 + y_18 + y_20 + y_21 + y_33 + y_36 + y_41 + y_47 + y_48 + y_61 + y_79
      + y_93 + y_95 - z_55 >= 0
 c57: y_16 + y_50 + y_54 + y_56 + y_58 + y_66 - z_56 >= 0
 c58: y_9 + y_11 + y_26 + y_38 + y_67 + y_68 + y_69 - z_57 >= 0
 c59: y_40 + y_87 + y_92 - z_58 >= 0
 c60: y_17 + y_53 + y_58 + y_63 + y_91 - z_59 >= 0
 c61: y_1 + y_37 + y_73 + y_89 + y_96 + y_99 - z_60 >= 0
 c62: y_13 + y_57 + y_60 + y_65 + y_72 + y_76 + y_78 + y_81 - z_61 >= 0
 c63: y_25 + y_29 + y_35 + y_50 + y_56 + y_77 + y_87 - z_62 >= 0
 c64: y_12 + y_57 + y_72 + y_88 - z_63 >= 0
 c65: y_21 + y_30 + y_36 + y_41 + y_43 + y_47 + y_48 + y_94 - z_64 >= 0
 c66: y_37 + y_45 - z_65 >= 0
 c67: y_1 + y_23 + y_31 + y_37 + y_73 + y_89 + y_98 + y_99 - z_66 >= 0
 c68: y_16 + y_50 + y_54 + y_56 + y_58 + y_66 - z_67 >= 0
 c69: y_3 + y_5 + y_33 + y_34 + y_38 + y_44 + y_90 - z_68 >= 0
 c70: y_16 + y_39 + y_40 + y_50 + y_54 + y_66 + y_87 - z_69 >= 0
 c71: y_13 + y_28 + y_60 + y_76 + y_81 - z_70 >= 0
 c72: y_9 + y_26 + y_67 + y_69 + y_71 + y_97 - z_71 >= 0
 c73: y_22 + y_50 + y_56 + y_65 - z_72 >= 0
 c74: y_29 - z_73 >= 0
 c75: y_15 + y_18 + y_21 + y_36 + y_41 + y_47 + y_48 + y_79 + y_94 - z_74 >= 0
 c76: y_16 + y_39 + y_50 + y_54 + y_66 + y_87 - z_75 >= 0
 c77: y_1 + y_8 + y_20 + y_46 + y_75 + y_80 + y_93 - z_76 >= 0
 c78: y_25 + y_29 + y_35 + y_50 + y_56 + y_66 + y_77 + y_87 - z_77 >= 0
 c79: y_37 + y_45 + y_73 + y_96 - z_78 >= 0
 c80: y_16 + y_25 + y_50 + y_54 + y_56 + y_66 + y_77 + y_87 - z_79 >= 0
 c81: y_16 + y_17 + y_39 + y_53 + y_58 + y_63 + y_91 - z_80 >= 0
 c82: y_0 + y_27 + y_42 + y_55 + y_64 - z_81 >= 0
 c83: y_12 + y_22 + y_57 + y_65 + y_72 + y_88 - z_82 >= 0
 c84: y_8 + y_73 + y_96 - z_83 >= 0
 c85: y_14 + y_27 + y_82 - z_84 >= 0
 c86: y_2 + y_14 + y_82 + y_83 + y_84 + y_85 - z_85 >= 0
 c87: y_25 + y_29 + y_35 + y_77 - z_86 >= 0
 c88: y_1 + y_31 + y_73 + y_89 + y_99 - z_87 >= 0
 c89: y_65 - z_88 >= 0
 c90: y_1 + y_31 + y_37 + y_73 + y_89 + y_99 - z_89 >= 0
 c91: y_12 + y_71 + y_88 - z_90 >= 0
 c92: y_37 + y_45 + y_89 - z_91 >= 0
 c93: y_4 + y_12 + y_22 + y_32 + y_88 - z_92 >= 0
 c94: y_2 + y_83 + y_84 + y_85 - z_93 >= 0
 c95: y_12 + y_57 + y_88 - z_94 >= 0
 c96: y_3 + y_4 + y_19 + y_26 + y_32 + y_33 + y_38 + y_44 + y_90 - z_95 >= 0
 c97: y_2 + y_40 + y_83 + y_85 + y_92 - z_96 >= 0
 c98: y_13 + y_28 + y_60 + y_76 + y_81 - z_97 >= 0
 c99: y_3 + y_15 + y_20 + y_21 + y_33 + y_34 + y_41 + y_48 + y_61 + y_79 + y_80
      + y_93 - z_98 >= 0
 c100: y_17 + y_39 + y_53 + y_58 + y_63 + y_64 + y_91 - z_99 >= 0
 c101: y_9 + y_26 + y_71 - z_100 >= 0
 c102: y_5 + y_17 + y_53 + y_58 + y_91 - z_101 >= 0
 c103: y_16 + y_39 + y_53 + y_54 + y_58 + y_63 + y_66 + y_91 - z_102 >= 0
 c104: y_3 + y_19 + y_21 + y_30 + y_36 + y_41 + y_43 + y_47 + y_48 + y_59 + y_94
       - z_103 >= 0
 c105: y_25 + y_29 + y_35 + y_50 + y_56 + y_66 + y_77 + y_87 - z_104 >= 0
 c106: y_17 + y_53 + y_58 + y_91 - z_105 >= 0
 c107: y_8 + y_17 + y_34 + y_96 - z_106 >= 0
 c108: y_3 + y_11 + y_19 + y_30 + y_38 + y_43 + y_52 + y_59 + y_67 + y_68 + y_69
       - z_107 >= 0
 c109: y_13 + y_28 + y_60 + y_76 + y_78 + y_81 - z_108 >= 0
 c110: y_2 + y_14 + y_82 + y_83 + y_84 + y_85 - z_109 >= 0
 c111: y_50 + y_56 + y_66 + y_87 - z_110 >= 0
 c112: y_0 + y_2 + y_27 + y_42 + y_55 + y_64 - z_111 >= 0
 c113: y_3 + y_19 + y_21 + y_33 + y_36 + y_41 + y_43 + y_47 + y_48 + y_79 + y_94
       - z_112 >= 0
 c114: y_3 + y_19 + y_21 + y_33 + y_38 + y_41 + y_43 + y_44 + y_48 + y_79
       - z_113 >= 0
 c115: y_35 + y_40 + y_92 - z_114 >= 0
 c116: y_3 + y_11 + y_19 + y_26 + y_33 + y_38 + y_43 + y_44 + y_67 + y_68 + y_69
       - z_115 >= 0
 c117: y_8 + y_15 + y_20 + y_46 + y_49 + y_74 + y_75 + y_80 + y_93 + y_95
       - z_116 >= 0
 c118: y_22 + y_56 + y_57 + y_65 + y_72 - z_117 >= 0
 c119: y_4 + y_9 + y_26 + y_32 + y_67 + y_69 - z_118 >= 0
 c120: y_9 + y_11 + y_26 + y_67 + y_68 + y_69 + y_97 - z_119 >= 0
 c121: y_1 + y_73 + y_96 - z_120 >= 0
 c122: y_12 + y_22 + y_57 + y_88 - z_121 >= 0
 c123: y_4 + y_6 + y_22 + y_32 + y_90 - z_122 >= 0
 c124: y_12 + y_22 + y_57 + y_88 - z_123 >= 0
 c125: y_25 + y_29 + y_35 + y_50 + y_56 + y_66 + y_77 + y_87 - z_124 >= 0
 c126: y_25 + y_29 + y_35 + y_77 - z_125 >= 0
 c127: y_6 + y_22 - z_126 >= 0
 c128: y_3 + y_19 + y_26 + y_33 + y_38 + y_44 + y_48 + y_69 - z_127 >= 0
 c129: y_3 + y_4 + y_9 + y_19 + y_26 + y_32 + y_38 + y_44 + y_67 + y_69 + y_90
       - z_128 >= 0
 c130: y_15 + y_18 + y_36 + y_41 + y_46 + y_47 + y_49 + y_74 + y_79 + y_95
       - z_129 >= 0
 c131: y_1 + y_8 + y_46 + y_49 + y_73 + y_75 + y_80 + y_95 - z_130 >= 0
 c132: y_16 + y_39 + y_42 + y_53 + y_54 + y_55 + y_63 + y_64 + y_66 - z_131 >= 
       0
 c133: y_35 + y_92 - z_132 >= 0
 c134: y_15 + y_18 + y_20 + y_21 + y_36 + y_41 + y_46 + y_47 + y_48 + y_61
       + y_75 + y_79 + y_80 + y_93 + y_95 - z_133 >= 0
 c135: y_8 + y_17 + y_34 + y_75 + y_80 + y_96 - z_134 >= 0
 c136: y_16 + y_39 + y_53 + y_58 + y_91 - z_135 >= 0
 c137: y_3 + y_19 + y_33 + y_38 + y_44 + y_48 + y_61 + y_79 - z_136 >= 0
 c138: y_1 + y_37 + y_73 + y_96 - z_137 >= 0
 c139: y_13 + y_28 + y_60 + y_76 - z_138 >= 0
 c140: y_9 + y_11 + y_26 + y_67 + y_68 + y_69 + y_97 - z_139 >= 0
 c141: y_4 + y_9 + y_26 + y_32 + y_67 + y_69 - z_140 >= 0
 c142: y_17 + y_96 - z_141 >= 0
 c143: y_28 - z_142 >= 0
 c144: y_22 + y_57 + y_65 + y_72 - z_143 >= 0
 c145: y_1 + y_8 + y_46 + y_49 + y_74 + y_75 + y_80 + y_95 - z_144 >= 0
 c146: y_12 + y_22 + y_57 + y_72 + y_88 - z_145 >= 0
 c147: y_1 + y_46 + y_49 + y_74 + y_75 + y_95 - z_146 >= 0
 c148: y_16 + y_39 + y_53 + y_54 + y_55 + y_58 + y_63 + y_64 + y_66 - z_147 >= 
       0
 c149: y_2 + y_14 + y_82 + y_83 + y_85 - z_148 >= 0
 c150: y_4 + y_9 + y_12 + y_32 + y_71 + y_88 - z_149 >= 0
 c151: y_1 + y_37 + y_73 + y_96 - z_150 >= 0
 c152: y_2 + y_14 + y_82 + y_83 + y_85 - z_151 >= 0
 c153: y_3 + y_5 + y_19 + y_33 + y_34 + y_38 + y_44 + y_48 + y_61 + y_79 - z_152
        >= 0
 c154: y_45 - z_153 >= 0
 c155: y_1 + y_23 + y_46 + y_49 + y_74 + y_98 - z_154 >= 0
 c156: y_30 + y_43 + y_52 + y_59 + y_94 - z_155 >= 0
 c157: y_15 + y_18 + y_36 + y_41 + y_46 + y_47 + y_49 + y_74 + y_95 - z_156 >= 
       0
 c158: y_5 + y_6 + y_34 + y_90 + y_91 - z_157 >= 0
 c159: y_7 + y_31 + y_37 + y_51 + y_89 + y_99 - z_158 >= 0
 c160: y_73 + y_96 - z_159 >= 0
 c161: y_46 + y_49 + y_74 - z_160 >= 0
 c162: y_0 + y_2 + y_14 + y_27 + y_42 + y_82 - z_161 >= 0
 c163: y_45 + y_96 - z_162 >= 0
 c164: y_8 + y_20 + y_46 + y_75 + y_80 + y_93 + y_95 - z_163 >= 0
 c165: y_1 + y_23 + y_31 + y_46 + y_73 + y_75 + y_89 + y_99 - z_164 >= 0
 c166: y_4 + y_6 + y_9 + y_26 + y_32 + y_38 + y_44 + y_90 - z_165 >= 0
 c167: y_25 + y_29 + y_35 + y_50 + y_56 + y_66 + y_77 + y_87 - z_166 >= 0
 c168: y_1 + y_23 + y_31 + y_46 + y_49 + y_73 + y_89 + y_98 + y_99 - z_167 >= 0
 c169: y_37 + y_45 + y_73 + y_96 - z_168 >= 0
 c170: y_5 + y_6 + y_34 + y_44 + y_90 - z_169 >= 0
 c171: y_5 + y_8 + y_17 + y_34 + y_75 + y_80 + y_93 - z_170 >= 0
 c172: y_25 + y_29 + y_35 + y_50 + y_56 + y_66 + y_77 + y_87 - z_171 >= 0
 c173: y_25 + y_29 + y_35 + y_77 + y_92 - z_172 >= 0
 c174: y_17 + y_53 + y_63 + y_91 + y_96 - z_173 >= 0
 c175: y_0 - z_174 >= 0
 c176: y_9 + y_12 + y_71 + y_88 - z_175 >= 0
 c177: y_25 + y_29 + y_35 + y_77 - z_176 >= 0
 c178: y_0 + y_27 + y_42 + y_55 + y_63 + y_64 - z_177 >= 0
 c179: y_17 + y_39 + y_53 + y_58 + y_63 + y_64 + y_91 - z_178 >= 0
 c180: y_12 + y_88 - z_179 >= 0
 c181: y_12 + y_22 + y_32 + y_88 - z_180 >= 0
 c182: y_67 + y_68 + y_97 - z_181 >= 0
 c183: y_8 + y_15 + y_20 + y_46 + y_61 + y_75 + y_79 + y_80 + y_93 + y_95
       - z_182 >= 0
 c184: y_17 + y_39 + y_53 + y_58 + y_63 + y_91 - z_183 >= 0
 c185: y_18 + y_21 + y_36 + y_41 + y_47 - z_184 >= 0
 c186: y_13 + y_28 + y_60 + y_76 + y_78 + y_81 - z_185 >= 0
 c187: y_8 + y_17 + y_96 - z_186 >= 0
 c188: y_57 + y_65 + y_72 - z_187 >= 0
 c189: y_46 + y_49 + y_74 + y_95 - z_188 >= 0
 c190: y_0 + y_17 + y_53 + y_63 + y_64 - z_189 >= 0
 c191: y_3 + y_15 + y_18 + y_20 + y_21 + y_33 + y_36 + y_41 + y_47 + y_48 + y_61
       + y_79 + y_93 + y_95 - z_190 >= 0
 c192: y_7 + y_31 + y_51 + y_62 + y_89 + y_98 - z_191 >= 0
 c193: y_1 + y_31 + y_37 + y_73 + y_89 + y_99 - z_192 >= 0
 c194: y_4 + y_6 + y_32 + y_90 - z_193 >= 0
 c195: y_4 + y_12 + y_22 + y_32 + y_88 - z_194 >= 0
 c196: y_0 + y_27 + y_45 - z_195 >= 0
 c197: y_7 + y_23 + y_31 + y_51 + y_62 + y_98 + y_99 - z_196 >= 0
 c198: y_4 + y_12 + y_32 + y_88 - z_197 >= 0
 c199: y_1 + y_73 + y_75 + y_96 + y_99 - z_198 >= 0
 c200: y_2 + y_14 + y_27 + y_42 + y_55 + y_82 + y_83 - z_199 >= 0
 c201: y_23 + y_49 + y_74 + y_98 - z_200 >= 0
 c202: y_6 + y_22 - z_201 >= 0
 c203: y_5 + y_17 + y_34 + y_58 + y_91 - z_202 >= 0
 c204: y_16 + y_40 + y_54 + y_66 + y_87 + y_92 - z_203 >= 0
 c205: y_56 + y_58 + y_91 - z_204 >= 0
 c206: y_46 + y_49 + y_74 + y_95 - z_205 >= 0
 c207: y_4 + y_9 + y_26 + y_32 + y_67 - z_206 >= 0
 c208: y_2 + y_83 + y_85 - z_207 >= 0
 c209: y_50 + y_56 + y_65 - z_208 >= 0
 c210: y_8 + y_17 + y_96 - z_209 >= 0
 c211: y_8 + y_17 + y_96 - z_210 >= 0
 c212: y_9 + y_71 - z_211 >= 0
 c213: y_16 + y_39 + y_50 + y_54 + y_56 + y_66 + y_87 - z_212 >= 0
 c214: y_10 - z_213 >= 0
 c215: y_24 + y_70 + y_86 - z_214 >= 0
 c216: y_8 + y_15 + y_20 + y_34 + y_46 + y_61 + y_75 + y_80 + y_93 + y_95
       - z_215 >= 0
 c217: y_7 + y_23 + y_31 + y_51 + y_62 + y_89 + y_98 + y_99 - z_216 >= 0
 c218: y_12 + y_32 + y_71 + y_88 - z_217 >= 0
 c219: y_15 + y_20 + y_21 + y_33 + y_34 + y_41 + y_47 + y_48 + y_61 + y_79
       + y_80 + y_93 + y_95 - z_218 >= 0
 c220: y_46 + y_49 + y_74 + y_95 - z_219 >= 0
 c221: y_12 + y_22 + y_57 + y_72 + y_78 + y_88 - z_220 >= 0
 c222: y_0 + y_27 + y_42 + y_55 + y_64 - z_221 >= 0
 c223: y_1 + y_31 + y_37 + y_73 + y_89 + y_99 - z_222 >= 0
 c224: y_16 + y_50 + y_56 + y_66 - z_223 >= 0
 c225: y_2 + y_14 + y_82 + y_83 + y_84 + y_85 - z_224 >= 0
 c226: y_37 + y_45 + y_73 + y_96 - z_225 >= 0
 c227: y_1 + y_23 + y_46 + y_49 + y_74 + y_98 - z_226 >= 0
 c228: y_12 + y_22 + y_57 + y_65 + y_72 + y_78 + y_88 - z_227 >= 0
 c229: y_13 + y_57 + y_60 + y_65 + y_72 + y_76 + y_78 + y_81 - z_228 >= 0
 c230: y_16 + y_25 + y_40 + y_54 + y_66 + y_87 + y_92 - z_229 >= 0
 c231: y_10 + y_13 + y_57 + y_60 + y_72 + y_76 + y_78 + y_81 - z_230 >= 0
 c232: y_83 + y_84 + y_85 - z_231 >= 0
 c233: y_13 + y_28 + y_60 + y_72 + y_76 + y_78 + y_81 - z_232 >= 0
 c234: y_5 + y_20 + y_33 + y_34 + y_44 + y_61 + y_90 + y_93 - z_233 >= 0
 c235: y_2 + y_82 + y_83 + y_84 + y_85 - z_234 >= 0
 c236: y_25 + y_35 + y_40 + y_77 + y_87 + y_92 - z_235 >= 0
 c237: y_4 + y_6 + y_32 + y_90 - z_236 >= 0
 c238: y_50 + y_56 - z_237 >= 0
 c239: y_30 + y_43 + y_52 + y_59 + y_94 - z_238 >= 0
 c240: y_16 + y_25 + y_40 + y_50 + y_54 + y_56 + y_66 + y_77 + y_87 - z_239 >= 
       0
 c241: y_12 + y_71 + y_88 - z_240 >= 0
 c242: y_1 + y_31 + y_37 + y_73 + y_89 + y_96 + y_99 - z_241 >= 0
 c243: y_18 + y_21 + y_30 + y_36 + y_47 + y_94 - z_242 >= 0
 c244: y_9 + y_71 - z_243 >= 0
 c245: y_4 + y_9 + y_26 + y_32 + y_38 + y_67 + y_69 - z_244 >= 0
 c246: y_16 + y_39 + y_42 + y_53 + y_54 + y_55 + y_63 + y_64 - z_245 >= 0
 c247: y_37 + y_45 + y_73 - z_246 >= 0
 c248: y_29 - z_247 >= 0
 c249: y_1 + y_23 + y_46 + y_49 + y_73 + y_75 + y_98 + y_99 - z_248 >= 0
 c250: y_8 + y_73 + y_75 + y_96 - z_249 >= 0
 c251: y_0 + y_2 + y_14 + y_27 + y_42 + y_55 - z_250 >= 0
 c252: y_0 + y_16 + y_39 + y_42 + y_54 + y_55 + y_63 + y_64 - z_251 >= 0
 c253: y_2 + y_40 + y_55 + y_83 + y_85 - z_252 >= 0
 c254: y_25 + y_29 + y_35 + y_77 + y_87 + y_92 - z_253 >= 0
 c255: y_10 + y_13 + y_60 + y_72 + y_76 + y_78 + y_81 - z_254 >= 0
 c256: y_13 + y_60 + y_65 + y_72 - z_255 >= 0
 c257: y_25 + y_29 + y_35 + y_77 + y_87 + y_92 - z_256 >= 0
 c258: y_7 + y_23 + y_31 + y_51 + y_62 + y_89 + y_98 + y_99 - z_257 >= 0
 c259: y_24 + y_52 + y_59 + y_70 + y_86 - z_258 >= 0
 c260: y_50 + y_56 + y_66 - z_259 >= 0
 c261: y_16 + y_25 + y_35 + y_40 + y_50 + y_54 + y_66 + y_77 + y_87 + y_92
       - z_260 >= 0
 c262: y_17 + y_39 + y_53 + y_58 + y_63 + y_91 - z_261 >= 0
 c263: y_1 + y_7 + y_23 + y_31 + y_49 + y_51 + y_98 + y_99 - z_262 >= 0
 c264: y_5 + y_17 + y_34 + y_91 - z_263 >= 0
 c265: y_16 + y_40 + y_54 + y_55 + y_92 - z_264 >= 0
 c266: y_4 + y_9 + y_19 + y_26 + y_32 + y_38 + y_44 + y_90 - z_265 >= 0
 c267: y_25 + y_29 + y_35 + y_77 - z_266 >= 0
 c268: y_0 + y_27 + y_42 - z_267 >= 0
 c269: y_4 + y_9 + y_12 + y_26 + y_32 + y_88 - z_268 >= 0
 c270: y_22 + y_50 + y_56 + y_65 - z_269 >= 0
 c271: y_8 + y_17 + y_75 + y_96 - z_270 >= 0
 c272: y_50 + y_56 - z_271 >= 0
 c273: y_16 + y_39 + y_42 + y_53 + y_54 + y_55 + y_63 + y_64 - z_272 >= 0
 c274: y_3 + y_11 + y_19 + y_26 + y_38 + y_43 + y_52 + y_67 + y_68 + y_69
       - z_273 >= 0
 c275: y_3 + y_4 + y_9 + y_19 + y_26 + y_33 + y_38 + y_44 + y_67 + y_69 - z_274
        >= 0
 c276: y_11 + y_24 + y_52 + y_68 + y_70 + y_86 + y_97 - z_275 >= 0
 c277: y_45 + y_96 - z_276 >= 0
 c278: y_3 + y_4 + y_19 + y_26 + y_32 + y_33 + y_38 + y_44 + y_90 - z_277 >= 0
 c279: y_15 + y_18 + y_20 + y_21 + y_36 + y_41 + y_46 + y_47 + y_48 + y_61
       + y_79 + y_80 + y_93 + y_95 - z_278 >= 0
 c280: y_22 + y_57 + y_65 + y_72 - z_279 >= 0
 c281: y_9 + y_12 + y_71 - z_280 >= 0
 c282: y_37 + y_45 - z_281 >= 0
 c283: y_15 + y_20 + y_41 + y_46 + y_47 + y_48 + y_61 + y_75 + y_79 + y_80
       + y_93 + y_95 - z_282 >= 0
 c284: y_31 + y_37 + y_89 + y_99 - z_283 >= 0
 c285: y_22 + y_65 - z_284 >= 0
 c286: y_13 + y_28 + y_60 + y_76 + y_81 - z_285 >= 0
 c287: y_71 - z_286 >= 0
 c288: y_3 + y_19 + y_26 + y_33 + y_38 + y_44 + y_69 - z_287 >= 0
 c289: y_0 + y_96 - z_288 >= 0
 c290: y_25 + y_29 + y_35 + y_50 + y_77 - z_289 >= 0
 c291: y_4 + y_9 + y_12 + y_32 + y_88 - z_290 >= 0
 c292: y_83 + y_84 + y_85 - z_291 >= 0
 c293: y_10 + y_57 + y_60 + y_72 + y_76 + y_78 + y_81 - z_292 >= 0
 c294: y_8 + y_17 + y_96 - z_293 >= 0
 c295: y_24 + y_52 + y_59 + y_70 + y_86 - z_294 >= 0
 c296: y_2 + y_14 + y_82 + y_83 + y_85 - z_295 >= 0
 c297: y_3 + y_5 + y_15 + y_20 + y_33 + y_34 + y_41 + y_48 + y_61 + y_79 + y_80
       + y_93 - z_296 >= 0
 c298: y_85 + y_92 - z_297 >= 0
 c299: y_8 + y_15 + y_20 + y_34 + y_61 + y_75 + y_80 + y_93 + y_95 - z_298 >= 0
 c300: y_1 + y_23 + y_46 + y_49 + y_74 + y_98 - z_299 >= 0
 c301: y_11 + y_52 + y_59 + y_67 + y_68 + y_69 + y_97 - z_300 >= 0
 c302: y_2 + y_14 + y_82 + y_83 + y_84 + y_85 - z_301 >= 0
 c303: y_22 + y_57 + y_65 + y_72 - z_302 >= 0
 c304: y_40 + y_83 + y_85 + y_92 - z_303 >= 0
 c305: y_16 + y_39 + y_40 + y_42 + y_54 + y_55 + y_63 + y_64 - z_304 >= 0
 c306: y_11 + y_24 + y_30 + y_43 + y_52 + y_59 + y_70 - z_305 >= 0
 c307: y_40 + y_83 + y_85 + y_92 - z_306 >= 0
 c308: y_7 + y_31 + y_37 + y_51 + y_62 + y_89 + y_99 - z_307 >= 0
 c309: y_3 + y_19 + y_33 + y_38 + y_44 + y_48 + y_90 - z_308 >= 0
 c310: y_6 + y_58 + y_91 - z_309 >= 0
 c311: y_16 + y_39 + y_53 + y_54 + y_55 + y_58 + y_63 + y_64 + y_66 - z_310 >= 
       0
 c312: y_25 + y_35 + y_40 + y_66 + y_77 + y_87 + y_92 - z_311 >= 0
 c313: y_12 + y_88 - z_312 >= 0
 c314: y_9 + y_26 + y_67 + y_68 + y_69 + y_97 - z_313 >= 0
 c315: y_11 + y_24 + y_43 + y_52 + y_59 + y_68 + y_70 + y_86 - z_314 >= 0
 c316: y_16 + y_25 + y_40 + y_50 + y_54 + y_56 + y_66 + y_87 - z_315 >= 0
 c317: y_17 + y_53 + y_91 + y_96 - z_316 >= 0
 c318: y_21 + y_30 + y_36 + y_43 + y_47 + y_94 - z_317 >= 0
 c319: y_40 + y_83 + y_85 + y_92 - z_318 >= 0
 c320: y_9 + y_71 - z_319 >= 0
 c321: y_50 + y_56 + y_65 - z_320 >= 0
 c322: y_25 + y_29 + y_50 + y_56 + y_77 - z_321 >= 0
 c323: y_4 + y_6 + y_22 + y_32 + y_90 - z_322 >= 0
 c324: y_71 + y_97 - z_323 >= 0
 c325: y_12 + y_71 + y_88 - z_324 >= 0
 c326: y_11 + y_52 + y_67 + y_68 + y_69 + y_97 - z_325 >= 0
 c327: y_1 + y_73 + y_96 - z_326 >= 0
 c328: y_7 + y_23 + y_31 + y_51 + y_62 + y_89 + y_98 + y_99 - z_327 >= 0
 c329: y_13 + y_28 + y_60 + y_76 + y_81 - z_328 >= 0
 c330: y_25 + y_29 + y_35 + y_50 + y_54 + y_56 + y_66 + y_77 + y_87 - z_329 >= 
       0
 c331: y_2 + y_14 + y_82 + y_83 + y_84 + y_85 - z_330 >= 0
 c332: y_4 + y_5 + y_6 + y_32 + y_44 + y_90 - z_331 >= 0
 c333: y_8 + y_20 + y_34 + y_75 + y_80 + y_93 + y_96 - z_332 >= 0
 c334: y_16 + y_39 + y_53 + y_58 + y_91 - z_333 >= 0
 c335: y_45 + y_96 - z_334 >= 0
 c336: y_2 + y_14 + y_27 + y_82 + y_83 - z_335 >= 0
 c337: y_0 + y_27 + y_42 + y_55 + y_63 + y_64 - z_336 >= 0
 c338: y_29 + y_77 - z_337 >= 0
 c339: y_0 + y_27 + y_42 + y_55 + y_63 + y_64 - z_338 >= 0
 c340: y_1 + y_23 + y_46 + y_49 + y_74 + y_98 - z_339 >= 0
 c341: y_1 + y_7 + y_23 + y_31 + y_37 + y_51 + y_73 + y_89 + y_98 + y_99 - z_340
        >= 0
 c342: y_8 + y_17 + y_73 + y_96 - z_341 >= 0
 c343: y_5 + y_34 + y_61 + y_93 - z_342 >= 0
 c344: y_5 + y_34 - z_343 >= 0
 c345: y_35 + y_40 + y_92 - z_344 >= 0
 c346: y_17 + y_73 + y_96 - z_345 >= 0
 c347: y_13 + y_57 + y_60 + y_72 + y_76 + y_78 + y_81 - z_346 >= 0
 c348: y_3 + y_11 + y_19 + y_26 + y_38 + y_43 + y_52 + y_59 + y_67 + y_68 + y_69
       - z_347 >= 0
 c349: y_1 + y_31 + y_37 + y_73 + y_89 + y_99 - z_348 >= 0
 c350: y_9 + y_26 + y_38 + y_67 + y_68 + y_69 - z_349 >= 0
 c351: y_65 - z_350 >= 0
 c352: y_2 + y_83 + y_84 + y_85 - z_351 >= 0
 c353: y_16 + y_50 + y_54 + y_56 + y_66 - z_352 >= 0
 c354: y_12 + y_22 + y_57 + y_65 + y_72 + y_88 - z_353 >= 0
 c355: y_46 + y_49 + y_74 + y_95 - z_354 >= 0
 c356: y_4 + y_9 + y_12 + y_32 + y_88 - z_355 >= 0
 c357: y_1 + y_23 + y_49 + y_74 + y_98 - z_356 >= 0
 c358: y_10 + y_12 + y_57 + y_72 + y_78 + y_88 - z_357 >= 0
 c359: y_5 + y_8 + y_20 + y_34 + y_61 + y_75 + y_80 + y_93 - z_358 >= 0
 c360: y_2 + y_14 + y_27 + y_42 + y_55 + y_82 + y_83 - z_359 >= 0
 c361: y_8 + y_17 + y_75 + y_96 - z_360 >= 0
 c362: y_1 + y_23 + y_31 + y_37 + y_73 + y_89 + y_98 + y_99 - z_361 >= 0
 c363: y_85 + y_92 - z_362 >= 0
 c364: y_5 + y_8 + y_17 + y_34 + y_80 - z_363 >= 0
 c365: y_1 + y_8 + y_46 + y_73 + y_75 + y_99 - z_364 >= 0
 c366: - z_365 >= 0
 c367: y_2 + y_14 + y_82 + y_83 + y_85 - z_366 >= 0
 c368: y_12 + y_22 + y_57 + y_72 + y_88 - z_367 >= 0
 c369: y_58 - z_368 >= 0
 c370: y_25 + y_35 + y_40 + y_77 + y_87 + y_92 - z_369 >= 0
 c371: y_3 + y_19 + y_21 + y_30 + y_33 + y_36 + y_38 + y_41 + y_43 + y_47 + y_48
       + y_94 - z_370 >= 0
 c372: y_25 + y_35 + y_40 + y_77 + y_87 + y_92 - z_371 >= 0
 c373: y_1 + y_31 + y_37 + y_73 + y_89 + y_96 + y_99 - z_372 >= 0
 c374: y_22 - z_373 >= 0
 c375: y_22 + y_50 + y_56 + y_65 - z_374 >= 0
 c376: y_25 + y_35 + y_40 + y_77 + y_87 + y_92 - z_375 >= 0
 c377: y_0 + y_27 + y_42 - z_376 >= 0
 c378: y_37 + y_45 + y_73 + y_96 - z_377 >= 0
 c379: y_6 + y_58 + y_90 + y_91 - z_378 >= 0
 c380: y_22 + y_57 + y_65 + y_72 - z_379 >= 0
 c381: y_4 + y_6 + y_9 + y_26 + y_32 + y_90 - z_380 >= 0
 c382: y_65 - z_381 >= 0
 c383: y_0 + y_17 + y_53 + y_63 + y_64 - z_382 >= 0
 c384: y_25 + y_29 + y_50 + y_56 + y_66 + y_77 + y_87 - z_383 >= 0
 c385: y_2 + y_83 + y_85 - z_384 >= 0
 c386: y_57 + y_65 + y_72 - z_385 >= 0
 c387: y_24 + y_70 + y_86 - z_386 >= 0
 c388: y_3 + y_19 + y_21 + y_33 + y_38 + y_43 + y_44 + y_48 + y_69 - z_387 >= 0
 c389: y_8 + y_34 + y_75 + y_80 + y_93 + y_96 - z_388 >= 0
 c390: y_13 + y_28 + y_60 + y_76 - z_389 >= 0
 c391: y_7 + y_31 + y_37 + y_89 + y_99 - z_390 >= 0
 c392: y_11 + y_24 + y_43 + y_52 + y_59 + y_67 + y_68 + y_69 + y_70 + y_86
       + y_97 - z_391 >= 0
 c393: y_30 + y_43 + y_52 + y_59 + y_70 + y_94 - z_392 >= 0
 c394: y_5 + y_8 + y_20 + y_34 + y_61 + y_75 + y_80 + y_93 - z_393 >= 0
 c395: y_15 + y_20 + y_21 + y_33 + y_36 + y_41 + y_47 + y_48 + y_61 + y_79
       + y_80 + y_93 + y_95 - z_394 >= 0
 c396: y_1 + y_31 + y_37 + y_45 + y_73 + y_89 + y_99 - z_395 >= 0
 c397: y_29 + y_50 + y_56 + y_65 - z_396 >= 0
 c398: y_2 + y_83 + y_85 - z_397 >= 0
 c399: y_16 + y_39 + y_53 + y_54 + y_55 + y_63 + y_64 + y_66 - z_398 >= 0
 c400: y_4 + y_6 + y_32 + y_90 - z_399 >= 0
 c401: y_5 + y_34 + y_44 + y_61 + y_90 + y_93 - z_400 >= 0
 c402: y_0 + y_17 + y_39 + y_53 + y_63 + y_64 + y_91 - z_401 >= 0
 c403: y_25 + y_29 + y_35 + y_77 - z_402 >= 0
 c404: y_57 + y_65 + y_72 - z_403 >= 0
 c405: y_17 + y_39 + y_53 + y_58 + y_63 + y_64 + y_91 - z_404 >= 0
 c406: y_4 + y_9 + y_19 + y_26 + y_32 + y_38 + y_44 + y_67 + y_69 - z_405 >= 0
 c407: y_12 + y_22 + y_57 + y_65 + y_72 + y_88 - z_406 >= 0
 c408: y_53 + y_58 + y_91 - z_407 >= 0
 c409: y_29 - z_408 >= 0
 c410: y_11 + y_52 + y_59 + y_67 + y_68 + y_69 + y_97 - z_409 >= 0
 c411: y_7 + y_23 + y_31 + y_51 + y_62 + y_98 - z_410 >= 0
 c412: y_16 + y_39 + y_50 + y_54 + y_56 + y_58 + y_66 + y_87 - z_411 >= 0
 c413: y_12 + y_22 + y_57 + y_72 + y_88 - z_412 >= 0
 c414: y_3 + y_15 + y_18 + y_20 + y_21 + y_33 + y_36 + y_41 + y_47 + y_48 + y_61
       + y_79 + y_93 + y_95 - z_413 >= 0
 c415: y_1 + y_8 + y_46 + y_49 + y_73 + y_75 + y_80 + y_95 - z_414 >= 0
 c416: y_29 + y_50 + y_56 + y_65 - z_415 >= 0
 c417: y_25 + y_29 + y_35 + y_50 + y_56 + y_77 - z_416 >= 0
 c418: y_18 + y_46 + y_49 + y_74 + y_95 - z_417 >= 0
 c419: y_11 + y_24 + y_43 + y_52 + y_59 + y_68 + y_69 + y_70 + y_86 - z_418 >= 
       0
 c420: y_11 + y_19 + y_38 + y_43 + y_52 + y_59 + y_67 + y_68 + y_69 + y_97
       - z_419 >= 0
 c421: y_6 + y_22 - z_420 >= 0
 c422: y_5 + y_6 + y_90 - z_421 >= 0
 c423: y_23 + y_49 + y_74 + y_98 - z_422 >= 0
 c424: y_2 + y_14 + y_82 + y_83 + y_84 + y_85 - z_423 >= 0
 c425: y_13 + y_28 + y_60 + y_76 + y_81 - z_424 >= 0
 c426: y_7 + y_23 + y_31 + y_51 + y_62 + y_89 + y_98 + y_99 - z_425 >= 0
 c427: y_12 + y_71 + y_88 - z_426 >= 0
 c428: y_13 + y_57 + y_60 + y_65 + y_72 + y_76 + y_78 - z_427 >= 0
 c429: y_73 + y_96 - z_428 >= 0
 c430: y_12 + y_71 + y_88 - z_429 >= 0
 c431: y_6 + y_90 - z_430 >= 0
 c432: y_8 + y_15 + y_20 + y_46 + y_49 + y_61 + y_75 + y_79 + y_80 + y_93 + y_95
       - z_431 >= 0
 c433: y_16 + y_25 + y_40 + y_50 + y_54 + y_56 + y_66 + y_77 + y_87 - z_432 >= 
       0
 c434: y_1 + y_37 + y_73 + y_96 - z_433 >= 0
 c435: y_24 + y_52 + y_59 + y_70 + y_86 - z_434 >= 0
 c436: y_58 + y_91 - z_435 >= 0
 c437: y_21 + y_30 + y_36 + y_41 + y_43 + y_47 + y_48 + y_94 - z_436 >= 0
 c438: y_2 + y_14 + y_82 + y_83 + y_84 + y_85 - z_437 >= 0
 c439: y_1 + y_7 + y_23 + y_31 + y_51 + y_62 + y_89 + y_98 + y_99 - z_438 >= 0
 c440: y_11 + y_24 + y_30 + y_43 + y_52 + y_59 + y_70 + y_94 - z_439 >= 0
 c441: y_2 + y_82 + y_83 + y_84 + y_85 - z_440 >= 0
 c442: y_7 + y_23 + y_51 + y_98 - z_441 >= 0
 c443: y_25 + y_29 + y_35 + y_77 - z_442 >= 0
 c444: y_12 + y_22 + y_57 + y_65 + y_72 + y_88 - z_443 >= 0
 c445: y_16 + y_39 + y_40 + y_54 + y_63 + y_66 + y_87 - z_444 >= 0
 c446: y_85 + y_92 - z_445 >= 0
 c447: y_0 + y_16 + y_39 + y_42 + y_53 + y_54 + y_55 + y_63 + y_64 - z_446 >= 0
 c448: y_0 + y_2 + y_27 + y_42 + y_55 - z_447 >= 0
 c449: y_5 + y_8 + y_20 + y_34 + y_61 + y_75 + y_80 + y_93 - z_448 >= 0
 c450: y_37 + y_45 - z_449 >= 0
 c451: y_16 + y_17 + y_39 + y_53 + y_58 + y_63 + y_64 + y_91 - z_450 >= 0
 c452: y_24 + y_70 + y_86 - z_451 >= 0
 c453: y_18 + y_21 + y_30 + y_36 + y_41 + y_43 + y_47 + y_48 + y_94 - z_452 >= 
       0
 c454: y_10 + y_57 + y_60 + y_72 + y_76 + y_78 + y_81 - z_453 >= 0
 c455: y_0 + y_27 + y_42 + y_55 + y_64 - z_454 >= 0
 c456: y_9 + y_11 + y_19 + y_26 + y_38 + y_67 + y_68 + y_69 - z_455 >= 0
 c457: y_29 - z_456 >= 0
 c458: y_1 + y_23 + y_46 + y_49 + y_74 + y_95 + y_98 - z_457 >= 0
 c459: y_24 + y_52 + y_70 + y_86 + y_97 - z_458 >= 0
 c460: y_4 + y_9 + y_26 + y_32 + y_67 + y_69 - z_459 >= 0
 c461: y_11 + y_24 + y_30 + y_43 + y_52 + y_59 + y_68 + y_70 - z_460 >= 0
 c462: y_1 + y_23 + y_46 + y_49 + y_74 + y_75 + y_95 - z_461 >= 0
 c463: y_4 + y_6 + y_32 + y_90 - z_462 >= 0
 c464: y_11 + y_43 + y_52 + y_59 + y_67 + y_68 + y_69 - z_463 >= 0
 c465: y_13 + y_60 + y_65 + y_72 + y_76 - z_464 >= 0
 c466: y_15 + y_18 + y_20 + y_21 + y_33 + y_36 + y_41 + y_47 + y_48 + y_61
       + y_79 + y_93 + y_95 - z_465 >= 0
 c467: y_17 + y_53 + y_58 + y_91 - z_466 >= 0
 c468: y_1 + y_7 + y_23 + y_31 + y_51 + y_62 + y_89 + y_98 + y_99 - z_467 >= 0
 c469: y_18 + y_21 + y_36 + y_41 + y_47 + y_94 - z_468 >= 0
 c470: y_13 + y_57 + y_60 + y_65 + y_72 + y_76 + y_78 + y_81 - z_469 >= 0
 c471: y_12 + y_22 + y_57 + y_65 + y_72 + y_88 - z_470 >= 0
 c472: y_37 + y_45 - z_471 >= 0
 c473: y_4 + y_5 + y_6 + y_32 + y_44 + y_90 - z_472 >= 0
 c474: y_16 + y_39 + y_53 + y_54 + y_58 + y_91 - z_473 >= 0
 c475: y_5 + y_8 + y_20 + y_34 + y_61 + y_79 + y_80 + y_93 - z_474 >= 0
 c476: y_9 + y_71 + y_97 - z_475 >= 0
 c477: y_8 + y_20 + y_34 + y_61 + y_75 + y_80 + y_93 - z_476 >= 0
 c478: y_15 + y_18 + y_20 + y_21 + y_36 + y_41 + y_47 + y_61 + y_79 + y_93
       + y_95 - z_477 >= 0
 c479: y_3 + y_4 + y_9 + y_19 + y_26 + y_32 + y_38 + y_44 + y_67 + y_69 - z_478
        >= 0
 c480: y_0 + y_17 + y_39 + y_53 + y_63 + y_64 - z_479 >= 0
 c481: y_2 + y_40 + y_55 + y_83 + y_85 + y_92 - z_480 >= 0
 c482: y_22 + y_65 - z_481 >= 0
 c483: y_16 + y_40 + y_54 + y_66 + y_87 + y_92 - z_482 >= 0
 c484: y_13 - z_483 >= 0
 c485: y_12 + y_71 + y_88 - z_484 >= 0
 c486: y_12 + y_22 + y_57 + y_88 - z_485 >= 0
 c487: y_40 + y_83 + y_85 + y_92 - z_486 >= 0
 c488: y_10 + y_13 + y_28 + y_60 + y_76 + y_78 + y_81 - z_487 >= 0
 c489: y_17 + y_96 - z_488 >= 0
 c490: y_16 + y_50 + y_54 + y_56 + y_66 + y_87 - z_489 >= 0
 c491: y_4 + y_9 + y_26 + y_32 + y_90 - z_490 >= 0
 c492: y_1 + y_7 + y_23 + y_31 + y_37 + y_51 + y_62 + y_89 + y_98 + y_99 - z_491
        >= 0
 c493: y_12 + y_22 + y_32 + y_88 - z_492 >= 0
 c494: y_0 + y_17 + y_53 + y_63 + y_64 - z_493 >= 0
 c495: y_12 + y_71 + y_88 - z_494 >= 0
 c496: y_7 + y_23 + y_31 + y_51 + y_62 + y_89 + y_98 + y_99 - z_495 >= 0
 c497: y_16 + y_39 + y_40 + y_54 + y_63 + y_66 + y_87 - z_496 >= 0
 c498: y_12 + y_22 + y_57 + y_65 + y_72 + y_88 - z_497 >= 0
 c499: y_6 + y_58 + y_90 + y_91 - z_498 >= 0
 c500: y_4 + y_6 + y_26 + y_32 + y_44 + y_90 - z_499 >= 0
 c501: y_0 + y_45 - z_500 >= 0
 c502: y_37 + y_45 - z_501 >= 0
 c503: y_46 + y_49 + y_74 + y_95 - z_502 >= 0
 c504: y_0 + y_27 + y_42 + y_55 + y_63 + y_64 - z_503 >= 0
 c505: y_16 + y_39 + y_50 + y_54 + y_56 + y_58 + y_66 - z_504 >= 0
 c506: y_8 + y_20 + y_46 + y_75 + y_80 + y_93 - z_505 >= 0
 c507: y_0 + y_45 - z_506 >= 0
 c508: y_25 + y_29 + y_35 + y_40 + y_77 + y_87 + y_92 - z_507 >= 0
 c509: y_0 + y_2 + y_14 + y_27 + y_42 + y_82 - z_508 >= 0
 c510: y_25 + y_29 + y_35 + y_77 + y_87 + y_92 - z_509 >= 0
 c511: y_0 + y_96 - z_510 >= 0
 c512: y_0 + y_27 + y_42 - z_511 >= 0
 c513: y_2 + y_40 + y_83 + y_85 + y_92 - z_512 >= 0
 c514: y_16 + y_39 + y_40 + y_54 + y_55 + y_66 + y_87 + y_92 - z_513 >= 0
 c515: y_25 + y_35 + y_77 + y_92 - z_514 >= 0
 c516: y_0 + y_64 - z_515 >= 0
 c517: y_8 + y_15 + y_20 + y_34 + y_41 + y_48 + y_61 + y_75 + y_79 + y_80 + y_93
       + y_95 - z_516 >= 0
 c518: y_10 + y_13 + y_57 + y_60 + y_72 + y_76 + y_78 + y_81 - z_517 >= 0
 c519: y_1 + y_23 + y_46 + y_49 + y_74 + y_98 + y_99 - z_518 >= 0
 c520: y_16 + y_39 + y_50 + y_54 + y_56 + y_58 + y_66 + y_87 - z_519 >= 0
 c521: y_57 + y_65 + y_72 - z_520 >= 0
 c522: y_10 + y_13 + y_28 + y_60 + y_76 + y_78 + y_81 - z_521 >= 0
 c523: y_8 + y_17 + y_73 + y_96 - z_522 >= 0
 c524: y_4 + y_9 + y_19 + y_26 + y_38 + y_44 + y_67 + y_69 - z_523 >= 0
 c525: y_7 + y_31 + y_37 + y_51 + y_89 + y_99 - z_524 >= 0
 c526: y_1 + y_8 + y_73 + y_75 + y_96 - z_525 >= 0
 c527: y_3 + y_4 + y_19 + y_26 + y_32 + y_33 + y_38 + y_44 + y_90 - z_526 >= 0
 c528: y_13 + y_28 + y_60 + y_76 + y_81 - z_527 >= 0
 c529: y_1 + y_23 + y_31 + y_46 + y_49 + y_73 + y_89 + y_98 + y_99 - z_528 >= 0
 c530: y_6 + y_22 - z_529 >= 0
 c531: y_2 + y_83 + y_85 - z_530 >= 0
 c532: y_0 + y_27 + y_42 + y_55 + y_64 - z_531 >= 0
 c533: y_7 + y_23 + y_31 + y_51 + y_62 + y_98 - z_532 >= 0
 c534: y_5 + y_8 + y_15 + y_20 + y_34 + y_61 + y_75 + y_80 + y_93 - z_533 >= 0
 c535: y_2 + y_14 + y_82 + y_83 + y_84 + y_85 - z_534 >= 0
 c536: y_10 + y_13 + y_60 + y_76 + y_78 + y_81 - z_535 >= 0
 c537: - z_536 >= 0
 c538: - z_537 >= 0
 c539: y_17 + y_39 + y_53 + y_58 + y_63 + y_91 - z_538 >= 0
 c540: y_17 + y_96 - z_539 >= 0
 c541: y_4 + y_6 + y_12 + y_22 + y_32 + y_88 - z_540 >= 0
 c542: y_4 + y_6 + y_32 + y_44 + y_90 - z_541 >= 0
 c543: y_12 + y_71 + y_88 - z_542 >= 0
 c544: y_1 + y_46 + y_49 + y_74 + y_75 + y_80 + y_95 - z_543 >= 0
 c545: y_21 + y_30 + y_36 + y_43 + y_47 + y_94 - z_544 >= 0
 c546: y_57 + y_65 + y_72 - z_545 >= 0
 c547: y_13 + y_28 + y_60 + y_76 + y_78 + y_81 - z_546 >= 0
 c548: y_25 + y_29 + y_35 + y_77 + y_87 + y_92 - z_547 >= 0
 c549: y_10 + y_13 + y_28 + y_60 + y_72 + y_76 + y_78 + y_81 - z_548 >= 0
 c550: y_23 + y_49 + y_74 + y_98 - z_549 >= 0
 c551: y_3 + y_11 + y_19 + y_26 + y_33 + y_38 + y_43 + y_44 + y_67 + y_68 + y_69
       - z_550 >= 0
 c552: y_4 + y_9 + y_26 + y_32 + y_71 - z_551 >= 0
 c553: y_0 + y_27 + y_42 + y_55 + y_63 + y_64 - z_552 >= 0
 c554: y_17 + y_39 + y_53 + y_58 + y_63 + y_91 - z_553 >= 0
 c555: y_0 + y_2 + y_27 + y_42 + y_55 - z_554 >= 0
 c556: y_10 + y_13 + y_28 + y_60 + y_76 + y_78 + y_81 - z_555 >= 0
 c557: y_0 + y_39 + y_42 + y_53 + y_55 + y_63 + y_64 - z_556 >= 0
 c558: y_1 + y_23 + y_46 + y_49 + y_73 + y_75 - z_557 >= 0
 c559: y_0 + y_27 + y_42 + y_55 + y_63 + y_64 - z_558 >= 0
 c560: y_40 + y_87 + y_92 - z_559 >= 0
 c561: y_18 + y_21 + y_36 + y_41 + y_47 + y_48 + y_94 - z_560 >= 0
 c562: y_4 + y_6 + y_32 + y_90 - z_561 >= 0
 c563: y_24 + y_52 + y_59 + y_70 + y_86 - z_562 >= 0
 c564: y_25 + y_29 + y_35 + y_40 + y_50 + y_66 + y_77 + y_87 + y_92 - z_563 >= 
       0
 c565: y_10 + y_12 + y_57 + y_78 + y_88 - z_564 >= 0
 c566: y_10 + y_12 + y_57 + y_72 + y_78 + y_88 - z_565 >= 0
 c567: y_10 + y_57 + y_60 + y_72 + y_76 + y_78 + y_81 - z_566 >= 0
 c568: y_7 + y_23 + y_31 + y_51 + y_62 + y_89 + y_98 + y_99 - z_567 >= 0
 c569: y_17 + y_39 + y_53 + y_58 + y_63 + y_91 - z_568 >= 0
 c570: y_4 + y_5 + y_6 + y_32 + y_44 + y_90 - z_569 >= 0
 c571: y_0 + y_27 + y_42 + y_55 + y_63 + y_64 - z_570 >= 0
 c572: y_17 + y_53 + y_96 - z_571 >= 0
 c573: y_0 + y_17 + y_39 + y_53 + y_63 + y_64 - z_572 >= 0
 c574: y_4 + y_5 + y_6 + y_32 + y_44 + y_90 - z_573 >= 0
 c575: y_83 + y_85 - z_574 >= 0
 c576: y_16 + y_40 + y_54 + y_55 + y_66 + y_87 + y_92 - z_575 >= 0
 c577: y_13 + y_28 + y_60 + y_76 + y_81 - z_576 >= 0
 c578: y_40 + y_92 - z_577 >= 0
 c579: y_2 + y_14 + y_27 + y_82 - z_578 >= 0
 c580: y_13 + y_28 + y_60 + y_76 - z_579 >= 0
 c581: y_16 + y_39 + y_40 + y_54 + y_63 + y_66 + y_87 - z_580 >= 0
 c582: y_3 + y_19 + y_33 + y_38 + y_44 + y_48 + y_61 + y_79 - z_581 >= 0
 c583: y_16 + y_50 + y_54 + y_56 + y_66 + y_87 - z_582 >= 0
 c584: y_16 + y_40 + y_54 + y_66 + y_87 + y_92 - z_583 >= 0
 c585: y_92 - z_584 >= 0
 c586: y_17 + y_96 - z_585 >= 0
 c587: y_4 + y_6 + y_32 + y_90 - z_586 >= 0
 c588: y_10 + y_13 + y_28 + y_60 + y_72 + y_76 + y_78 + y_81 - z_587 >= 0
 c589: y_0 + y_27 + y_45 - z_588 >= 0
 c590: y_1 + y_8 + y_46 + y_73 + y_75 + y_80 - z_589 >= 0
 c591: y_16 + y_39 + y_53 + y_58 + y_91 - z_590 >= 0
 c592: y_45 - z_591 >= 0
 c593: y_3 + y_5 + y_20 + y_33 + y_34 + y_44 + y_48 + y_61 + y_79 + y_80 + y_93
       - z_592 >= 0
 c594: y_16 + y_17 + y_39 + y_53 + y_54 + y_58 + y_63 + y_91 - z_593 >= 0
 c595: y_11 + y_67 + y_68 + y_97 - z_594 >= 0
 c596: y_5 + y_33 + y_34 + y_44 + y_61 + y_90 + y_93 - z_595 >= 0
 c597: y_11 + y_52 + y_68 + y_86 + y_97 - z_596 >= 0
 c598: y_4 + y_5 + y_6 + y_32 + y_44 + y_90 - z_597 >= 0
 c599: y_13 + y_28 + y_60 + y_76 + y_81 - z_598 >= 0
 c600: y_1 + y_23 + y_31 + y_46 + y_73 + y_75 + y_89 + y_99 - z_599 >= 0
 c601: y_9 + y_71 - z_600 >= 0
 c602: y_4 + y_6 + y_22 + y_32 + y_90 - z_601 >= 0
 c603: y_12 + y_71 - z_602 >= 0
 c604: y_15 + y_18 + y_36 + y_41 + y_46 + y_47 + y_49 + y_74 + y_95 - z_603 >= 
       0
 c605: y_2 + y_14 + y_27 + y_42 + y_55 + y_82 + y_83 - z_604 >= 0
 c606: y_0 + y_39 + y_42 + y_53 + y_55 + y_63 + y_64 - z_605 >= 0
 c607: y_8 + y_20 + y_75 + y_80 + y_93 + y_96 - z_606 >= 0
 c608: y_2 + y_82 + y_83 + y_84 + y_85 - z_607 >= 0
 c609: y_5 + y_6 + y_90 - z_608 >= 0
 c610: y_58 + y_91 - z_609 >= 0
 c611: y_30 + y_43 + y_52 + y_59 + y_94 - z_610 >= 0
 c612: y_10 + y_12 + y_57 + y_72 + y_78 + y_81 + y_88 - z_611 >= 0
 c613: y_0 + y_17 + y_53 + y_63 + y_64 - z_612 >= 0
 c614: y_1 + y_23 + y_31 + y_37 + y_73 + y_89 + y_98 + y_99 - z_613 >= 0
 c615: y_5 + y_20 + y_34 + y_61 + y_80 + y_93 - z_614 >= 0
 c616: y_17 + y_53 + y_58 + y_91 - z_615 >= 0
 c617: y_11 + y_24 + y_30 + y_43 + y_52 + y_59 + y_70 - z_616 >= 0
 c618: y_2 + y_14 + y_82 + y_83 - z_617 >= 0
 c619: y_4 + y_6 + y_32 + y_90 - z_618 >= 0
 c620: y_10 + y_13 + y_57 + y_60 + y_72 + y_76 + y_78 + y_81 - z_619 >= 0
 c621: y_1 + y_23 + y_31 + y_46 + y_49 + y_73 + y_89 + y_98 + y_99 - z_620 >= 0
 c622: y_17 + y_39 + y_53 + y_58 + y_63 + y_91 - z_621 >= 0
 c623: y_5 + y_17 + y_34 + y_53 + y_58 + y_91 - z_622 >= 0
 c624: y_18 + y_36 + y_47 + y_74 + y_95 - z_623 >= 0
 c625: y_13 + y_28 + y_60 + y_76 + y_81 - z_624 >= 0
 c626: y_50 + y_56 - z_625 >= 0
 c627: y_45 - z_626 >= 0
 c628: y_8 + y_20 + y_34 + y_61 + y_75 + y_80 + y_93 - z_627 >= 0
 c629: y_45 - z_628 >= 0
 c630: y_5 + y_17 + y_53 + y_58 + y_91 - z_629 >= 0
 c631: y_13 + y_28 + y_60 + y_72 + y_76 + y_78 + y_81 - z_630 >= 0
 c632: y_10 + y_57 + y_72 + y_78 + y_81 - z_631 >= 0
 c633: y_13 + y_28 + y_60 + y_76 + y_81 - z_632 >= 0
 c634: y_58 + y_91 - z_633 >= 0
 c635: y_5 + y_8 + y_17 + y_34 + y_80 + y_93 - z_634 >= 0
 c636: y_16 + y_39 + y_53 + y_54 + y_58 + y_63 + y_66 + y_91 - z_635 >= 0
 c637: y_25 + y_50 + y_56 + y_66 + y_87 - z_636 >= 0
 c638: y_83 + y_85 + y_92 - z_637 >= 0
 c639: y_0 + y_27 + y_39 + y_42 + y_55 + y_63 + y_64 - z_638 >= 0
 c640: y_11 + y_24 + y_52 + y_67 + y_68 + y_69 + y_70 + y_86 + y_97 - z_639 >= 
       0
 c641: y_4 + y_6 + y_32 + y_90 - z_640 >= 0
 c642: y_12 + y_57 + y_72 + y_88 - z_641 >= 0
 c643: y_31 + y_37 + y_89 - z_642 >= 0
 c644: y_24 + y_70 + y_86 - z_643 >= 0
 c645: y_4 + y_9 + y_26 + y_32 + y_90 - z_644 >= 0
 c646: y_16 + y_50 + y_54 + y_56 + y_58 + y_66 - z_645 >= 0
 c647: y_17 + y_53 + y_96 - z_646 >= 0
 c648: y_8 + y_15 + y_20 + y_34 + y_46 + y_61 + y_75 + y_80 + y_93 + y_95
       - z_647 >= 0
 c649: y_25 + y_29 + y_35 + y_50 + y_77 + y_87 + y_92 - z_648 >= 0
 c650: y_13 + y_28 + y_60 + y_72 + y_76 + y_78 + y_81 - z_649 >= 0
 c651: y_1 + y_8 + y_46 + y_73 + y_75 + y_96 - z_650 >= 0
 c652: y_25 + y_50 + y_56 + y_66 + y_87 - z_651 >= 0
 c653: y_2 + y_14 + y_27 + y_82 - z_652 >= 0
 c654: y_3 + y_19 + y_26 + y_33 + y_38 + y_44 + y_67 + y_69 - z_653 >= 0
 c655: y_16 + y_39 + y_53 + y_54 + y_58 + y_63 + y_66 + y_87 + y_91 - z_654 >= 
       0
 c656: y_15 + y_18 + y_36 + y_41 + y_46 + y_47 + y_49 + y_74 + y_95 - z_655 >= 
       0
 c657: y_1 + y_37 + y_73 + y_96 - z_656 >= 0
 c658: y_3 + y_11 + y_19 + y_33 + y_38 + y_43 + y_44 + y_48 + y_67 + y_69
       - z_657 >= 0
 c659: y_50 + y_56 + y_58 - z_658 >= 0
 c660: y_1 + y_73 + y_96 - z_659 >= 0
 c661: y_0 + y_2 + y_14 + y_27 + y_42 + y_55 + y_82 - z_660 >= 0
 c662: y_9 + y_71 + y_97 - z_661 >= 0
 c663: y_37 + y_73 + y_96 - z_662 >= 0
 c664: y_6 + y_22 - z_663 >= 0
 c665: y_17 + y_53 + y_63 + y_64 + y_96 - z_664 >= 0
 c666: y_58 + y_91 - z_665 >= 0
 c667: y_30 + y_43 + y_52 + y_59 + y_94 - z_666 >= 0
 c668: y_16 + y_40 + y_54 + y_55 + y_66 + y_87 + y_92 - z_667 >= 0
 c669: y_30 + y_43 + y_52 + y_59 + y_94 - z_668 >= 0
 c670: y_7 + y_31 + y_37 + y_51 + y_62 + y_89 + y_99 - z_669 >= 0
 c671: y_4 + y_6 + y_12 + y_22 + y_32 + y_88 + y_90 - z_670 >= 0
 c672: y_83 + y_85 + y_92 - z_671 >= 0
 c673: y_13 + y_28 + y_60 + y_76 - z_672 >= 0
 c674: y_37 + y_45 + y_73 + y_96 - z_673 >= 0
 c675: y_4 + y_5 + y_6 + y_33 + y_34 + y_44 + y_90 - z_674 >= 0
 c676: y_22 + y_57 + y_65 + y_72 - z_675 >= 0
 c677: y_0 + y_2 + y_14 + y_27 + y_42 + y_55 - z_676 >= 0
 c678: y_1 + y_31 + y_37 + y_73 + y_89 + y_99 - z_677 >= 0
 c679: y_2 + y_14 + y_27 + y_82 - z_678 >= 0
 c680: y_9 + y_11 + y_26 + y_67 + y_68 + y_69 + y_97 - z_679 >= 0
 c681: y_73 + y_96 - z_680 >= 0
 c682: y_13 + y_28 + y_60 - z_681 >= 0
 c683: y_8 + y_15 + y_20 + y_46 + y_49 + y_61 + y_75 + y_79 + y_80 + y_93 + y_95
       - z_682 >= 0
 c684: y_3 + y_11 + y_19 + y_38 + y_43 + y_52 + y_59 + y_67 + y_68 + y_69
       - z_683 >= 0
 c685: y_2 + y_40 + y_55 + y_83 + y_85 + y_92 - z_684 >= 0
 c686: y_25 + y_35 + y_40 + y_77 + y_87 + y_92 - z_685 >= 0
 c687: y_16 + y_17 + y_39 + y_53 + y_54 + y_58 + y_63 + y_64 + y_91 - z_686 >= 
       0
 c688: y_11 + y_24 + y_52 + y_59 + y_67 + y_68 + y_69 + y_70 + y_86 + y_97
       - z_687 >= 0
 c689: y_15 + y_18 + y_21 + y_36 + y_41 + y_47 + y_79 + y_95 - z_688 >= 0
 c690: y_15 + y_18 + y_20 + y_21 + y_33 + y_36 + y_41 + y_47 + y_48 + y_61
       + y_79 + y_80 + y_93 + y_95 - z_689 >= 0
 c691: y_8 + y_15 + y_20 + y_34 + y_46 + y_61 + y_75 + y_79 + y_80 + y_93 + y_95
       - z_690 >= 0
 c692: y_9 + y_12 + y_71 + y_88 - z_691 >= 0
 c693: y_13 + y_28 + y_60 + y_76 - z_692 >= 0
 c694: y_13 + y_60 - z_693 >= 0
 c695: y_12 + y_22 + y_57 + y_65 + y_72 + y_88 - z_694 >= 0
 c696: y_92 - z_695 >= 0
 c697: y_7 + y_23 + y_31 + y_51 + y_62 + y_89 + y_98 + y_99 - z_696 >= 0
 c698: y_9 + y_71 - z_697 >= 0
 c699: y_16 + y_39 + y_40 + y_42 + y_54 + y_55 + y_63 + y_64 - z_698 >= 0
 c700: y_4 + y_6 + y_32 + y_90 - z_699 >= 0
 c701: y_18 + y_21 + y_36 + y_41 + y_47 + y_94 - z_700 >= 0
 c702: y_25 + y_29 + y_35 + y_40 + y_77 + y_87 + y_92 - z_701 >= 0
 c703: y_3 + y_5 + y_19 + y_33 + y_34 + y_38 + y_44 + y_48 + y_61 + y_90 - z_702
        >= 0
 c704: y_7 + y_23 + y_31 + y_37 + y_51 + y_62 + y_89 + y_98 + y_99 - z_703 >= 0
 c705: y_16 + y_17 + y_39 + y_53 + y_54 + y_58 + y_63 + y_64 + y_91 - z_704 >= 
       0
 c706: y_16 + y_40 + y_54 + y_66 + y_87 + y_92 - z_705 >= 0
 c707: y_11 + y_43 + y_52 + y_59 + y_67 + y_68 + y_69 + y_97 - z_706 >= 0
 c708: y_16 + y_39 + y_40 + y_54 + y_55 + y_66 + y_87 + y_92 - z_707 >= 0
 c709: y_1 + y_7 + y_23 + y_31 + y_49 + y_51 + y_89 + y_98 + y_99 - z_708 >= 0
 c710: y_13 - z_709 >= 0
 c711: y_13 - z_710 >= 0
 c712: y_10 + y_13 + y_28 + y_60 + y_72 + y_76 + y_78 + y_81 - z_711 >= 0
 c713: y_2 + y_14 + y_82 + y_83 + y_85 - z_712 >= 0
 c714: y_8 + y_17 + y_75 + y_80 + y_96 - z_713 >= 0
 c715: y_18 + y_21 + y_36 + y_41 + y_47 + y_94 - z_714 >= 0
 c716: y_11 + y_24 + y_30 + y_43 + y_52 + y_59 + y_67 + y_68 + y_69 + y_70
       - z_715 >= 0
 c717: y_31 + y_37 + y_89 + y_99 - z_716 >= 0
 c718: y_0 + y_14 + y_27 + y_42 + y_82 - z_717 >= 0
 c719: y_15 + y_18 + y_21 + y_33 + y_36 + y_41 + y_47 + y_48 + y_61 + y_79
       + y_95 - z_718 >= 0
 c720: y_13 + y_28 + y_60 + y_76 - z_719 >= 0
 c721: y_3 + y_19 + y_21 + y_30 + y_38 + y_43 + y_48 + y_52 + y_59 + y_94
       - z_720 >= 0
 c722: y_4 + y_12 + y_22 + y_32 + y_88 - z_721 >= 0
 c723: y_23 + y_46 + y_49 + y_74 + y_95 - z_722 >= 0
 c724: y_17 + y_39 + y_53 + y_58 + y_63 + y_91 - z_723 >= 0
 c725: y_1 + y_7 + y_23 + y_31 + y_51 + y_89 + y_98 + y_99 - z_724 >= 0
 c726: y_25 + y_29 + y_35 + y_77 + y_87 + y_92 - z_725 >= 0
 c727: y_37 + y_45 + y_73 + y_89 + y_99 - z_726 >= 0
 c728: y_11 + y_19 + y_38 + y_43 + y_52 + y_59 + y_67 + y_68 + y_69 - z_727 >= 
       0
 c729: y_1 + y_7 + y_23 + y_31 + y_51 + y_73 + y_89 + y_98 + y_99 - z_728 >= 0
 c730: y_50 + y_56 + y_66 - z_729 >= 0
 c731: y_37 + y_45 + y_73 + y_96 - z_730 >= 0
 c732: y_11 + y_26 + y_43 + y_52 + y_59 + y_67 + y_68 + y_69 + y_97 - z_731 >= 
       0
 c733: y_25 + y_29 + y_35 + y_50 + y_56 + y_77 - z_732 >= 0
 c734: y_11 + y_24 + y_43 + y_52 + y_59 + y_67 + y_68 + y_69 + y_70 + y_86
       + y_97 - z_733 >= 0
 c735: y_2 + y_14 + y_27 + y_82 - z_734 >= 0
 c736: y_2 + y_14 + y_27 + y_42 + y_55 + y_82 + y_83 - z_735 >= 0
 c737: y_13 + y_57 + y_60 + y_72 + y_76 + y_78 + y_81 - z_736 >= 0
 c738: y_1 + y_8 + y_46 + y_49 + y_74 + y_75 + y_80 + y_95 - z_737 >= 0
 c739: y_10 + y_12 + y_57 + y_72 + y_78 + y_88 - z_738 >= 0
 c740: y_21 + y_30 + y_36 + y_41 + y_43 + y_47 + y_94 - z_739 >= 0
 c741: y_11 + y_19 + y_30 + y_43 + y_52 + y_59 + y_94 - z_740 >= 0
 c742: y_2 + y_14 + y_82 + y_83 + y_84 + y_85 - z_741 >= 0
 c743: y_16 + y_25 + y_40 + y_50 + y_54 + y_66 + y_77 + y_87 + y_92 - z_742 >= 
       0
 c744: y_27 + y_45 - z_743 >= 0
 c745: y_71 - z_744 >= 0
 c746: y_1 + y_23 + y_46 + y_49 + y_73 + y_75 + y_98 + y_99 - z_745 >= 0
 c747: y_11 + y_24 + y_43 + y_52 + y_59 + y_68 + y_70 + y_86 - z_746 >= 0
 c748: y_17 + y_53 + y_58 + y_63 + y_91 - z_747 >= 0
 c749: y_31 + y_37 + y_89 - z_748 >= 0
 c750: y_18 + y_21 + y_30 + y_36 + y_41 + y_47 + y_94 - z_749 >= 0
 c751: y_10 + y_72 + y_76 + y_78 + y_81 - z_750 >= 0
 c752: y_13 + y_57 + y_65 + y_72 - z_751 >= 0
 c753: y_15 + y_18 + y_21 + y_36 + y_41 + y_47 + y_48 + y_79 - z_752 >= 0
 c754: y_9 + y_71 - z_753 >= 0
 c755: y_12 + y_22 + y_57 + y_65 + y_72 + y_88 - z_754 >= 0
 c756: y_6 + y_58 + y_90 + y_91 - z_755 >= 0
 c757: y_4 + y_12 + y_22 + y_32 + y_88 - z_756 >= 0
 c758: y_8 + y_15 + y_20 + y_46 + y_49 + y_61 + y_74 + y_75 + y_80 + y_93 + y_95
       - z_757 >= 0
 c759: y_5 + y_8 + y_17 + y_34 + y_91 - z_758 >= 0
 c760: y_4 + y_6 + y_26 + y_32 + y_38 + y_44 + y_90 - z_759 >= 0
 c761: y_13 + y_28 + y_60 + y_76 + y_81 - z_760 >= 0
 c762: y_25 + y_29 + y_35 + y_50 + y_56 + y_77 + y_87 - z_761 >= 0
 c763: y_2 + y_82 + y_83 + y_84 + y_85 - z_762 >= 0
 c764: y_46 + y_49 + y_74 + y_95 - z_763 >= 0
 c765: y_7 + y_23 + y_51 + y_98 - z_764 >= 0
 c766: y_7 + y_23 + y_31 + y_51 + y_62 + y_89 + y_98 + y_99 - z_765 >= 0
 c767: y_13 + y_65 + y_72 - z_766 >= 0
 c768: y_9 + y_11 + y_26 + y_67 + y_68 + y_69 + y_97 - z_767 >= 0
 c769: y_10 + y_13 + y_28 + y_60 + y_76 + y_78 + y_81 - z_768 >= 0
 c770: y_22 + y_57 + y_65 + y_72 + y_88 - z_769 >= 0
 c771: y_5 + y_20 + y_33 + y_34 + y_44 + y_61 + y_80 + y_93 - z_770 >= 0
 c772: y_1 + y_8 + y_73 + y_75 + y_96 - z_771 >= 0
 c773: y_10 + y_12 + y_57 + y_72 + y_88 - z_772 >= 0
 c774: y_5 + y_8 + y_15 + y_20 + y_34 + y_61 + y_75 + y_79 + y_80 + y_93 - z_773
        >= 0
 c775: y_7 + y_23 + y_31 + y_37 + y_51 + y_62 + y_89 + y_98 + y_99 - z_774 >= 0
 c776: y_21 + y_30 + y_36 + y_41 + y_43 + y_47 + y_94 - z_775 >= 0
 c777: y_1 + y_7 + y_31 + y_37 + y_73 + y_89 + y_98 + y_99 - z_776 >= 0
 c778: y_11 + y_24 + y_52 + y_59 + y_67 + y_68 + y_69 + y_70 + y_86 + y_97
       - z_777 >= 0
 c779: y_1 + y_31 + y_37 + y_73 + y_89 + y_99 - z_778 >= 0
 c780: y_1 + y_8 + y_73 + y_75 + y_96 - z_779 >= 0
 c781: y_8 + y_73 + y_75 + y_96 - z_780 >= 0
 c782: y_18 + y_46 + y_49 + y_74 + y_95 - z_781 >= 0
 c783: y_1 + y_37 + y_73 + y_96 - z_782 >= 0
 c784: y_1 + y_8 + y_46 + y_49 + y_74 + y_75 + y_80 + y_95 - z_783 >= 0
 c785: y_1 + y_7 + y_23 + y_31 + y_49 + y_51 + y_89 + y_98 + y_99 - z_784 >= 0
 c786: y_10 + y_12 + y_57 + y_72 + y_78 + y_88 - z_785 >= 0
 c787: y_15 + y_20 + y_41 + y_46 + y_49 + y_61 + y_75 + y_79 + y_80 + y_93
       + y_95 - z_786 >= 0
 c788: y_97 - z_787 >= 0
 c789: y_4 + y_9 + y_26 + y_32 + y_71 - z_788 >= 0
 c790: y_25 + y_29 + y_50 + y_56 + y_77 - z_789 >= 0
 c791: y_3 + y_5 + y_19 + y_20 + y_33 + y_34 + y_38 + y_44 + y_48 + y_61 + y_79
       + y_93 - z_790 >= 0
 c792: y_10 + y_12 + y_57 + y_72 + y_78 + y_81 + y_88 - z_791 >= 0
 c793: y_25 + y_29 + y_35 + y_50 + y_56 + y_66 + y_77 + y_87 - z_792 >= 0
 c794: y_12 + y_71 + y_88 - z_793 >= 0
 c795: y_1 + y_7 + y_23 + y_31 + y_37 + y_51 + y_62 + y_89 + y_98 + y_99 - z_794
        >= 0
 c796: y_9 + y_26 + y_67 + y_69 - z_795 >= 0
 c797: y_5 + y_15 + y_20 + y_33 + y_34 + y_41 + y_48 + y_61 + y_79 + y_80 + y_93
       - z_796 >= 0
 c798: y_16 + y_39 + y_40 + y_53 + y_54 + y_63 + y_66 + y_87 - z_797 >= 0
 c799: y_50 + y_56 + y_66 - z_798 >= 0
 c800: y_10 + y_12 + y_57 + y_72 + y_78 + y_88 - z_799 >= 0
 c801: y_22 + y_57 + y_65 + y_72 + y_78 + y_88 - z_800 >= 0
 c802: y_8 + y_15 + y_20 + y_34 + y_46 + y_61 + y_75 + y_79 + y_80 + y_93 + y_95
       - z_801 >= 0
 c803: y_9 + y_26 + y_71 - z_802 >= 0
 c804: y_50 + y_56 + y_66 - z_803 >= 0
 c805: y_11 + y_24 + y_43 + y_52 + y_59 + y_67 + y_68 + y_69 + y_70 - z_804 >= 
       0
 c806: y_4 + y_5 + y_6 + y_32 + y_90 - z_805 >= 0
 c807: y_17 + y_39 + y_53 + y_58 + y_63 + y_91 - z_806 >= 0
 c808: y_2 + y_40 + y_83 + y_85 + y_92 - z_807 >= 0
 c809: y_46 + y_49 + y_74 + y_95 - z_808 >= 0
 c810: y_5 + y_17 + y_34 + y_58 + y_91 - z_809 >= 0
 c811: y_1 + y_8 + y_73 + y_75 + y_96 - z_810 >= 0
 c812: y_22 + y_57 + y_65 + y_72 + y_78 + y_88 - z_811 >= 0
 c813: y_3 + y_15 + y_20 + y_21 + y_33 + y_36 + y_41 + y_47 + y_48 + y_61 + y_79
       + y_80 + y_93 - z_812 >= 0
 c814: y_15 + y_18 + y_36 + y_41 + y_46 + y_47 + y_49 + y_74 + y_79 + y_95
       - z_813 >= 0
 c815: y_9 + y_11 + y_26 + y_67 + y_68 + y_69 + y_97 - z_814 >= 0
 c816: y_12 + y_22 + y_57 + y_65 + y_72 + y_88 - z_815 >= 0
 c817: y_31 + y_37 + y_89 + y_99 - z_816 >= 0
 c818: y_13 + y_28 + y_60 + y_76 + y_81 - z_817 >= 0
 c819: y_4 + y_6 + y_32 + y_44 + y_90 - z_818 >= 0
 c820: y_4 + y_6 + y_22 + y_32 + y_90 - z_819 >= 0
 c821: y_3 + y_5 + y_19 + y_20 + y_33 + y_34 + y_38 + y_44 + y_48 + y_61 + y_79
       + y_93 - z_820 >= 0
 c822: y_28 + y_60 + y_76 - z_821 >= 0
 c823: y_11 + y_19 + y_30 + y_38 + y_43 + y_52 + y_59 + y_67 + y_68 + y_69
       - z_822 >= 0
 c824: y_11 + y_24 + y_43 + y_52 + y_59 + y_67 + y_68 + y_69 + y_70 - z_823 >= 
       0
 c825: y_1 + y_8 + y_73 + y_75 + y_96 - z_824 >= 0
 c826: y_4 + y_5 + y_6 + y_32 + y_90 - z_825 >= 0
 c827: y_4 + y_5 + y_6 + y_32 + y_44 + y_90 - z_826 >= 0
 c828: y_1 + y_23 + y_31 + y_46 + y_49 + y_73 + y_89 + y_98 + y_99 - z_827 >= 0
 c829: y_22 + y_50 + y_56 - z_828 >= 0
 c830: y_17 + y_53 + y_96 - z_829 >= 0
 c831: y_24 + y_70 + y_86 - z_830 >= 0
 c832: y_7 + y_23 + y_31 + y_51 + y_62 + y_98 + y_99 - z_831 >= 0
 c833: y_23 + y_46 + y_49 + y_74 + y_98 - z_832 >= 0
 c834: y_13 + y_28 + y_60 + y_76 + y_81 - z_833 >= 0
 c835: y_16 + y_50 + y_54 + y_56 + y_58 + y_66 - z_834 >= 0
 c836: y_15 + y_18 + y_36 + y_41 + y_46 + y_47 + y_49 + y_74 + y_79 + y_95
       - z_835 >= 0
 c837: y_9 + y_71 - z_836 >= 0
 c838: y_2 + y_14 + y_27 + y_42 + y_82 - z_837 >= 0
 c839: y_25 + y_29 + y_35 + y_77 - z_838 >= 0
 c840: y_10 + y_13 + y_57 + y_60 + y_72 + y_76 + y_78 + y_81 - z_839 >= 0
 c841: y_17 + y_96 - z_840 >= 0
 c842: y_40 + y_54 + y_66 + y_87 + y_92 - z_841 >= 0
 c843: y_12 + y_71 + y_88 - z_842 >= 0
 c844: y_45 - z_843 >= 0
 c845: y_1 + y_73 + y_96 + y_99 - z_844 >= 0
 c846: y_11 + y_52 + y_67 + y_68 + y_69 + y_86 + y_97 - z_845 >= 0
 c847: y_23 + y_46 + y_49 + y_74 + y_75 + y_95 - z_846 >= 0
 c848: y_0 + y_27 + y_39 + y_42 + y_53 + y_55 + y_63 + y_64 - z_847 >= 0
 c849: y_1 + y_31 + y_37 + y_73 + y_89 + y_99 - z_848 >= 0
 c850: y_50 + y_56 + y_58 - z_849 >= 0
 c851: y_24 + y_52 + y_59 + y_70 + y_86 - z_850 >= 0
 c852: y_13 + y_57 + y_60 + y_65 + y_72 - z_851 >= 0
 c853: y_16 + y_25 + y_35 + y_40 + y_50 + y_54 + y_56 + y_66 + y_77 + y_87
       + y_92 - z_852 >= 0
 c854: y_18 + y_21 + y_36 + y_41 + y_47 + y_94 - z_853 >= 0
 c855: y_4 + y_6 + y_9 + y_26 + y_32 + y_90 - z_854 >= 0
 c856: y_13 + y_28 + y_60 + y_76 - z_855 >= 0
 c857: y_11 + y_24 + y_52 + y_67 + y_68 + y_69 + y_70 + y_86 + y_97 - z_856 >= 
       0
 c858: y_13 + y_57 + y_60 + y_65 + y_72 + y_76 + y_78 + y_81 - z_857 >= 0
 c859: y_57 + y_65 + y_72 - z_858 >= 0
 c860: y_40 + y_92 - z_859 >= 0
 c861: y_1 + y_31 + y_37 + y_73 + y_89 + y_99 - z_860 >= 0
 c862: y_45 + y_96 - z_861 >= 0
 c863: y_5 + y_8 + y_17 + y_34 + y_96 - z_862 >= 0
 c864: y_0 + y_27 - z_863 >= 0
 c865: y_6 + y_22 - z_864 >= 0
 c866: y_0 + y_53 + y_63 + y_64 - z_865 >= 0
 c867: y_29 + y_35 + y_77 - z_866 >= 0
 c868: y_18 + y_46 + y_49 + y_74 + y_95 - z_867 >= 0
 c869: y_13 + y_28 + y_60 + y_76 - z_868 >= 0
 c870: y_0 + y_27 - z_869 >= 0
 c871: y_25 + y_29 + y_35 + y_40 + y_77 + y_87 + y_92 - z_870 >= 0
 c872: y_5 + y_33 + y_34 + y_44 + y_61 + y_90 + y_93 - z_871 >= 0
 c873: y_37 + y_45 + y_73 + y_96 - z_872 >= 0
 c874: y_2 + y_40 + y_83 + y_85 - z_873 >= 0
 c875: y_0 + y_96 - z_874 >= 0
 c876: y_9 + y_11 + y_19 + y_26 + y_38 + y_67 + y_68 + y_69 - z_875 >= 0
 c877: y_13 - z_876 >= 0
 c878: y_3 + y_11 + y_19 + y_30 + y_38 + y_43 + y_52 + y_59 + y_68 + y_69
       - z_877 >= 0
 c879: y_16 + y_40 + y_54 + y_66 + y_87 + y_92 - z_878 >= 0
 c880: - z_879 >= 0
 c881: y_25 + y_29 + y_35 + y_40 + y_77 + y_87 + y_92 - z_880 >= 0
 c882: y_18 + y_21 + y_36 + y_41 + y_47 - z_881 >= 0
 c883: y_13 + y_28 + y_60 + y_76 + y_78 + y_81 - z_882 >= 0
 c884: y_2 + y_14 + y_27 + y_82 - z_883 >= 0
 c885: y_11 + y_24 + y_30 + y_43 + y_52 + y_59 + y_68 + y_70 - z_884 >= 0
 c886: y_1 + y_8 + y_46 + y_73 + y_75 + y_80 + y_96 - z_885 >= 0
 c887: y_2 + y_14 + y_82 + y_83 + y_84 + y_85 - z_886 >= 0
 c888: y_3 + y_15 + y_19 + y_21 + y_33 + y_36 + y_41 + y_47 + y_48 + y_61 + y_79
       - z_887 >= 0
 c889: y_40 + y_42 + y_54 + y_55 + y_92 - z_888 >= 0
 c890: y_45 - z_889 >= 0
 c891: y_40 + y_55 + y_87 + y_92 - z_890 >= 0
 c892: y_24 + y_30 + y_43 + y_52 + y_59 + y_70 + y_94 - z_891 >= 0
 c893: y_4 + y_6 + y_12 + y_22 + y_32 + y_88 - z_892 >= 0
 c894: y_1 + y_7 + y_23 + y_31 + y_49 + y_51 + y_89 + y_98 + y_99 - z_893 >= 0
 c895: y_25 + y_35 + y_40 + y_77 + y_87 + y_92 - z_894 >= 0
 c896: y_2 + y_14 + y_27 + y_42 + y_82 + y_83 - z_895 >= 0
 c897: y_12 + y_22 + y_57 + y_88 - z_896 >= 0
 c898: y_22 + y_57 + y_65 + y_72 - z_897 >= 0
 c899: y_16 + y_25 + y_50 + y_54 + y_56 + y_66 + y_77 + y_87 - z_898 >= 0
 c900: y_5 + y_8 + y_20 + y_34 + y_61 + y_80 + y_93 - z_899 >= 0
 c901: y_10 + y_13 + y_57 + y_60 + y_72 + y_76 + y_78 + y_81 - z_900 >= 0
 c902: y_25 + y_29 + y_35 + y_77 - z_901 >= 0
 c903: y_3 + y_19 + y_21 + y_33 + y_38 + y_43 + y_48 - z_902 >= 0
 c904: y_83 + y_84 + y_85 - z_903 >= 0
 c905: y_11 + y_24 + y_52 + y_59 + y_68 + y_70 + y_86 + y_97 - z_904 >= 0
 c906: y_8 + y_15 + y_20 + y_34 + y_46 + y_61 + y_75 + y_79 + y_80 + y_93 + y_95
       - z_905 >= 0
 c907: y_11 + y_52 + y_67 + y_68 + y_69 + y_97 - z_906 >= 0
 c908: y_0 + y_16 + y_39 + y_42 + y_54 + y_55 + y_63 + y_64 - z_907 >= 0
 c909: y_4 + y_6 + y_9 + y_26 + y_32 + y_90 - z_908 >= 0
 c910: y_11 + y_30 + y_43 + y_52 + y_59 + y_68 + y_70 - z_909 >= 0
 c911: y_40 + y_87 + y_92 - z_910 >= 0
 c912: y_11 + y_24 + y_43 + y_52 + y_59 + y_67 + y_68 + y_69 + y_70 + y_97
       - z_911 >= 0
 c913: y_16 + y_39 + y_53 + y_54 + y_58 + y_66 + y_91 - z_912 >= 0
 c914: y_13 + y_28 + y_60 + y_76 + y_81 - z_913 >= 0
 c915: y_5 + y_17 + y_34 - z_914 >= 0
 c916: y_8 + y_73 + y_96 - z_915 >= 0
 c917: y_40 + y_83 + y_85 + y_92 - z_916 >= 0
 c918: y_40 + y_87 + y_92 - z_917 >= 0
 c919: y_45 - z_918 >= 0
 c920: y_13 + y_28 + y_60 + y_76 - z_919 >= 0
 c921: y_3 + y_5 + y_15 + y_20 + y_33 + y_34 + y_44 + y_48 + y_61 + y_79 + y_80
       + y_93 - z_920 >= 0
 c922: y_0 + y_96 - z_921 >= 0
 c923: y_5 + y_17 + y_34 + y_91 - z_922 >= 0
 c924: y_1 + y_31 + y_37 + y_73 + y_89 + y_96 + y_99 - z_923 >= 0
 c925: y_13 + y_28 + y_60 + y_76 - z_924 >= 0
 c926: y_8 + y_15 + y_20 + y_46 + y_49 + y_61 + y_75 + y_80 + y_93 + y_95
       - z_925 >= 0
 c927: y_11 + y_26 + y_52 + y_67 + y_68 + y_69 + y_97 - z_926 >= 0
 c928: y_8 + y_34 + y_75 + y_80 + y_96 - z_927 >= 0
 c929: y_9 + y_11 + y_26 + y_67 + y_68 + y_69 + y_97 - z_928 >= 0
 c930: y_8 + y_73 + y_75 + y_96 - z_929 >= 0
 c931: y_4 + y_6 + y_22 + y_32 + y_90 - z_930 >= 0
 c932: y_65 - z_931 >= 0
 c933: y_18 + y_46 + y_49 + y_74 + y_95 - z_932 >= 0
 c934: y_4 + y_9 + y_26 + y_32 - z_933 >= 0
 c935: y_16 + y_39 + y_50 + y_53 + y_54 + y_58 + y_63 + y_66 + y_91 - z_934 >= 
       0
 c936: y_25 + y_35 + y_77 + y_92 - z_935 >= 0
 c937: y_12 + y_71 + y_88 - z_936 >= 0
 c938: y_5 + y_17 + y_34 + y_91 - z_937 >= 0
 c939: y_14 + y_27 + y_82 - z_938 >= 0
 c940: y_65 - z_939 >= 0
 c941: y_21 + y_30 + y_36 + y_41 + y_43 + y_47 + y_48 + y_94 - z_940 >= 0
 c942: y_0 + y_45 - z_941 >= 0
 c943: y_17 + y_96 - z_942 >= 0
 c944: y_11 + y_19 + y_26 + y_38 + y_43 + y_52 + y_59 + y_67 + y_68 + y_69
       + y_97 - z_943 >= 0
 c945: y_3 + y_19 + y_21 + y_30 + y_33 + y_36 + y_41 + y_43 + y_47 + y_48 + y_94
       - z_944 >= 0
 c946: y_5 + y_20 + y_33 + y_34 + y_44 + y_61 + y_90 + y_93 - z_945 >= 0
 c947: y_3 + y_19 + y_33 + y_38 + y_44 + y_48 - z_946 >= 0
 c948: y_1 + y_23 + y_46 + y_49 + y_74 + y_98 + y_99 - z_947 >= 0
 c949: y_23 + y_46 + y_49 + y_74 + y_98 - z_948 >= 0
 c950: y_16 + y_50 + y_54 + y_56 + y_66 - z_949 >= 0
 c951: y_65 - z_950 >= 0
 c952: y_22 + y_57 + y_65 + y_88 - z_951 >= 0
 c953: y_15 + y_20 + y_41 + y_46 + y_48 + y_61 + y_75 + y_79 + y_80 + y_93
       + y_95 - z_952 >= 0
 c954: y_0 + y_45 - z_953 >= 0
 c955: y_13 + y_57 + y_60 + y_72 + y_76 + y_78 + y_81 - z_954 >= 0
 c956: y_17 + y_53 + y_58 + y_63 + y_91 - z_955 >= 0
 c957: y_9 + y_26 + y_32 + y_71 - z_956 >= 0
 c958: y_11 + y_68 + y_86 + y_97 - z_957 >= 0
 c959: y_10 + y_13 + y_57 + y_60 + y_72 + y_76 + y_78 + y_81 - z_958 >= 0
 c960: y_17 + y_39 + y_53 + y_58 + y_63 + y_91 - z_959 >= 0
 c961: y_13 + y_28 + y_60 + y_76 + y_81 - z_960 >= 0
 c962: y_12 + y_57 + y_88 - z_961 >= 0
 c963: y_1 + y_23 + y_31 + y_46 + y_49 + y_98 + y_99 - z_962 >= 0
 c964: y_4 + y_6 + y_32 + y_90 - z_963 >= 0
 c965: y_1 + y_23 + y_31 + y_37 + y_73 + y_89 + y_98 + y_99 - z_964 >= 0
 c966: y_40 + y_83 + y_85 + y_92 - z_965 >= 0
 c967: y_2 + y_83 + y_84 + y_85 - z_966 >= 0
 c968: y_58 + y_91 - z_967 >= 0
 c969: y_0 + y_27 + y_42 + y_55 + y_64 - z_968 >= 0
 c970: y_83 + y_84 + y_85 - z_969 >= 0
 c971: y_5 + y_8 + y_17 + y_34 + y_91 - z_970 >= 0
 c972: y_5 + y_8 + y_15 + y_20 + y_34 + y_61 + y_75 + y_79 + y_80 + y_93 - z_971
        >= 0
 c973: y_4 + y_9 + y_26 + y_32 + y_71 - z_972 >= 0
 c974: y_16 + y_50 + y_54 + y_56 + y_66 + y_87 - z_973 >= 0
 c975: y_40 + y_85 + y_92 - z_974 >= 0
 c976: y_1 + y_8 + y_46 + y_49 + y_73 + y_75 - z_975 >= 0
 c977: y_11 + y_43 + y_52 + y_59 + y_67 + y_68 + y_69 + y_97 - z_976 >= 0
 c978: y_11 + y_24 + y_30 + y_43 + y_52 + y_59 + y_68 + y_70 - z_977 >= 0
 c979: y_17 + y_53 + y_63 + y_64 + y_91 - z_978 >= 0
 c980: y_4 + y_5 + y_6 + y_90 - z_979 >= 0
 c981: y_57 + y_65 + y_72 - z_980 >= 0
 c982: y_16 + y_40 + y_54 + y_66 + y_87 + y_92 - z_981 >= 0
 c983: y_13 + y_57 + y_65 + y_72 - z_982 >= 0
 c984: y_25 + y_40 + y_66 + y_77 + y_87 + y_92 - z_983 >= 0
 c985: y_5 + y_17 + y_34 + y_91 - z_984 >= 0
 c986: y_13 + y_57 + y_60 + y_72 + y_76 + y_78 + y_81 - z_985 >= 0
 c987: y_9 + y_11 + y_19 + y_26 + y_38 + y_67 + y_68 + y_69 + y_97 - z_986 >= 0
 c988: y_0 + y_2 + y_27 + y_42 + y_55 - z_987 >= 0
 c989: y_6 + y_12 + y_22 + y_32 + y_88 - z_988 >= 0
 c990: y_25 + y_29 + y_35 + y_77 - z_989 >= 0
 c991: y_16 + y_50 + y_54 + y_56 + y_58 + y_66 + y_87 - z_990 >= 0
 c992: y_37 + y_73 + y_96 - z_991 >= 0
 c993: y_13 + y_28 + y_60 + y_76 - z_992 >= 0
 c994: y_8 + y_15 + y_20 + y_34 + y_46 + y_61 + y_75 + y_79 + y_80 + y_93 + y_95
       - z_993 >= 0
 c995: y_15 + y_18 + y_21 + y_36 + y_41 + y_47 + y_95 - z_994 >= 0
 c996: y_3 + y_19 + y_21 + y_33 + y_38 + y_43 + y_44 + y_48 - z_995 >= 0
 c997: y_24 + y_30 + y_43 + y_52 + y_59 + y_70 + y_94 - z_996 >= 0
 c998: y_27 - z_997 >= 0
 c999: y_9 + y_26 + y_67 + y_69 - z_998 >= 0
 c1000: y_5 + y_8 + y_20 + y_34 + y_61 + y_75 + y_80 + y_93 - z_999 >= 0
 c1001: y_3 + y_11 + y_19 + y_26 + y_38 + y_67 + y_68 + y_69 - z_1000 >= 0
 c1002: y_0 + y_27 + y_42 + y_55 + y_64 - z_1001 >= 0
 c1003: y_3 + y_5 + y_15 + y_20 + y_33 + y_34 + y_41 + y_44 + y_48 + y_61 + y_79
        + y_80 + y_93 - z_1002 >= 0
 c1004: y_1 + y_8 + y_46 + y_73 + y_75 + y_80 + y_93 + y_96 - z_1003 >= 0
 c1005: y_10 + y_13 + y_57 + y_60 + y_72 + y_76 + y_78 + y_81 - z_1004 >= 0
 c1006: y_1 + y_8 + y_73 + y_96 - z_1005 >= 0
 c1007: y_5 + y_17 + y_34 + y_91 - z_1006 >= 0
 c1008: y_4 + y_6 + y_32 + y_38 + y_44 + y_90 - z_1007 >= 0
 c1009: y_15 + y_18 + y_20 + y_36 + y_41 + y_46 + y_47 + y_49 + y_74 + y_79
        + y_80 + y_93 + y_95 - z_1008 >= 0
 c1010: y_25 + y_29 + y_35 + y_77 - z_1009 >= 0
 c1011: y_1 + y_31 + y_37 + y_73 + y_89 + y_99 - z_1010 >= 0
 c1012: y_83 + y_85 - z_1011 >= 0
 c1013: y_1 + y_23 + y_46 + y_49 + y_74 + y_75 + y_95 - z_1012 >= 0
 c1014: y_15 + y_18 + y_20 + y_21 + y_33 + y_36 + y_41 + y_47 + y_48 + y_61
        + y_79 + y_93 + y_95 - z_1013 >= 0
 c1015: y_25 + y_29 + y_35 + y_77 - z_1014 >= 0
 c1016: y_5 + y_8 + y_20 + y_34 + y_61 + y_75 + y_80 + y_93 - z_1015 >= 0
 c1017: y_0 + y_39 + y_42 + y_53 + y_55 + y_63 + y_64 - z_1016 >= 0
 c1018: y_10 + y_13 + y_57 + y_60 + y_72 + y_76 + y_78 + y_81 - z_1017 >= 0
 c1019: y_9 + y_11 + y_19 + y_26 + y_38 + y_67 + y_68 + y_69 + y_97 - z_1018
         >= 0
 c1020: y_0 + y_2 + y_14 + y_27 + y_42 + y_82 - z_1019 >= 0
 c1021: y_37 + y_45 + y_89 - z_1020 >= 0
 c1022: y_45 - z_1021 >= 0
 c1023: y_12 + y_22 + y_57 + y_65 + y_72 + y_88 - z_1022 >= 0
 c1024: y_11 + y_24 + y_43 + y_52 + y_59 + y_67 + y_68 + y_69 + y_70 + y_86
        + y_97 - z_1023 >= 0
 c1025: y_4 + y_9 + y_12 + y_32 + y_88 - z_1024 >= 0
 c1026: y_2 + y_83 + y_84 + y_85 - z_1025 >= 0
 c1027: y_3 + y_11 + y_19 + y_26 + y_38 + y_43 + y_67 + y_68 + y_69 - z_1026
         >= 0
 c1028: y_11 + y_24 + y_30 + y_43 + y_52 + y_59 + y_68 + y_70 + y_86 - z_1027
         >= 0
 c1029: y_5 + y_17 + y_34 + y_91 - z_1028 >= 0
 c1030: y_40 + y_83 + y_85 + y_92 - z_1029 >= 0
 c1031: y_16 + y_39 + y_53 + y_54 + y_58 + y_63 + y_66 + y_91 - z_1030 >= 0
 c1032: y_0 + y_27 + y_39 + y_42 + y_55 + y_63 + y_64 - z_1031 >= 0
 c1033: y_1 + y_23 + y_31 + y_46 + y_49 + y_73 + y_98 + y_99 - z_1032 >= 0
 c1034: y_15 + y_18 + y_36 + y_41 + y_46 + y_47 + y_49 + y_74 + y_95 - z_1033
         >= 0
 c1035: y_17 + y_53 + y_58 + y_91 - z_1034 >= 0
 c1036: y_4 + y_6 + y_9 + y_26 + y_32 + y_90 - z_1035 >= 0
 c1037: y_22 + y_57 + y_65 + y_72 - z_1036 >= 0
 c1038: y_71 - z_1037 >= 0
 c1039: y_25 + y_29 + y_35 + y_40 + y_50 + y_66 + y_77 + y_87 + y_92 - z_1038
         >= 0
 c1040: y_3 + y_19 + y_33 + y_38 + y_43 + y_44 + y_48 - z_1039 >= 0
 c1041: y_16 + y_40 + y_54 + y_66 + y_87 + y_92 - z_1040 >= 0
 c1042: y_1 + y_7 + y_23 + y_31 + y_51 + y_73 + y_89 + y_98 + y_99 - z_1041 >= 
        0
 c1043: y_7 + y_31 + y_51 + y_62 + y_98 - z_1042 >= 0
 c1044: y_96 - z_1043 >= 0
 c1045: y_5 + y_17 + y_34 + y_91 - z_1044 >= 0
 c1046: y_25 + y_40 + y_66 + y_87 + y_92 - z_1045 >= 0
 c1047: y_0 + y_27 + y_42 - z_1046 >= 0
 c1048: y_5 + y_20 + y_33 + y_34 + y_44 + y_61 + y_79 + y_80 + y_93 - z_1047
         >= 0
 c1049: - z_1048 >= 0
 c1050: y_8 + y_15 + y_20 + y_46 + y_49 + y_74 + y_75 + y_80 + y_93 + y_95
        - z_1049 >= 0
 c1051: y_15 + y_18 + y_20 + y_36 + y_41 + y_46 + y_47 + y_49 + y_74 + y_79
        + y_80 + y_93 + y_95 - z_1050 >= 0
 c1052: y_3 + y_15 + y_19 + y_20 + y_21 + y_33 + y_38 + y_41 + y_44 + y_48
        + y_61 + y_79 + y_93 - z_1051 >= 0
 c1053: y_12 + y_71 + y_88 - z_1052 >= 0
 c1054: y_3 + y_19 + y_26 + y_33 + y_38 + y_44 + y_67 + y_69 - z_1053 >= 0
 c1055: y_5 + y_17 + y_34 + y_91 - z_1054 >= 0
 c1056: y_25 + y_29 + y_50 + y_56 + y_66 + y_77 + y_87 - z_1055 >= 0
 c1057: y_0 + y_27 + y_39 + y_42 + y_55 + y_63 + y_64 - z_1056 >= 0
 c1058: y_11 + y_67 + y_68 + y_69 + y_97 - z_1057 >= 0
 c1059: y_3 + y_19 + y_21 + y_33 + y_38 + y_41 + y_43 + y_47 + y_48 + y_79
        - z_1058 >= 0
 c1060: y_3 + y_19 + y_21 + y_30 + y_33 + y_38 + y_43 + y_48 + y_59 + y_94
        - z_1059 >= 0
 c1061: y_15 + y_18 + y_21 + y_36 + y_41 + y_47 + y_48 + y_79 + y_94 - z_1060
         >= 0
 c1062: y_14 + y_27 + y_82 - z_1061 >= 0
 c1063: y_4 + y_6 + y_32 + y_90 - z_1062 >= 0
 c1064: y_9 + y_71 + y_97 - z_1063 >= 0
 c1065: y_5 + y_8 + y_20 + y_34 + y_61 + y_80 + y_93 - z_1064 >= 0
 c1066: y_25 + y_29 + y_35 + y_50 + y_77 + y_87 - z_1065 >= 0
 c1067: y_15 + y_18 + y_20 + y_36 + y_41 + y_46 + y_47 + y_74 + y_79 + y_95
        - z_1066 >= 0
 c1068: y_1 + y_37 + y_45 + y_73 + y_96 - z_1067 >= 0
 c1069: y_29 + y_65 - z_1068 >= 0
 c1070: y_3 + y_15 + y_18 + y_21 + y_33 + y_36 + y_41 + y_47 + y_48 + y_79
        + y_94 - z_1069 >= 0
 c1071: y_46 + y_49 + y_74 + y_75 + y_95 - z_1070 >= 0
 c1072: y_12 + y_71 + y_88 - z_1071 >= 0
 c1073: y_13 + y_57 + y_60 + y_65 + y_72 - z_1072 >= 0
 c1074: y_4 + y_9 + y_26 + y_32 + y_71 - z_1073 >= 0
 c1075: y_71 - z_1074 >= 0
 c1076: y_6 + y_58 - z_1075 >= 0
 c1077: y_6 + y_22 + y_90 - z_1076 >= 0
 c1078: y_1 + y_8 + y_73 + y_75 + y_96 + y_99 - z_1077 >= 0
 c1079: y_1 + y_31 + y_37 + y_73 + y_89 + y_99 - z_1078 >= 0
 c1080: y_6 + y_22 + y_90 - z_1079 >= 0
 c1081: y_15 + y_18 + y_21 + y_36 + y_41 + y_47 + y_48 + y_79 - z_1080 >= 0
 c1082: y_15 + y_18 + y_21 + y_36 + y_41 + y_47 + y_95 - z_1081 >= 0
 c1083: y_0 + y_27 + y_42 + y_55 + y_63 + y_64 - z_1082 >= 0
 c1084: y_40 + y_66 + y_87 + y_92 - z_1083 >= 0
 c1085: y_25 + y_29 + y_35 + y_77 - z_1084 >= 0
 c1086: y_10 + y_13 + y_28 + y_60 + y_76 + y_78 + y_81 - z_1085 >= 0
 c1087: y_2 + y_14 + y_82 + y_83 + y_84 + y_85 - z_1086 >= 0
 c1088: y_16 + y_25 + y_29 + y_35 + y_50 + y_54 + y_56 + y_66 + y_77 + y_87
        - z_1087 >= 0
 c1089: y_3 + y_4 + y_19 + y_26 + y_33 + y_38 + y_44 + y_67 + y_69 - z_1088 >= 
        0
 c1090: y_16 + y_39 + y_40 + y_42 + y_54 + y_55 + y_63 + y_64 - z_1089 >= 0
 c1091: y_10 + y_13 + y_57 + y_60 + y_72 + y_76 + y_78 + y_81 - z_1090 >= 0
 c1092: y_17 + y_53 + y_63 + y_91 + y_96 - z_1091 >= 0
 c1093: y_17 + y_39 + y_53 + y_58 + y_63 + y_91 - z_1092 >= 0
 c1094: y_4 + y_6 + y_12 + y_22 + y_32 + y_88 + y_90 - z_1093 >= 0
 c1095: y_4 + y_9 + y_19 + y_26 + y_32 + y_38 + y_44 + y_67 + y_69 - z_1094 >= 
        0
 c1096: y_37 + y_45 + y_73 - z_1095 >= 0
 c1097: y_16 + y_39 + y_53 + y_54 + y_58 + y_63 + y_91 - z_1096 >= 0
 c1098: y_16 + y_39 + y_53 + y_54 + y_58 + y_63 + y_64 + y_91 - z_1097 >= 0
 c1099: y_0 + y_16 + y_39 + y_42 + y_54 + y_55 + y_63 + y_64 - z_1098 >= 0
 c1100: y_16 + y_25 + y_50 + y_54 + y_56 + y_66 + y_77 + y_87 - z_1099 >= 0
 c1101: y_4 + y_6 + y_32 + y_44 + y_90 - z_1100 >= 0
 c1102: y_22 + y_57 + y_65 - z_1101 >= 0
 c1103: y_1 + y_8 + y_46 + y_49 + y_74 + y_75 + y_80 + y_95 - z_1102 >= 0
 c1104: y_15 + y_18 + y_21 + y_36 + y_41 + y_47 + y_79 + y_95 - z_1103 >= 0
 c1105: y_16 + y_25 + y_50 + y_54 + y_56 + y_66 + y_77 + y_87 - z_1104 >= 0
 c1106: y_4 + y_9 + y_19 + y_26 + y_32 + y_38 + y_44 + y_67 + y_69 - z_1105 >= 
        0
 c1107: y_18 + y_21 + y_30 + y_36 + y_41 + y_47 + y_48 + y_94 - z_1106 >= 0
 c1108: y_24 + y_30 + y_43 + y_52 + y_59 + y_70 - z_1107 >= 0
 c1109: y_6 + y_22 + y_90 - z_1108 >= 0
 c1110: y_5 + y_6 + y_33 + y_34 + y_44 + y_90 - z_1109 >= 0
 c1111: y_10 + y_12 + y_57 + y_72 + y_78 + y_88 - z_1110 >= 0
 c1112: y_3 + y_4 + y_19 + y_26 + y_32 + y_33 + y_38 + y_44 + y_90 - z_1111 >= 
        0
 c1113: y_23 + y_46 + y_49 + y_74 + y_98 - z_1112 >= 0
 c1114: y_12 + y_71 - z_1113 >= 0
 c1115: y_4 + y_6 + y_9 + y_26 + y_32 + y_90 - z_1114 >= 0
 c1116: y_8 + y_17 + y_96 - z_1115 >= 0
 c1117: y_24 + y_30 + y_52 + y_59 + y_70 + y_86 - z_1116 >= 0
 c1118: y_1 + y_31 + y_37 + y_73 + y_89 + y_99 - z_1117 >= 0
 c1119: y_0 + y_27 + y_42 + y_55 + y_64 - z_1118 >= 0
 c1120: y_0 + y_16 + y_39 + y_42 + y_53 + y_55 + y_63 + y_64 - z_1119 >= 0
 c1121: y_18 + y_46 + y_49 + y_74 + y_95 - z_1120 >= 0
 c1122: y_24 + y_52 + y_70 + y_86 - z_1121 >= 0
 c1123: y_2 + y_14 + y_82 + y_83 + y_85 - z_1122 >= 0
 c1124: y_0 + y_2 + y_14 + y_27 + y_42 + y_55 + y_82 - z_1123 >= 0
 c1125: y_16 + y_39 + y_53 + y_54 + y_58 + y_63 + y_64 + y_66 - z_1124 >= 0
 c1126: y_31 + y_37 + y_45 + y_73 + y_89 + y_99 - z_1125 >= 0
 c1127: y_16 + y_39 + y_40 + y_54 + y_66 + y_87 + y_92 - z_1126 >= 0
 c1128: y_22 - z_1127 >= 0
 c1129: y_12 + y_22 + y_88 - z_1128 >= 0
 c1130: y_0 + y_27 + y_42 + y_55 + y_63 + y_64 - z_1129 >= 0
 c1131: y_45 - z_1130 >= 0
 c1132: y_13 + y_28 + y_60 + y_76 + y_78 + y_81 - z_1131 >= 0
 c1133: y_15 + y_18 + y_21 + y_36 + y_41 + y_47 + y_48 + y_79 + y_95 - z_1132
         >= 0
 c1134: y_0 + y_2 + y_27 + y_42 + y_55 + y_64 - z_1133 >= 0
 c1135: y_4 + y_6 + y_26 + y_32 + y_44 + y_90 - z_1134 >= 0
 c1136: y_46 + y_49 + y_74 + y_75 + y_95 - z_1135 >= 0
 c1137: y_5 + y_8 + y_20 + y_34 + y_61 + y_75 + y_80 + y_93 - z_1136 >= 0
 c1138: y_0 + y_27 + y_42 + y_64 - z_1137 >= 0
 c1139: y_1 + y_31 + y_37 + y_73 + y_89 + y_99 - z_1138 >= 0
 c1140: y_17 + y_96 - z_1139 >= 0
 c1141: y_9 + y_11 + y_26 + y_67 + y_68 + y_69 + y_97 - z_1140 >= 0
 c1142: y_3 + y_19 + y_26 + y_33 + y_38 + y_44 + y_67 + y_69 - z_1141 >= 0
 c1143: y_37 + y_45 - z_1142 >= 0
 c1144: y_13 + y_28 + y_60 + y_76 + y_78 + y_81 - z_1143 >= 0
 c1145: y_11 + y_24 + y_52 + y_59 + y_68 + y_70 + y_86 + y_97 - z_1144 >= 0
 c1146: y_25 + y_29 + y_35 + y_77 - z_1145 >= 0
 c1147: y_4 + y_6 + y_32 + y_90 - z_1146 >= 0
 c1148: y_11 + y_52 + y_59 + y_67 + y_68 + y_69 + y_97 - z_1147 >= 0
 c1149: y_15 + y_18 + y_21 + y_36 + y_41 + y_47 + y_79 + y_94 - z_1148 >= 0
 c1150: y_11 + y_26 + y_67 + y_68 + y_69 + y_97 - z_1149 >= 0
 c1151: y_5 + y_8 + y_15 + y_20 + y_34 + y_61 + y_75 + y_79 + y_80 + y_93 + y_95
        - z_1150 >= 0
 c1152: y_25 + y_35 + y_40 + y_77 + y_87 + y_92 - z_1151 >= 0
 c1153: y_6 + y_58 + y_90 - z_1152 >= 0
 c1154: y_16 + y_39 + y_50 + y_53 + y_54 + y_58 + y_66 + y_91 - z_1153 >= 0
 c1155: y_12 + y_22 + y_57 + y_65 + y_72 + y_88 - z_1154 >= 0
 c1156: y_0 + y_2 + y_27 + y_42 + y_55 + y_64 - z_1155 >= 0
 c1157: y_2 + y_14 + y_82 + y_83 + y_84 + y_85 - z_1156 >= 0
 c1158: y_7 + y_31 + y_51 + y_62 + y_89 - z_1157 >= 0
 c1159: y_40 + y_85 + y_92 - z_1158 >= 0
 c1160: y_7 + y_31 + y_37 + y_51 + y_62 + y_89 + y_99 - z_1159 >= 0
 c1161: y_0 + y_27 + y_45 - z_1160 >= 0
 c1162: y_0 + y_2 + y_27 + y_42 + y_55 + y_64 - z_1161 >= 0
 c1163: y_7 + y_31 + y_51 + y_62 + y_89 - z_1162 >= 0
 c1164: y_12 + y_71 + y_88 - z_1163 >= 0
 c1165: y_2 + y_14 + y_82 + y_83 + y_85 - z_1164 >= 0
 c1166: y_12 + y_88 - z_1165 >= 0
 c1167: y_1 + y_7 + y_31 + y_37 + y_51 + y_73 + y_89 + y_99 - z_1166 >= 0
 c1168: y_16 + y_39 + y_50 + y_54 + y_56 + y_58 + y_66 + y_91 - z_1167 >= 0
 c1169: - z_1168 >= 0
 c1170: y_17 + y_53 + y_63 + y_91 + y_96 - z_1169 >= 0
 c1171: y_4 + y_5 + y_6 + y_32 + y_90 - z_1170 >= 0
 c1172: y_0 + y_27 + y_42 + y_55 + y_63 + y_64 - z_1171 >= 0
 c1173: y_1 + y_8 + y_15 + y_20 + y_46 + y_49 + y_75 + y_80 + y_93 + y_95
        - z_1172 >= 0
 c1174: y_6 + y_12 + y_22 + y_88 - z_1173 >= 0
 c1175: y_0 + y_2 + y_27 + y_42 + y_55 - z_1174 >= 0
 c1176: y_3 + y_11 + y_19 + y_26 + y_38 + y_43 + y_52 + y_59 + y_67 + y_68
        + y_69 - z_1175 >= 0
 c1177: y_40 + y_92 - z_1176 >= 0
 c1178: y_11 + y_67 + y_68 + y_69 + y_97 - z_1177 >= 0
 c1179: y_2 + y_14 + y_82 + y_83 + y_84 + y_85 - z_1178 >= 0
 c1180: y_11 + y_24 + y_43 + y_52 + y_59 + y_67 + y_68 + y_69 + y_70 + y_86
        - z_1179 >= 0
 c1181: y_22 + y_57 + y_65 + y_72 - z_1180 >= 0
 c1182: y_57 + y_65 + y_72 - z_1181 >= 0
 c1183: y_11 + y_24 + y_52 + y_59 + y_67 + y_68 + y_69 + y_70 + y_86 + y_97
        - z_1182 >= 0
 c1184: y_16 + y_39 + y_53 + y_54 + y_58 + y_63 + y_66 + y_91 - z_1183 >= 0
 c1185: y_2 + y_14 + y_27 + y_42 + y_55 + y_82 + y_83 - z_1184 >= 0
 c1186: y_0 + y_2 + y_14 + y_27 + y_42 + y_55 + y_82 - z_1185 >= 0
 c1187: y_1 + y_8 + y_73 + y_75 + y_96 - z_1186 >= 0
 c1188: y_16 + y_17 + y_39 + y_53 + y_54 + y_58 + y_63 + y_64 + y_91 - z_1187
         >= 0
 c1189: y_15 + y_18 + y_21 + y_36 + y_41 + y_47 + y_79 + y_95 - z_1188 >= 0
 c1190: y_0 + y_27 + y_42 + y_55 + y_63 + y_64 - z_1189 >= 0
 c1191: y_30 + y_43 + y_52 + y_59 + y_94 - z_1190 >= 0
 c1192: y_24 + y_30 + y_43 + y_52 + y_59 + y_70 + y_86 - z_1191 >= 0
 c1193: y_10 + y_13 + y_28 + y_60 + y_76 + y_78 + y_81 - z_1192 >= 0
 c1194: y_35 + y_92 - z_1193 >= 0
 c1195: y_3 + y_11 + y_19 + y_33 + y_38 + y_43 + y_44 + y_48 + y_67 + y_69
        - z_1194 >= 0
 c1196: y_45 - z_1195 >= 0
 c1197: y_10 + y_13 + y_60 + y_72 + y_76 + y_78 + y_81 - z_1196 >= 0
 c1198: y_40 + y_55 + y_83 + y_92 - z_1197 >= 0
 c1199: y_2 + y_14 + y_27 + y_82 - z_1198 >= 0
 c1200: y_15 + y_18 + y_20 + y_36 + y_41 + y_46 + y_47 + y_49 + y_61 + y_74
        + y_79 + y_80 + y_93 + y_95 - z_1199 >= 0
 c1201: y_17 + y_53 + y_58 + y_91 - z_1200 >= 0
 c1202: y_12 + y_57 + y_65 + y_72 + y_78 + y_88 - z_1201 >= 0
 c1203: y_11 + y_24 + y_43 + y_52 + y_59 + y_67 + y_68 + y_69 + y_70 + y_97
        - z_1202 >= 0
 c1204: y_8 + y_17 + y_96 - z_1203 >= 0
 c1205: y_0 + y_42 + y_53 + y_63 + y_64 - z_1204 >= 0
 c1206: y_7 + y_51 + y_62 + y_98 - z_1205 >= 0
 c1207: y_25 + y_29 + y_35 + y_77 - z_1206 >= 0
 c1208: y_0 + y_45 - z_1207 >= 0
 c1209: y_4 + y_9 + y_26 + y_32 + y_67 - z_1208 >= 0
 c1210: y_6 + y_58 + y_91 - z_1209 >= 0
 c1211: y_22 - z_1210 >= 0
 c1212: y_71 - z_1211 >= 0
 c1213: y_8 + y_15 + y_20 + y_34 + y_41 + y_48 + y_61 + y_75 + y_79 + y_80
        + y_93 + y_95 - z_1212 >= 0
 c1214: y_17 + y_53 + y_63 + y_91 + y_96 - z_1213 >= 0
 c1215: y_10 + y_13 + y_57 + y_60 + y_72 + y_76 + y_78 + y_81 - z_1214 >= 0
 c1216: y_5 + y_6 + y_33 + y_34 + y_44 + y_90 - z_1215 >= 0
 c1217: y_17 + y_53 + y_96 - z_1216 >= 0
 c1218: y_1 + y_7 + y_31 + y_37 + y_51 + y_73 + y_89 + y_98 + y_99 - z_1217 >= 
        0
 c1219: y_4 + y_5 + y_6 + y_32 + y_44 + y_90 - z_1218 >= 0
 c1220: y_25 + y_29 + y_50 + y_56 + y_65 + y_77 - z_1219 >= 0
 c1221: y_10 + y_12 + y_88 - z_1220 >= 0
 c1222: y_4 + y_9 + y_12 + y_32 + y_71 + y_88 - z_1221 >= 0
 c1223: y_25 + y_29 + y_35 + y_50 + y_56 + y_77 - z_1222 >= 0
 c1224: y_37 + y_45 - z_1223 >= 0
 c1225: y_0 + y_17 + y_39 + y_53 + y_63 + y_64 + y_91 - z_1224 >= 0
 c1226: y_13 + y_28 + y_60 + y_76 + y_78 + y_81 - z_1225 >= 0
 c1227: y_2 + y_40 + y_83 + y_85 + y_92 - z_1226 >= 0
 c1228: y_16 + y_39 + y_53 + y_54 + y_58 + y_63 + y_66 + y_91 - z_1227 >= 0
 c1229: y_2 + y_14 + y_27 + y_42 + y_55 + y_82 + y_83 - z_1228 >= 0
 c1230: y_7 + y_23 + y_51 + y_62 + y_98 - z_1229 >= 0
 c1231: y_16 + y_50 + y_54 + y_56 + y_66 + y_87 - z_1230 >= 0
 c1232: y_16 + y_25 + y_40 + y_54 + y_66 + y_77 + y_87 + y_92 - z_1231 >= 0
 c1233: y_0 + y_45 + y_96 - z_1232 >= 0
 c1234: y_2 + y_14 + y_27 + y_82 + y_83 - z_1233 >= 0
 c1235: y_12 + y_88 - z_1234 >= 0
 c1236: y_25 + y_29 + y_50 + y_56 + y_77 - z_1235 >= 0
 c1237: y_17 + y_96 - z_1236 >= 0
 c1238: y_16 + y_25 + y_35 + y_40 + y_50 + y_54 + y_66 + y_77 + y_87 + y_92
        - z_1237 >= 0
 c1239: y_17 + y_53 + y_96 - z_1238 >= 0
 c1240: y_0 + y_27 + y_42 + y_53 + y_55 + y_63 + y_64 - z_1239 >= 0
 c1241: y_11 + y_24 + y_52 + y_68 + y_70 + y_86 + y_97 - z_1240 >= 0
 c1242: y_15 + y_20 + y_21 + y_36 + y_41 + y_46 + y_47 + y_48 + y_61 + y_75
        + y_79 + y_80 + y_93 + y_95 - z_1241 >= 0
 c1243: y_2 + y_14 + y_82 + y_83 + y_84 + y_85 - z_1242 >= 0
 c1244: y_11 + y_24 + y_30 + y_43 + y_52 + y_59 + y_67 + y_68 + y_69 + y_70
        - z_1243 >= 0
 c1245: y_29 - z_1244 >= 0
 c1246: y_1 + y_7 + y_23 + y_31 + y_51 + y_89 + y_98 + y_99 - z_1245 >= 0
 c1247: y_4 + y_6 + y_22 + y_32 + y_90 - z_1246 >= 0
 c1248: y_10 + y_13 + y_28 + y_60 + y_76 + y_78 + y_81 - z_1247 >= 0
 c1249: y_7 + y_51 + y_62 - z_1248 >= 0
 c1250: y_29 - z_1249 >= 0
 c1251: y_3 + y_19 + y_21 + y_33 + y_38 + y_41 + y_44 + y_48 + y_61 + y_79
        - z_1250 >= 0
 c1252: y_13 + y_60 + y_72 + y_76 - z_1251 >= 0
 c1253: y_3 + y_19 + y_21 + y_33 + y_38 + y_41 + y_44 + y_48 + y_79 - z_1252
         >= 0
 c1254: - z_1253 >= 0
 c1255: y_29 - z_1254 >= 0
 c1256: y_56 + y_58 - z_1255 >= 0
 c1257: y_7 + y_23 + y_31 + y_51 + y_62 + y_98 + y_99 - z_1256 >= 0
 c1258: y_11 + y_30 + y_43 + y_52 + y_59 + y_67 + y_68 + y_69 + y_70 - z_1257
         >= 0
 c1259: y_10 + y_12 + y_57 + y_88 - z_1258 >= 0
 c1260: y_0 + y_17 + y_53 + y_63 + y_64 - z_1259 >= 0
 c1261: y_4 + y_5 + y_6 + y_32 + y_44 + y_90 - z_1260 >= 0
 c1262: y_3 + y_4 + y_19 + y_33 + y_38 + y_44 + y_90 - z_1261 >= 0
 c1263: y_10 + y_12 + y_88 - z_1262 >= 0
 c1264: y_83 + y_85 + y_92 - z_1263 >= 0
 c1265: y_56 + y_65 - z_1264 >= 0
 c1266: y_9 + y_11 + y_26 + y_38 + y_67 + y_68 + y_69 + y_97 - z_1265 >= 0
 c1267: y_0 + y_27 + y_42 - z_1266 >= 0
 c1268: y_0 + y_2 + y_27 + y_42 + y_55 + y_64 - z_1267 >= 0
 c1269: y_13 + y_28 + y_60 + y_76 + y_78 + y_81 - z_1268 >= 0
 c1270: y_4 + y_6 + y_32 + y_90 - z_1269 >= 0
 c1271: y_11 + y_26 + y_38 + y_52 + y_67 + y_68 + y_69 + y_97 - z_1270 >= 0
 c1272: y_83 + y_84 + y_85 - z_1271 >= 0
 c1273: y_40 + y_92 - z_1272 >= 0
 c1274: y_1 + y_7 + y_31 + y_37 + y_51 + y_62 + y_89 + y_99 - z_1273 >= 0
 c1275: y_3 + y_5 + y_33 + y_34 + y_44 + y_61 + y_90 - z_1274 >= 0
 c1276: y_3 + y_19 + y_33 + y_38 + y_43 + y_44 + y_48 + y_69 - z_1275 >= 0
 c1277: y_4 + y_9 + y_26 + y_32 + y_38 + y_44 + y_90 - z_1276 >= 0
 c1278: y_16 + y_50 + y_56 + y_66 - z_1277 >= 0
 c1279: y_2 + y_14 + y_27 + y_82 - z_1278 >= 0
 c1280: y_22 + y_56 + y_65 - z_1279 >= 0
 c1281: y_5 + y_6 + y_58 + y_90 + y_91 - z_1280 >= 0
 c1282: y_71 - z_1281 >= 0
 c1283: y_1 + y_7 + y_23 + y_31 + y_37 + y_51 + y_73 + y_89 + y_98 + y_99
        - z_1282 >= 0
 c1284: y_92 - z_1283 >= 0
 c1285: y_7 + y_23 + y_51 + y_62 + y_98 - z_1284 >= 0
 c1286: y_25 + y_29 + y_35 + y_77 + y_87 - z_1285 >= 0
 c1287: y_0 + y_39 + y_42 + y_53 + y_55 + y_63 + y_64 - z_1286 >= 0
 c1288: y_9 + y_12 + y_71 + y_88 - z_1287 >= 0
 c1289: y_25 + y_29 + y_35 + y_77 - z_1288 >= 0
 c1290: y_3 + y_19 + y_21 + y_30 + y_33 + y_38 + y_43 + y_48 + y_59 + y_94
        - z_1289 >= 0
 c1291: y_17 + y_96 - z_1290 >= 0
 c1292: y_23 + y_46 + y_49 + y_74 + y_95 - z_1291 >= 0
 c1293: y_13 + y_57 + y_60 + y_65 + y_72 + y_76 + y_78 + y_81 - z_1292 >= 0
 c1294: y_13 + y_57 + y_60 + y_65 + y_72 + y_76 - z_1293 >= 0
 c1295: y_5 + y_6 + y_34 + y_44 + y_90 - z_1294 >= 0
 c1296: y_15 + y_18 + y_20 + y_21 + y_36 + y_41 + y_47 + y_48 + y_61 + y_79
        + y_95 - z_1295 >= 0
 c1297: y_9 + y_12 + y_71 + y_88 - z_1296 >= 0
 c1298: y_30 + y_43 + y_59 + y_94 - z_1297 >= 0
 c1299: y_21 + y_30 + y_36 + y_43 + y_59 + y_94 - z_1298 >= 0
 c1300: y_2 + y_14 + y_82 - z_1299 >= 0
 c1301: y_45 - z_1300 >= 0
 c1302: y_3 + y_19 + y_26 + y_33 + y_38 + y_44 + y_69 - z_1301 >= 0
 c1303: y_0 + y_27 + y_42 - z_1302 >= 0
 c1304: y_12 + y_22 + y_57 + y_88 - z_1303 >= 0
 c1305: y_6 + y_58 + y_90 + y_91 - z_1304 >= 0
 c1306: y_13 + y_57 + y_65 + y_72 - z_1305 >= 0
 c1307: y_24 + y_52 + y_59 + y_70 + y_86 - z_1306 >= 0
 c1308: y_10 + y_13 + y_57 + y_60 + y_72 + y_76 + y_78 + y_81 - z_1307 >= 0
 c1309: y_10 + y_12 + y_57 + y_72 + y_78 + y_88 - z_1308 >= 0
 c1310: y_4 + y_6 + y_32 + y_90 - z_1309 >= 0
 c1311: y_7 + y_31 + y_37 + y_51 + y_62 + y_89 + y_98 + y_99 - z_1310 >= 0
 c1312: y_29 - z_1311 >= 0
 c1313: y_3 + y_4 + y_19 + y_26 + y_32 + y_33 + y_38 + y_44 + y_90 - z_1312 >= 
        0
 c1314: y_9 + y_71 + y_97 - z_1313 >= 0
 c1315: y_25 + y_35 + y_77 + y_92 - z_1314 >= 0
 c1316: y_45 + y_96 - z_1315 >= 0
 c1317: y_25 + y_29 + y_35 + y_50 + y_56 + y_66 + y_77 + y_87 - z_1316 >= 0
 c1318: y_4 + y_6 + y_12 + y_22 + y_32 + y_88 - z_1317 >= 0
 c1319: y_16 + y_39 + y_53 + y_58 + y_91 - z_1318 >= 0
 c1320: y_83 + y_85 - z_1319 >= 0
 c1321: y_2 + y_83 + y_84 + y_85 - z_1320 >= 0
 c1322: y_11 + y_24 + y_30 + y_43 + y_52 + y_59 + y_68 + y_70 - z_1321 >= 0
 c1323: y_10 + y_78 + y_81 - z_1322 >= 0
 c1324: y_13 + y_28 + y_60 + y_76 + y_78 + y_81 - z_1323 >= 0
 c1325: y_17 + y_53 + y_58 + y_91 - z_1324 >= 0
 c1326: y_17 + y_53 + y_58 + y_91 - z_1325 >= 0
 c1327: y_21 + y_30 + y_36 + y_41 + y_43 + y_47 + y_94 - z_1326 >= 0
 c1328: y_5 + y_8 + y_20 + y_34 + y_61 + y_75 + y_80 + y_93 - z_1327 >= 0
 c1329: y_17 + y_34 + y_53 + y_91 - z_1328 >= 0
 c1330: y_22 + y_57 + y_65 + y_72 - z_1329 >= 0
 c1331: y_25 + y_29 + y_35 + y_40 + y_77 + y_87 + y_92 - z_1330 >= 0
 c1332: y_40 + y_83 + y_85 + y_92 - z_1331 >= 0
 c1333: y_13 - z_1332 >= 0
 c1334: y_8 + y_15 + y_20 + y_34 + y_46 + y_61 + y_75 + y_79 + y_80 + y_93
        + y_95 - z_1333 >= 0
 c1335: y_58 - z_1334 >= 0
 c1336: y_0 + y_27 + y_39 + y_42 + y_55 + y_63 + y_64 - z_1335 >= 0
 c1337: y_15 + y_18 + y_21 + y_36 + y_41 + y_47 + y_79 + y_95 - z_1336 >= 0
 c1338: y_4 + y_6 + y_9 + y_12 + y_32 + y_88 + y_90 - z_1337 >= 0
 c1339: y_12 + y_22 + y_57 + y_72 + y_88 - z_1338 >= 0
 c1340: y_8 + y_15 + y_20 + y_46 + y_49 + y_61 + y_75 + y_79 + y_80 + y_93
        + y_95 - z_1339 >= 0
 c1341: y_2 + y_14 + y_82 + y_83 + y_85 - z_1340 >= 0
 c1342: y_22 + y_56 + y_65 - z_1341 >= 0
 c1343: y_11 + y_24 + y_30 + y_43 + y_52 + y_59 + y_68 + y_70 + y_86 - z_1342
         >= 0
 c1344: y_1 + y_31 + y_37 + y_73 + y_89 + y_99 - z_1343 >= 0
 c1345: y_25 + y_29 + y_50 + y_56 + y_66 + y_77 + y_87 - z_1344 >= 0
 c1346: y_83 + y_84 + y_85 - z_1345 >= 0
 c1347: y_3 + y_19 + y_26 + y_33 + y_38 + y_44 + y_67 + y_69 - z_1346 >= 0
 c1348: y_9 + y_12 + y_32 + y_71 + y_88 - z_1347 >= 0
 c1349: y_1 + y_8 + y_73 + y_75 + y_96 - z_1348 >= 0
 c1350: y_57 + y_65 + y_72 - z_1349 >= 0
 c1351: y_13 + y_28 + y_60 + y_76 + y_81 - z_1350 >= 0
 c1352: y_5 + y_17 + y_34 + y_91 - z_1351 >= 0
 c1353: y_31 + y_37 + y_89 + y_99 - z_1352 >= 0
 c1354: y_10 + y_13 + y_60 + y_72 + y_76 + y_78 + y_81 - z_1353 >= 0
 c1355: y_9 + y_26 + y_67 + y_68 + y_69 + y_97 - z_1354 >= 0
 c1356: y_7 + y_51 + y_62 - z_1355 >= 0
 c1357: y_0 + y_27 + y_42 + y_55 + y_64 - z_1356 >= 0
 c1358: y_30 + y_43 + y_52 + y_59 + y_94 - z_1357 >= 0
 c1359: y_13 + y_60 + y_65 + y_72 + y_76 - z_1358 >= 0
 c1360: y_1 + y_8 + y_73 + y_75 + y_96 - z_1359 >= 0
 c1361: y_3 + y_19 + y_26 + y_33 + y_38 + y_44 + y_69 - z_1360 >= 0
 c1362: y_17 + y_96 - z_1361 >= 0
 c1363: y_15 + y_18 + y_20 + y_21 + y_33 + y_36 + y_41 + y_47 + y_48 + y_61
        + y_79 + y_95 - z_1362 >= 0
 c1364: y_10 + y_13 + y_60 + y_72 + y_76 + y_78 + y_81 - z_1363 >= 0
 c1365: y_16 + y_39 + y_50 + y_53 + y_54 + y_58 + y_63 + y_66 + y_87 + y_91
        - z_1364 >= 0
 c1366: y_3 + y_5 + y_33 + y_34 + y_38 + y_44 + y_90 - z_1365 >= 0
 c1367: y_3 + y_19 + y_21 + y_30 + y_33 + y_36 + y_41 + y_43 + y_47 + y_48
        + y_79 + y_94 - z_1366 >= 0
 c1368: y_12 + y_22 + y_57 + y_65 + y_72 + y_88 - z_1367 >= 0
 c1369: y_16 + y_39 + y_40 + y_54 + y_63 + y_64 + y_66 + y_87 - z_1368 >= 0
 c1370: y_5 + y_8 + y_15 + y_20 + y_33 + y_34 + y_48 + y_61 + y_75 + y_79 + y_80
        + y_93 - z_1369 >= 0
 c1371: y_0 + y_45 - z_1370 >= 0
 c1372: y_1 + y_8 + y_46 + y_73 + y_75 - z_1371 >= 0
 c1373: y_23 + y_49 + y_98 - z_1372 >= 0
 c1374: y_85 + y_92 - z_1373 >= 0
 c1375: y_12 + y_71 + y_88 - z_1374 >= 0
 c1376: y_0 + y_16 + y_39 + y_42 + y_53 + y_54 + y_55 + y_63 + y_64 - z_1375
         >= 0
 c1377: y_12 + y_71 + y_88 - z_1376 >= 0
 c1378: y_37 + y_45 - z_1377 >= 0
 c1379: - z_1378 >= 0
 c1380: y_1 + y_23 + y_31 + y_49 + y_89 + y_98 + y_99 - z_1379 >= 0
 c1381: y_56 + y_65 - z_1380 >= 0
 c1382: y_5 + y_8 + y_20 + y_34 + y_61 + y_75 + y_80 + y_93 - z_1381 >= 0
 c1383: y_11 + y_52 + y_67 + y_68 + y_69 + y_97 - z_1382 >= 0
 c1384: y_37 + y_89 - z_1383 >= 0
 c1385: y_9 + y_12 + y_71 + y_88 - z_1384 >= 0
 c1386: y_25 + y_29 + y_35 + y_77 - z_1385 >= 0
 c1387: y_2 + y_14 + y_82 + y_83 - z_1386 >= 0
 c1388: y_1 + y_23 + y_31 + y_73 + y_89 + y_99 - z_1387 >= 0
 c1389: y_4 + y_9 + y_12 + y_32 + y_71 + y_88 - z_1388 >= 0
 c1390: y_0 + y_2 + y_27 + y_42 + y_55 + y_64 - z_1389 >= 0
 c1391: y_45 - z_1390 >= 0
 c1392: y_25 + y_40 + y_54 + y_66 + y_77 + y_87 + y_92 - z_1391 >= 0
 c1393: y_45 - z_1392 >= 0
 c1394: y_0 + y_16 + y_39 + y_42 + y_54 + y_55 + y_63 + y_64 - z_1393 >= 0
 c1395: y_5 + y_17 + y_53 + y_58 + y_91 - z_1394 >= 0
 c1396: y_11 + y_30 + y_43 + y_52 + y_59 + y_68 + y_94 - z_1395 >= 0
 c1397: y_1 + y_8 + y_46 + y_73 + y_75 - z_1396 >= 0
 c1398: y_8 + y_15 + y_20 + y_46 + y_61 + y_75 + y_79 + y_80 + y_93 + y_95
        - z_1397 >= 0
 c1399: y_5 + y_17 + y_34 + y_91 - z_1398 >= 0
 c1400: y_5 + y_8 + y_17 + y_34 - z_1399 >= 0
 c1401: y_13 + y_28 + y_60 + y_76 - z_1400 >= 0
 c1402: y_25 + y_35 + y_77 + y_92 - z_1401 >= 0
 c1403: y_12 + y_22 + y_57 + y_88 - z_1402 >= 0
 c1404: y_0 + y_27 + y_42 + y_55 + y_64 - z_1403 >= 0
 c1405: y_37 + y_45 - z_1404 >= 0
 c1406: y_46 + y_49 + y_74 + y_95 - z_1405 >= 0
 c1407: y_12 + y_22 + y_57 + y_65 + y_72 + y_88 - z_1406 >= 0
 c1408: y_10 + y_13 + y_60 + y_72 + y_76 + y_78 + y_81 - z_1407 >= 0
 c1409: y_1 + y_23 + y_31 + y_37 + y_73 + y_89 + y_98 + y_99 - z_1408 >= 0
 c1410: y_58 + y_91 - z_1409 >= 0
 c1411: y_3 + y_19 + y_26 + y_33 + y_38 + y_44 + y_48 - z_1410 >= 0
 c1412: y_29 - z_1411 >= 0
 c1413: y_15 + y_18 + y_21 + y_36 + y_41 + y_47 + y_48 + y_79 + y_95 - z_1412
         >= 0
 c1414: y_83 + y_84 + y_85 - z_1413 >= 0
 c1415: y_58 + y_91 - z_1414 >= 0
 c1416: y_17 + y_53 + y_91 - z_1415 >= 0
 c1417: y_50 + y_56 + y_65 - z_1416 >= 0
 c1418: y_5 + y_8 + y_17 + y_20 + y_34 + y_75 + y_80 + y_93 - z_1417 >= 0
 c1419: y_16 + y_17 + y_39 + y_53 + y_54 + y_58 + y_63 + y_64 + y_91 - z_1418
         >= 0
 c1420: y_9 + y_71 - z_1419 >= 0
 c1421: y_9 + y_26 + y_67 + y_68 + y_69 + y_97 - z_1420 >= 0
 c1422: y_16 + y_50 + y_54 + y_56 + y_66 + y_87 - z_1421 >= 0
 c1423: y_45 - z_1422 >= 0
 c1424: y_3 + y_15 + y_19 + y_20 + y_21 + y_33 + y_36 + y_41 + y_47 + y_48
        + y_61 + y_79 + y_93 - z_1423 >= 0
 c1425: y_3 + y_19 + y_21 + y_30 + y_36 + y_41 + y_43 + y_47 + y_48 + y_94
        - z_1424 >= 0
 c1426: y_3 + y_4 + y_19 + y_26 + y_32 + y_33 + y_38 + y_44 + y_69 + y_90
        - z_1425 >= 0
 c1427: y_5 + y_8 + y_17 + y_34 + y_80 - z_1426 >= 0
 c1428: y_40 + y_92 - z_1427 >= 0
 c1429: y_5 + y_17 + y_34 + y_91 - z_1428 >= 0
 c1430: y_13 + y_28 + y_60 + y_76 - z_1429 >= 0
 c1431: y_31 + y_37 + y_89 - z_1430 >= 0
 c1432: y_16 + y_39 + y_53 + y_58 + y_63 + y_91 - z_1431 >= 0
 c1433: y_2 + y_14 + y_82 + y_83 + y_84 + y_85 - z_1432 >= 0
 c1434: y_9 + y_26 + y_67 + y_69 + y_71 + y_97 - z_1433 >= 0
 c1435: y_25 + y_29 + y_35 + y_50 + y_77 + y_87 - z_1434 >= 0
 c1436: y_4 + y_6 + y_9 + y_26 + y_32 + y_44 + y_90 - z_1435 >= 0
 c1437: y_1 + y_73 + y_75 + y_96 + y_99 - z_1436 >= 0
 c1438: y_1 + y_31 + y_37 + y_73 + y_89 + y_99 - z_1437 >= 0
 c1439: y_22 + y_57 + y_65 + y_72 - z_1438 >= 0
 c1440: y_5 + y_8 + y_17 + y_20 + y_34 + y_75 + y_80 + y_93 - z_1439 >= 0
 c1441: y_11 + y_24 + y_43 + y_52 + y_59 + y_67 + y_68 + y_69 + y_70 - z_1440
         >= 0
 c1442: y_3 + y_19 + y_33 + y_38 + y_44 + y_48 - z_1441 >= 0
 c1443: y_25 + y_29 + y_35 + y_77 - z_1442 >= 0
 c1444: y_83 + y_85 - z_1443 >= 0
 c1445: y_15 + y_18 + y_46 + y_49 + y_74 + y_95 - z_1444 >= 0
 c1446: y_9 + y_71 - z_1445 >= 0
 c1447: y_17 + y_96 - z_1446 >= 0
 c1448: y_97 - z_1447 >= 0
 c1449: y_40 + y_92 - z_1448 >= 0
 c1450: y_22 + y_56 + y_65 - z_1449 >= 0
 c1451: y_4 + y_9 + y_26 + y_32 + y_71 - z_1450 >= 0
 c1452: y_1 + y_7 + y_23 + y_31 + y_51 + y_89 + y_98 + y_99 - z_1451 >= 0
 c1453: y_3 + y_4 + y_19 + y_32 + y_33 + y_38 + y_44 + y_90 - z_1452 >= 0
 c1454: y_8 + y_17 + y_75 + y_96 - z_1453 >= 0
 c1455: y_2 + y_14 + y_27 + y_42 + y_55 + y_82 + y_83 - z_1454 >= 0
 c1456: - z_1455 >= 0
 c1457: y_9 + y_26 + y_71 - z_1456 >= 0
 c1458: y_96 - z_1457 >= 0
 c1459: y_5 + y_8 + y_17 + y_34 + y_75 + y_80 + y_96 - z_1458 >= 0
 c1460: y_16 + y_40 + y_50 + y_54 + y_66 + y_87 - z_1459 >= 0
 c1461: y_5 + y_8 + y_17 + y_34 + y_80 - z_1460 >= 0
 c1462: y_2 + y_40 + y_42 + y_55 + y_83 - z_1461 >= 0
 c1463: y_11 + y_19 + y_38 + y_43 + y_52 + y_59 + y_67 + y_68 + y_69 - z_1462
         >= 0
 c1464: y_7 + y_23 + y_31 + y_51 + y_62 + y_89 + y_98 + y_99 - z_1463 >= 0
 c1465: y_2 + y_14 + y_27 + y_42 + y_55 + y_83 - z_1464 >= 0
 c1466: y_13 + y_28 + y_60 + y_76 - z_1465 >= 0
 c1467: y_7 + y_23 + y_31 + y_51 + y_98 - z_1466 >= 0
 c1468: y_2 + y_14 + y_82 + y_83 + y_84 + y_85 - z_1467 >= 0
 c1469: y_8 + y_17 + y_91 + y_96 - z_1468 >= 0
 c1470: y_96 - z_1469 >= 0
 c1471: y_2 + y_83 + y_85 - z_1470 >= 0
 c1472: y_15 + y_18 + y_46 + y_49 + y_74 + y_95 - z_1471 >= 0
 c1473: y_16 + y_39 + y_53 + y_54 + y_55 + y_58 + y_63 + y_64 + y_91 - z_1472
         >= 0
 c1474: y_16 + y_50 + y_54 + y_56 + y_58 + y_66 + y_87 - z_1473 >= 0
 c1475: y_10 + y_13 + y_28 + y_60 + y_76 + y_78 + y_81 - z_1474 >= 0
 c1476: y_5 + y_34 - z_1475 >= 0
 c1477: y_16 + y_39 + y_42 + y_54 + y_55 + y_63 + y_64 - z_1476 >= 0
 c1478: y_1 + y_7 + y_23 + y_31 + y_49 + y_51 + y_89 + y_98 + y_99 - z_1477 >= 
        0
 c1479: y_9 + y_11 + y_26 + y_67 + y_68 + y_69 + y_97 - z_1478 >= 0
 c1480: y_23 + y_98 - z_1479 >= 0
 c1481: y_7 + y_31 + y_51 + y_62 + y_89 + y_98 - z_1480 >= 0
 c1482: y_7 + y_31 + y_37 + y_51 + y_89 + y_99 - z_1481 >= 0
 c1483: y_7 + y_23 + y_31 + y_51 + y_62 + y_89 + y_98 + y_99 - z_1482 >= 0
 c1484: y_45 - z_1483 >= 0
 c1485: y_5 + y_15 + y_20 + y_33 + y_34 + y_41 + y_48 + y_61 + y_79 + y_80
        + y_93 - z_1484 >= 0
 c1486: y_10 + y_12 + y_57 + y_72 + y_78 + y_88 - z_1485 >= 0
 c1487: y_37 + y_45 + y_73 + y_96 - z_1486 >= 0
 c1488: y_4 + y_6 + y_9 + y_32 + y_90 - z_1487 >= 0
 c1489: y_11 + y_67 + y_68 + y_69 + y_97 - z_1488 >= 0
 c1490: y_83 + y_85 + y_92 - z_1489 >= 0
 c1491: y_0 + y_2 + y_27 + y_42 + y_55 + y_64 - z_1490 >= 0
 c1492: y_8 + y_17 + y_96 - z_1491 >= 0
 c1493: y_17 + y_39 + y_53 + y_58 + y_63 + y_91 - z_1492 >= 0
 c1494: y_5 + y_15 + y_20 + y_33 + y_34 + y_48 + y_61 + y_79 + y_80 + y_93
        - z_1493 >= 0
 c1495: y_12 + y_22 + y_57 + y_65 + y_72 + y_88 - z_1494 >= 0
 c1496: y_40 + y_87 + y_92 - z_1495 >= 0
 c1497: y_3 + y_19 + y_26 + y_33 + y_38 + y_44 + y_67 + y_69 - z_1496 >= 0
 c1498: y_2 + y_14 + y_82 + y_83 + y_84 + y_85 - z_1497 >= 0
 c1499: y_15 + y_18 + y_20 + y_46 + y_49 + y_74 + y_75 + y_80 + y_95 - z_1498
         >= 0
 c1500: y_40 + y_92 - z_1499 >= 0
 c1501: y_1 + y_8 + y_15 + y_20 + y_46 + y_49 + y_75 + y_80 + y_93 + y_95
        - z_1500 >= 0
 c1502: y_4 + y_6 + y_90 - z_1501 >= 0
 c1503: y_5 + y_20 + y_34 + y_44 + y_61 + y_93 - z_1502 >= 0
 c1504: y_71 - z_1503 >= 0
 c1505: y_3 + y_15 + y_19 + y_20 + y_21 + y_33 + y_36 + y_41 + y_47 + y_48
        + y_61 + y_79 - z_1504 >= 0
 c1506: y_16 + y_39 + y_40 + y_50 + y_54 + y_66 + y_87 - z_1505 >= 0
 c1507: y_10 + y_13 + y_57 + y_60 + y_72 + y_76 + y_78 + y_81 - z_1506 >= 0
 c1508: y_1 + y_31 + y_37 + y_73 + y_89 + y_99 - z_1507 >= 0
 c1509: y_0 + y_16 + y_39 + y_42 + y_53 + y_54 + y_55 + y_63 + y_64 - z_1508
         >= 0
 c1510: y_15 + y_18 + y_20 + y_21 + y_36 + y_41 + y_47 + y_79 + y_95 - z_1509
         >= 0
 c1511: y_16 + y_39 + y_40 + y_54 + y_66 + y_87 + y_92 - z_1510 >= 0
 c1512: y_11 + y_24 + y_52 + y_59 + y_68 + y_70 + y_86 - z_1511 >= 0
 c1513: y_7 + y_23 + y_51 + y_62 + y_98 - z_1512 >= 0
 c1514: y_9 + y_71 - z_1513 >= 0
 c1515: y_1 + y_31 + y_37 + y_73 + y_89 + y_99 - z_1514 >= 0
 c1516: y_17 + y_53 + y_58 + y_91 - z_1515 >= 0
 c1517: y_25 + y_29 + y_35 + y_77 + y_92 - z_1516 >= 0
 c1518: y_13 + y_28 + y_60 + y_76 + y_81 - z_1517 >= 0
 c1519: y_25 + y_35 + y_40 + y_92 - z_1518 >= 0
 c1520: y_25 + y_29 + y_35 + y_77 + y_87 + y_92 - z_1519 >= 0
 c1521: y_2 + y_83 + y_85 - z_1520 >= 0
 c1522: y_21 + y_30 + y_36 + y_47 + y_94 - z_1521 >= 0
 c1523: y_25 + y_29 + y_50 + y_56 + y_65 + y_77 - z_1522 >= 0
 c1524: y_40 + y_83 + y_85 + y_92 - z_1523 >= 0
 c1525: y_16 + y_50 + y_54 + y_56 + y_66 + y_87 - z_1524 >= 0
 c1526: y_10 + y_13 + y_28 + y_60 + y_76 + y_78 + y_81 - z_1525 >= 0
 c1527: y_25 + y_29 + y_35 + y_50 + y_56 + y_77 + y_87 - z_1526 >= 0
 c1528: y_12 + y_71 - z_1527 >= 0
 c1529: y_13 + y_28 + y_60 + y_76 + y_78 + y_81 - z_1528 >= 0
 c1530: y_7 + y_51 + y_62 + y_98 - z_1529 >= 0
 c1531: y_45 + y_96 - z_1530 >= 0
 c1532: y_17 + y_53 + y_58 + y_91 - z_1531 >= 0
 c1533: y_5 + y_17 + y_34 + y_53 + y_58 + y_91 - z_1532 >= 0
 c1534: y_16 + y_25 + y_50 + y_54 + y_56 + y_66 + y_87 - z_1533 >= 0
 c1535: y_25 + y_29 + y_35 + y_40 + y_77 + y_87 + y_92 - z_1534 >= 0
 c1536: y_4 + y_6 + y_12 + y_22 + y_32 + y_88 + y_90 - z_1535 >= 0
 c1537: y_4 + y_9 + y_26 + y_32 + y_38 + y_44 + y_90 - z_1536 >= 0
 c1538: y_5 + y_20 + y_33 + y_34 + y_44 + y_61 + y_93 - z_1537 >= 0
 c1539: y_2 + y_40 + y_42 + y_55 + y_83 - z_1538 >= 0
 c1540: y_0 + y_2 + y_27 + y_42 + y_55 + y_64 - z_1539 >= 0
 c1541: y_15 + y_18 + y_20 + y_21 + y_33 + y_36 + y_41 + y_47 + y_48 + y_61
        + y_79 + y_80 + y_93 + y_95 - z_1540 >= 0
 c1542: y_18 + y_21 + y_36 + y_41 + y_47 + y_94 - z_1541 >= 0
 c1543: y_0 + y_27 - z_1542 >= 0
 c1544: y_25 + y_29 + y_35 + y_77 - z_1543 >= 0
 c1545: y_16 + y_39 + y_53 + y_54 + y_58 + y_66 + y_91 - z_1544 >= 0
 c1546: y_12 + y_71 + y_88 - z_1545 >= 0
 c1547: y_45 - z_1546 >= 0
 c1548: y_0 + y_27 - z_1547 >= 0
 c1549: y_12 + y_57 + y_88 - z_1548 >= 0
 c1550: y_1 + y_8 + y_73 + y_75 + y_96 - z_1549 >= 0
 c1551: y_25 + y_29 + y_35 + y_77 - z_1550 >= 0
 c1552: y_9 + y_11 + y_26 + y_67 + y_68 + y_69 + y_97 - z_1551 >= 0
 c1553: y_17 + y_34 + y_91 + y_96 - z_1552 >= 0
 c1554: y_6 + y_22 - z_1553 >= 0
 c1555: y_2 + y_40 + y_55 + y_83 + y_92 - z_1554 >= 0
 c1556: y_16 + y_39 + y_40 + y_54 + y_55 + y_63 + y_64 + y_66 + y_87 - z_1555
         >= 0
 c1557: y_10 + y_13 + y_28 + y_60 + y_76 + y_78 + y_81 - z_1556 >= 0
 c1558: y_30 + y_43 + y_59 + y_94 - z_1557 >= 0
 c1559: y_5 + y_8 + y_20 + y_34 + y_61 + y_75 + y_80 + y_93 - z_1558 >= 0
 c1560: y_13 + y_28 + y_60 + y_76 + y_78 + y_81 - z_1559 >= 0
 c1561: y_13 + y_28 + y_60 + y_76 + y_81 - z_1560 >= 0
 c1562: y_15 + y_18 + y_21 + y_36 + y_41 + y_47 + y_79 + y_95 - z_1561 >= 0
 c1563: y_16 + y_39 + y_53 + y_54 + y_58 + y_63 + y_66 + y_91 - z_1562 >= 0
 c1564: y_3 + y_5 + y_20 + y_33 + y_34 + y_44 + y_48 + y_61 + y_79 + y_93
        - z_1563 >= 0
 c1565: y_40 + y_87 + y_92 - z_1564 >= 0
 c1566: y_29 + y_50 + y_56 + y_65 - z_1565 >= 0
 c1567: y_9 + y_12 + y_32 + y_71 + y_88 - z_1566 >= 0
 c1568: y_1 + y_31 + y_37 + y_73 + y_89 + y_99 - z_1567 >= 0
 c1569: y_10 + y_13 + y_57 + y_60 + y_72 + y_76 + y_78 + y_81 - z_1568 >= 0
 c1570: y_11 + y_24 + y_30 + y_43 + y_52 + y_59 + y_67 + y_68 + y_69 + y_70
        - z_1569 >= 0
 c1571: y_3 + y_15 + y_18 + y_20 + y_21 + y_33 + y_36 + y_41 + y_47 + y_48
        + y_61 + y_79 - z_1570 >= 0
 c1572: y_12 + y_71 + y_88 - z_1571 >= 0
 c1573: y_0 + y_27 - z_1572 >= 0
 c1574: y_5 + y_6 + y_90 - z_1573 >= 0
 c1575: y_12 + y_71 + y_88 - z_1574 >= 0
 c1576: y_25 + y_35 + y_40 + y_77 + y_87 + y_92 - z_1575 >= 0
 c1577: y_25 + y_29 + y_35 + y_50 + y_56 + y_77 + y_87 - z_1576 >= 0
 c1578: y_13 + y_28 + y_60 + y_76 + y_78 + y_81 - z_1577 >= 0
 c1579: y_6 + y_58 + y_90 + y_91 - z_1578 >= 0
 c1580: y_40 + y_83 + y_92 - z_1579 >= 0
 c1581: y_25 + y_35 + y_40 + y_66 + y_77 + y_87 + y_92 - z_1580 >= 0
 c1582: y_3 + y_19 + y_33 + y_38 + y_44 + y_48 - z_1581 >= 0
 c1583: y_16 + y_40 + y_54 + y_66 + y_87 + y_92 - z_1582 >= 0
 c1584: y_5 + y_8 + y_15 + y_20 + y_34 + y_61 + y_75 + y_79 + y_80 + y_93
        - z_1583 >= 0
 c1585: y_3 + y_5 + y_33 + y_34 + y_38 + y_44 + y_48 + y_61 + y_93 - z_1584 >= 
        0
 c1586: y_8 + y_15 + y_20 + y_46 + y_49 + y_61 + y_75 + y_79 + y_80 + y_93
        + y_95 - z_1585 >= 0
 c1587: y_5 + y_8 + y_15 + y_20 + y_34 + y_61 + y_75 + y_79 + y_80 + y_93
        - z_1586 >= 0
 c1588: y_4 + y_6 + y_32 + y_90 - z_1587 >= 0
 c1589: y_9 + y_11 + y_26 + y_67 + y_68 + y_69 + y_97 - z_1588 >= 0
 c1590: y_10 + y_13 + y_60 + y_72 + y_76 + y_78 + y_81 - z_1589 >= 0
 c1591: y_9 + y_11 + y_26 + y_38 + y_67 + y_68 + y_69 + y_97 - z_1590 >= 0
 c1592: y_3 + y_4 + y_19 + y_26 + y_32 + y_33 + y_38 + y_44 + y_90 - z_1591 >= 
        0
 c1593: y_0 + y_27 + y_42 + y_55 + y_63 + y_64 - z_1592 >= 0
 c1594: y_16 + y_39 + y_40 + y_42 + y_54 + y_55 + y_63 + y_64 + y_66 - z_1593
         >= 0
 c1595: y_0 + y_64 - z_1594 >= 0
 c1596: y_6 + y_58 + y_91 - z_1595 >= 0
 c1597: y_8 + y_15 + y_20 + y_46 + y_61 + y_75 + y_80 + y_93 + y_95 - z_1596
         >= 0
 c1598: y_12 + y_22 + y_57 + y_65 + y_72 + y_78 + y_88 - z_1597 >= 0
 c1599: y_31 + y_37 + y_45 + y_73 + y_89 + y_99 - z_1598 >= 0
 c1600: y_14 + y_27 + y_82 - z_1599 >= 0
 c1601: y_4 + y_5 + y_6 + y_34 + y_44 + y_90 - z_1600 >= 0
 c1602: y_24 + y_30 + y_43 + y_52 + y_59 + y_70 + y_94 - z_1601 >= 0
 c1603: y_4 + y_6 + y_22 + y_32 + y_90 - z_1602 >= 0
 c1604: y_6 + y_58 + y_91 - z_1603 >= 0
 c1605: y_4 + y_9 + y_12 + y_26 + y_32 + y_71 + y_88 - z_1604 >= 0
 c1606: y_16 + y_39 + y_53 + y_54 + y_55 + y_58 + y_63 + y_64 + y_66 - z_1605
         >= 0
 c1607: y_30 + y_43 + y_52 + y_59 + y_94 - z_1606 >= 0
 c1608: y_83 + y_84 + y_85 - z_1607 >= 0
 c1609: y_3 + y_19 + y_26 + y_33 + y_38 + y_44 + y_48 - z_1608 >= 0
 c1610: y_65 - z_1609 >= 0
 c1611: y_11 + y_19 + y_26 + y_38 + y_52 + y_67 + y_68 + y_69 - z_1610 >= 0
 c1612: y_8 + y_15 + y_20 + y_46 + y_61 + y_75 + y_79 + y_80 + y_93 + y_95
        - z_1611 >= 0
 c1613: y_8 + y_15 + y_20 + y_33 + y_34 + y_41 + y_48 + y_61 + y_75 + y_79
        + y_80 + y_93 + y_95 - z_1612 >= 0
 c1614: y_12 + y_71 + y_88 - z_1613 >= 0
 c1615: y_25 + y_29 + y_35 + y_77 - z_1614 >= 0
 c1616: y_1 + y_23 + y_31 + y_46 + y_49 + y_98 + y_99 - z_1615 >= 0
 c1617: y_46 + y_49 + y_74 + y_95 - z_1616 >= 0
 c1618: y_7 + y_23 + y_31 + y_51 + y_62 + y_98 - z_1617 >= 0
 c1619: y_50 + y_56 - z_1618 >= 0
 c1620: y_5 + y_6 + y_34 + y_44 + y_90 - z_1619 >= 0
 c1621: y_2 + y_83 + y_85 - z_1620 >= 0
 c1622: y_2 + y_82 + y_83 + y_84 + y_85 - z_1621 >= 0
 c1623: y_24 + y_52 + y_59 + y_70 + y_86 - z_1622 >= 0
 c1624: y_12 + y_71 + y_88 - z_1623 >= 0
 c1625: y_16 + y_17 + y_39 + y_53 + y_54 + y_58 + y_63 + y_64 + y_91 - z_1624
         >= 0
 c1626: y_8 + y_15 + y_20 + y_41 + y_46 + y_61 + y_75 + y_79 + y_80 + y_93
        + y_95 - z_1625 >= 0
 c1627: y_13 + y_60 + y_72 + y_76 + y_78 + y_81 - z_1626 >= 0
 c1628: y_8 + y_20 + y_34 + y_75 + y_80 + y_93 + y_96 - z_1627 >= 0
 c1629: y_37 + y_45 + y_73 + y_89 + y_99 - z_1628 >= 0
 c1630: y_12 + y_71 + y_88 - z_1629 >= 0
 c1631: y_1 + y_23 + y_46 + y_49 + y_74 + y_98 + y_99 - z_1630 >= 0
 c1632: y_6 + y_22 + y_32 - z_1631 >= 0
 c1633: y_2 + y_14 + y_82 + y_83 + y_85 - z_1632 >= 0
 c1634: y_22 + y_50 + y_56 + y_65 - z_1633 >= 0
 c1635: y_15 + y_18 + y_20 + y_21 + y_33 + y_36 + y_41 + y_47 + y_48 + y_61
        + y_79 + y_80 + y_93 + y_95 - z_1634 >= 0
 c1636: y_0 + y_2 + y_27 + y_42 + y_55 - z_1635 >= 0
 c1637: y_7 + y_31 + y_51 + y_62 + y_89 + y_98 + y_99 - z_1636 >= 0
 c1638: y_25 + y_29 + y_35 + y_77 - z_1637 >= 0
 c1639: y_0 + y_96 - z_1638 >= 0
 c1640: y_6 + y_58 + y_90 + y_91 - z_1639 >= 0
 c1641: y_7 + y_51 + y_62 + y_98 - z_1640 >= 0
 c1642: y_13 + y_65 - z_1641 >= 0
 c1643: y_11 + y_24 + y_30 + y_43 + y_52 + y_59 + y_68 + y_70 + y_86 - z_1642
         >= 0
 c1644: y_83 + y_85 + y_92 - z_1643 >= 0
 c1645: y_15 + y_18 + y_20 + y_46 + y_49 + y_74 + y_95 - z_1644 >= 0
 c1646: y_50 + y_56 + y_58 - z_1645 >= 0
 c1647: y_1 + y_31 + y_37 + y_73 + y_89 + y_99 - z_1646 >= 0
 c1648: y_1 + y_8 + y_73 + y_96 - z_1647 >= 0
 c1649: y_2 + y_14 + y_82 + y_83 + y_84 + y_85 - z_1648 >= 0
 c1650: y_0 + y_27 - z_1649 >= 0
 c1651: y_7 + y_31 + y_51 + y_62 + y_89 + y_99 - z_1650 >= 0
 c1652: y_1 + y_23 + y_46 + y_49 + y_74 + y_98 - z_1651 >= 0
 c1653: y_40 + y_92 - z_1652 >= 0
 c1654: y_45 - z_1653 >= 0
 c1655: y_16 + y_17 + y_39 + y_53 + y_55 + y_58 + y_63 + y_64 + y_91 - z_1654
         >= 0
 c1656: y_37 + y_45 - z_1655 >= 0
 c1657: y_50 + y_56 + y_65 - z_1656 >= 0
 c1658: y_17 + y_53 + y_96 - z_1657 >= 0
 c1659: y_9 + y_12 + y_32 + y_71 + y_88 - z_1658 >= 0
 c1660: y_8 + y_15 + y_20 + y_34 + y_61 + y_75 + y_80 + y_93 - z_1659 >= 0
 c1661: y_25 + y_29 + y_35 + y_77 - z_1660 >= 0
 c1662: y_10 + y_13 + y_57 + y_60 + y_72 + y_76 + y_78 + y_81 - z_1661 >= 0
 c1663: y_1 + y_23 + y_31 + y_73 + y_89 + y_98 + y_99 - z_1662 >= 0
 c1664: y_1 + y_31 + y_37 + y_73 + y_89 + y_99 - z_1663 >= 0
 c1665: y_7 + y_31 + y_51 + y_62 + y_89 + y_99 - z_1664 >= 0
 c1666: y_24 + y_30 + y_43 + y_52 + y_59 + y_70 - z_1665 >= 0
 c1667: y_1 + y_23 + y_46 + y_49 + y_74 + y_98 - z_1666 >= 0
 c1668: y_0 + y_27 + y_45 - z_1667 >= 0
 c1669: y_11 + y_24 + y_52 + y_59 + y_68 + y_69 + y_70 + y_86 + y_97 - z_1668
         >= 0
 c1670: y_11 + y_67 + y_68 + y_69 + y_97 - z_1669 >= 0
 c1671: - z_1670 >= 0
 c1672: y_3 + y_5 + y_33 + y_34 + y_38 + y_44 + y_61 + y_90 - z_1671 >= 0
 c1673: y_65 - z_1672 >= 0
 c1674: y_12 + y_22 + y_32 + y_88 - z_1673 >= 0
 c1675: y_8 + y_15 + y_20 + y_46 + y_49 + y_61 + y_75 + y_80 + y_93 + y_95
        - z_1674 >= 0
 c1676: y_13 + y_28 + y_60 + y_76 - z_1675 >= 0
 c1677: y_2 + y_27 + y_42 + y_55 + y_83 - z_1676 >= 0
 c1678: y_4 + y_9 + y_26 + y_32 + y_38 + y_44 + y_67 + y_69 - z_1677 >= 0
 c1679: y_13 + y_28 + y_60 + y_76 + y_78 + y_81 - z_1678 >= 0
 c1680: y_25 + y_29 + y_77 - z_1679 >= 0
 c1681: y_45 - z_1680 >= 0
 c1682: y_9 + y_67 + y_68 + y_69 + y_97 - z_1681 >= 0
 c1683: y_15 + y_18 + y_21 + y_36 + y_41 + y_47 + y_79 + y_95 - z_1682 >= 0
 c1684: y_4 + y_9 + y_26 + y_32 + y_71 - z_1683 >= 0
 c1685: y_2 + y_40 + y_42 + y_55 + y_83 - z_1684 >= 0
 c1686: y_29 - z_1685 >= 0
 c1687: y_3 + y_11 + y_19 + y_26 + y_33 + y_38 + y_44 + y_67 + y_68 + y_69
        - z_1686 >= 0
 c1688: y_17 + y_53 + y_96 - z_1687 >= 0
 c1689: y_7 + y_23 + y_31 + y_51 + y_62 + y_89 + y_98 + y_99 - z_1688 >= 0
 c1690: y_0 + y_27 + y_45 - z_1689 >= 0
 c1691: y_40 + y_92 - z_1690 >= 0
 c1692: y_5 + y_6 + y_34 + y_90 - z_1691 >= 0
 c1693: y_3 + y_19 + y_33 + y_38 + y_44 + y_48 - z_1692 >= 0
 c1694: y_4 + y_12 + y_22 + y_32 + y_88 - z_1693 >= 0
 c1695: y_73 + y_96 - z_1694 >= 0
 c1696: y_5 + y_15 + y_20 + y_33 + y_34 + y_41 + y_48 + y_61 + y_79 + y_80
        + y_93 + y_95 - z_1695 >= 0
 c1697: y_4 + y_9 + y_12 + y_26 + y_32 + y_71 - z_1696 >= 0
 c1698: y_5 + y_34 + y_44 + y_61 + y_90 - z_1697 >= 0
 c1699: y_5 + y_20 + y_34 + y_44 + y_61 + y_93 - z_1698 >= 0
 c1700: y_12 + y_22 + y_57 + y_65 + y_72 + y_78 + y_88 - z_1699 >= 0
 c1701: y_0 + y_45 - z_1700 >= 0
 c1702: y_29 + y_65 - z_1701 >= 0
 c1703: y_13 - z_1702 >= 0
 c1704: y_25 + y_35 + y_40 + y_77 + y_87 + y_92 - z_1703 >= 0
 c1705: y_9 + y_71 - z_1704 >= 0
 c1706: y_8 + y_15 + y_20 + y_34 + y_46 + y_61 + y_75 + y_79 + y_80 + y_93
        + y_95 - z_1705 >= 0
 c1707: y_40 + y_92 - z_1706 >= 0
 c1708: y_29 - z_1707 >= 0
 c1709: y_17 + y_96 - z_1708 >= 0
 c1710: y_5 + y_6 + y_34 + y_90 - z_1709 >= 0
 c1711: y_24 + y_30 + y_43 + y_52 + y_59 + y_70 - z_1710 >= 0
 c1712: y_22 + y_56 + y_65 - z_1711 >= 0
 c1713: y_15 + y_20 + y_34 + y_41 + y_47 + y_48 + y_61 + y_75 + y_79 + y_80
        + y_93 + y_95 - z_1712 >= 0
 c1714: y_7 + y_23 + y_51 + y_62 + y_98 - z_1713 >= 0
 c1715: y_25 + y_29 + y_35 + y_50 + y_56 + y_77 - z_1714 >= 0
 c1716: y_12 + y_22 + y_57 + y_65 + y_72 + y_88 - z_1715 >= 0
 c1717: y_8 + y_17 + y_34 + y_96 - z_1716 >= 0
 c1718: y_3 + y_15 + y_18 + y_20 + y_21 + y_33 + y_36 + y_41 + y_47 + y_48
        + y_61 + y_79 + y_93 + y_95 - z_1717 >= 0
 c1719: y_40 + y_87 + y_92 - z_1718 >= 0
 c1720: y_37 + y_45 + y_89 - z_1719 >= 0
 c1721: y_17 + y_53 + y_63 + y_91 + y_96 - z_1720 >= 0
 c1722: y_58 - z_1721 >= 0
 c1723: y_8 + y_15 + y_20 + y_34 + y_46 + y_61 + y_75 + y_79 + y_80 + y_93
        + y_95 - z_1722 >= 0
 c1724: y_50 + y_56 - z_1723 >= 0
 c1725: y_19 + y_21 + y_30 + y_36 + y_41 + y_43 + y_47 + y_48 + y_59 + y_94
        - z_1724 >= 0
 c1726: y_0 + y_27 - z_1725 >= 0
 c1727: y_0 + y_2 + y_14 + y_27 + y_42 + y_55 + y_82 + y_83 - z_1726 >= 0
 c1728: y_0 + y_39 + y_42 + y_53 + y_55 + y_63 + y_64 - z_1727 >= 0
 c1729: y_9 + y_26 + y_67 + y_68 + y_69 + y_97 - z_1728 >= 0
 c1730: y_4 + y_5 + y_6 + y_32 + y_90 - z_1729 >= 0
 c1731: y_1 + y_73 + y_96 - z_1730 >= 0
 c1732: y_0 + y_27 + y_42 + y_55 + y_64 - z_1731 >= 0
 c1733: y_22 + y_57 + y_65 + y_72 - z_1732 >= 0
 c1734: y_30 + y_43 + y_52 + y_59 + y_94 - z_1733 >= 0
 c1735: y_50 + y_56 + y_65 - z_1734 >= 0
 c1736: y_35 + y_40 + y_92 - z_1735 >= 0
 c1737: y_40 + y_92 - z_1736 >= 0
 c1738: y_50 + y_56 - z_1737 >= 0
 c1739: y_1 + y_7 + y_23 + y_31 + y_37 + y_51 + y_62 + y_89 + y_98 + y_99
        - z_1738 >= 0
 c1740: y_16 + y_40 + y_54 + y_66 + y_87 + y_92 - z_1739 >= 0
 c1741: y_17 + y_96 - z_1740 >= 0
 c1742: y_8 + y_17 + y_75 + y_80 + y_96 - z_1741 >= 0
 c1743: y_0 + y_27 + y_42 + y_55 + y_64 - z_1742 >= 0
 c1744: y_11 + y_24 + y_52 + y_59 + y_68 + y_70 + y_86 - z_1743 >= 0
 c1745: y_12 + y_71 + y_88 - z_1744 >= 0
 c1746: y_3 + y_15 + y_18 + y_21 + y_33 + y_36 + y_41 + y_47 + y_48 + y_61
        + y_79 - z_1745 >= 0
 c1747: y_10 + y_12 + y_57 + y_72 + y_76 + y_78 + y_81 + y_88 - z_1746 >= 0
 c1748: y_12 + y_22 + y_57 + y_88 - z_1747 >= 0
 c1749: y_5 + y_17 + y_53 + y_58 + y_91 - z_1748 >= 0
 c1750: y_21 + y_30 + y_36 + y_41 + y_43 + y_47 + y_48 + y_94 - z_1749 >= 0
 c1751: y_85 + y_92 - z_1750 >= 0
 c1752: y_45 - z_1751 >= 0
 c1753: y_12 + y_57 + y_88 - z_1752 >= 0
 c1754: y_85 + y_92 - z_1753 >= 0
 c1755: y_12 + y_22 + y_32 + y_88 - z_1754 >= 0
 c1756: y_30 + y_43 + y_59 + y_94 - z_1755 >= 0
 c1757: y_7 + y_31 + y_51 + y_62 + y_89 + y_99 - z_1756 >= 0
 c1758: y_1 + y_8 + y_20 + y_46 + y_49 + y_75 + y_80 + y_93 + y_95 - z_1757 >= 
        0
 c1759: y_3 + y_19 + y_26 + y_33 + y_38 + y_44 + y_48 - z_1758 >= 0
 c1760: y_0 + y_16 + y_39 + y_53 + y_54 + y_55 + y_63 + y_64 + y_91 - z_1759
         >= 0
 c1761: y_13 + y_28 + y_60 + y_72 + y_76 + y_78 + y_81 - z_1760 >= 0
 c1762: y_22 + y_57 + y_65 + y_72 - z_1761 >= 0
 c1763: y_4 + y_5 + y_6 + y_32 + y_90 - z_1762 >= 0
 c1764: y_23 + y_46 + y_49 + y_74 + y_95 - z_1763 >= 0
 c1765: y_13 + y_28 + y_60 + y_76 + y_81 - z_1764 >= 0
 c1766: y_1 + y_23 + y_31 + y_37 + y_73 + y_89 + y_98 + y_99 - z_1765 >= 0
 c1767: y_11 + y_24 + y_52 + y_68 + y_70 + y_86 + y_97 - z_1766 >= 0
 c1768: y_57 + y_65 + y_72 - z_1767 >= 0
 c1769: y_13 + y_60 + y_76 - z_1768 >= 0
 c1770: y_4 + y_12 + y_22 + y_32 + y_88 - z_1769 >= 0
 c1771: y_6 + y_58 + y_91 - z_1770 >= 0
 c1772: y_6 + y_58 + y_90 + y_91 - z_1771 >= 0
 c1773: y_29 - z_1772 >= 0
 c1774: y_4 + y_9 + y_19 + y_26 + y_32 + y_38 + y_44 + y_67 + y_69 - z_1773 >= 
        0
 c1775: y_23 + y_31 + y_49 + y_98 + y_99 - z_1774 >= 0
 c1776: y_24 + y_52 + y_70 + y_86 - z_1775 >= 0
 c1777: y_10 + y_57 + y_72 + y_78 + y_81 + y_88 - z_1776 >= 0
 c1778: y_4 + y_6 + y_12 + y_22 + y_32 + y_88 - z_1777 >= 0
 c1779: y_1 + y_7 + y_23 + y_31 + y_49 + y_51 + y_89 + y_98 + y_99 - z_1778 >= 
        0
 c1780: y_3 + y_15 + y_18 + y_21 + y_33 + y_36 + y_41 + y_47 + y_48 + y_79
        - z_1779 >= 0
 c1781: y_2 + y_14 + y_27 + y_42 + y_82 + y_83 - z_1780 >= 0
 c1782: y_46 + y_49 + y_74 + y_95 - z_1781 >= 0
 c1783: y_24 + y_52 + y_59 + y_70 + y_86 - z_1782 >= 0
 c1784: y_10 + y_12 + y_57 + y_72 + y_78 + y_88 - z_1783 >= 0
 c1785: y_14 + y_27 + y_82 - z_1784 >= 0
 c1786: y_0 + y_17 + y_53 + y_63 + y_64 - z_1785 >= 0
 c1787: y_2 + y_40 + y_83 + y_85 + y_92 - z_1786 >= 0
 c1788: y_2 + y_14 + y_82 + y_83 + y_84 + y_85 - z_1787 >= 0
 c1789: y_13 + y_57 + y_65 + y_72 - z_1788 >= 0
 c1790: y_40 + y_85 + y_92 - z_1789 >= 0
 c1791: y_11 + y_52 + y_59 + y_67 + y_68 + y_69 + y_97 - z_1790 >= 0
 c1792: y_10 + y_13 + y_60 + y_76 + y_78 + y_81 - z_1791 >= 0
 c1793: y_10 + y_57 + y_60 + y_72 + y_76 + y_78 + y_81 - z_1792 >= 0
 c1794: y_15 + y_46 + y_49 + y_74 + y_75 + y_95 - z_1793 >= 0
 c1795: y_13 + y_28 + y_60 + y_76 - z_1794 >= 0
 c1796: y_40 + y_83 + y_85 + y_92 - z_1795 >= 0
 c1797: y_4 + y_6 + y_12 + y_22 + y_32 + y_88 + y_90 - z_1796 >= 0
 c1798: y_10 + y_12 + y_57 + y_88 - z_1797 >= 0
 c1799: y_50 + y_56 + y_65 - z_1798 >= 0
 c1800: y_16 + y_17 + y_39 + y_53 + y_54 + y_58 + y_63 + y_64 + y_91 - z_1799
         >= 0
 c1801: y_16 + y_39 + y_53 + y_54 + y_58 + y_63 + y_66 + y_91 - z_1800 >= 0
 c1802: y_0 + y_27 + y_42 + y_55 + y_64 - z_1801 >= 0
 c1803: y_8 + y_15 + y_20 + y_34 + y_48 + y_61 + y_75 + y_79 + y_80 + y_93
        + y_95 - z_1802 >= 0
 c1804: y_3 + y_15 + y_20 + y_21 + y_33 + y_34 + y_41 + y_48 + y_61 + y_79
        + y_80 + y_93 + y_95 - z_1803 >= 0
 c1805: y_2 + y_14 + y_27 + y_82 + y_83 - z_1804 >= 0
 c1806: y_83 + y_85 - z_1805 >= 0
 c1807: y_11 + y_24 + y_52 + y_68 + y_70 + y_86 + y_97 - z_1806 >= 0
 c1808: y_13 + y_60 + y_76 - z_1807 >= 0
 c1809: y_11 + y_24 + y_43 + y_52 + y_59 + y_67 + y_68 + y_69 + y_70 + y_86
        + y_97 - z_1808 >= 0
 c1810: y_2 + y_14 + y_27 + y_82 - z_1809 >= 0
 c1811: y_1 + y_31 + y_37 + y_73 + y_89 + y_99 - z_1810 >= 0
 c1812: y_29 + y_50 + y_56 + y_65 - z_1811 >= 0
 c1813: y_4 + y_9 + y_12 + y_32 + y_88 - z_1812 >= 0
 c1814: y_5 + y_17 + y_34 - z_1813 >= 0
 c1815: y_40 + y_87 + y_92 - z_1814 >= 0
 c1816: y_2 + y_14 + y_27 + y_82 - z_1815 >= 0
 c1817: y_15 + y_20 + y_41 + y_46 + y_47 + y_48 + y_61 + y_75 + y_79 + y_80
        + y_93 + y_95 - z_1816 >= 0
 c1818: y_25 + y_35 + y_40 + y_77 + y_87 + y_92 - z_1817 >= 0
 c1819: y_25 + y_29 + y_35 + y_40 + y_66 + y_77 + y_87 + y_92 - z_1818 >= 0
 c1820: y_0 + y_45 - z_1819 >= 0
 c1821: y_3 + y_4 + y_19 + y_33 + y_38 + y_44 + y_90 - z_1820 >= 0
 c1822: y_16 + y_39 + y_53 + y_54 + y_58 + y_63 + y_66 + y_91 - z_1821 >= 0
 c1823: y_8 + y_15 + y_20 + y_34 + y_41 + y_48 + y_61 + y_75 + y_79 + y_80
        + y_93 + y_95 - z_1822 >= 0
 c1824: y_5 + y_34 + y_44 + y_61 + y_90 + y_93 - z_1823 >= 0
 c1825: y_17 + y_39 + y_53 + y_58 + y_63 + y_91 - z_1824 >= 0
 c1826: y_0 + y_45 - z_1825 >= 0
 c1827: y_12 + y_22 + y_57 + y_65 + y_72 + y_88 - z_1826 >= 0
 c1828: y_16 + y_17 + y_39 + y_53 + y_54 + y_58 + y_63 + y_64 + y_91 - z_1827
         >= 0
 c1829: y_2 + y_40 + y_55 + y_83 + y_85 + y_92 - z_1828 >= 0
 c1830: y_45 - z_1829 >= 0
 c1831: y_21 + y_30 + y_36 + y_41 + y_43 + y_47 + y_94 - z_1830 >= 0
 c1832: y_1 + y_23 + y_31 + y_49 + y_73 + y_89 + y_98 + y_99 - z_1831 >= 0
 c1833: y_0 + y_42 + y_53 + y_63 + y_64 - z_1832 >= 0
 c1834: y_0 + y_27 + y_42 + y_55 - z_1833 >= 0
 c1835: y_8 + y_15 + y_20 + y_34 + y_46 + y_61 + y_75 + y_79 + y_80 + y_93
        + y_95 - z_1834 >= 0
 c1836: y_7 + y_23 + y_31 + y_51 + y_62 + y_89 + y_98 + y_99 - z_1835 >= 0
 c1837: y_6 + y_58 + y_90 - z_1836 >= 0
 c1838: y_30 + y_43 + y_59 + y_94 - z_1837 >= 0
 c1839: y_3 + y_11 + y_19 + y_26 + y_38 + y_44 + y_67 + y_68 + y_69 - z_1838
         >= 0
 c1840: y_8 + y_15 + y_20 + y_46 + y_49 + y_61 + y_74 + y_75 + y_80 + y_93
        + y_95 - z_1839 >= 0
 c1841: y_4 + y_9 + y_12 + y_26 + y_32 + y_71 + y_88 - z_1840 >= 0
 c1842: y_6 + y_22 - z_1841 >= 0
 c1843: y_7 + y_23 + y_51 + y_98 - z_1842 >= 0
 c1844: y_73 + y_96 - z_1843 >= 0
 c1845: y_11 + y_19 + y_26 + y_38 + y_43 + y_52 + y_59 + y_67 + y_68 + y_69
        + y_97 - z_1844 >= 0
 c1846: y_4 + y_9 + y_12 + y_32 + y_71 + y_88 - z_1845 >= 0
 c1847: y_23 + y_46 + y_49 + y_74 + y_98 - z_1846 >= 0
 c1848: y_4 + y_6 + y_32 + y_90 - z_1847 >= 0
 c1849: y_50 + y_56 + y_65 - z_1848 >= 0
 c1850: y_7 + y_23 + y_51 + y_62 + y_98 - z_1849 >= 0
 c1851: y_37 + y_89 - z_1850 >= 0
 c1852: y_0 + y_27 + y_42 - z_1851 >= 0
 c1853: y_13 + y_57 + y_60 + y_65 + y_72 + y_76 + y_78 + y_81 - z_1852 >= 0
 c1854: y_6 + y_22 - z_1853 >= 0
 c1855: y_7 + y_23 + y_31 + y_51 + y_62 + y_98 - z_1854 >= 0
 c1856: y_13 + y_60 - z_1855 >= 0
 c1857: y_5 + y_17 + y_34 + y_91 - z_1856 >= 0
 c1858: y_56 + y_58 - z_1857 >= 0
 c1859: y_16 + y_39 + y_50 + y_54 + y_56 + y_66 + y_87 - z_1858 >= 0
 c1860: y_97 - z_1859 >= 0
 c1861: y_10 + y_13 + y_60 + y_76 + y_78 + y_81 - z_1860 >= 0
 c1862: y_3 + y_11 + y_19 + y_26 + y_38 + y_67 + y_68 + y_69 - z_1861 >= 0
 c1863: y_9 + y_12 + y_32 + y_71 - z_1862 >= 0
 c1864: y_4 + y_6 + y_9 + y_26 + y_32 + y_90 - z_1863 >= 0
 c1865: y_40 + y_83 + y_85 + y_92 - z_1864 >= 0
 c1866: y_8 + y_15 + y_20 + y_34 + y_61 + y_75 + y_79 + y_80 + y_93 + y_95
        - z_1865 >= 0
 c1867: y_0 + y_27 + y_42 + y_55 + y_64 - z_1866 >= 0
 c1868: y_13 + y_28 - z_1867 >= 0
 c1869: y_5 + y_8 + y_17 + y_34 + y_91 - z_1868 >= 0
 c1870: y_4 + y_6 + y_90 - z_1869 >= 0
 c1871: y_5 + y_8 + y_17 + y_20 + y_34 + y_75 + y_80 + y_93 - z_1870 >= 0
 c1872: y_25 + y_29 + y_35 + y_40 + y_77 + y_87 + y_92 - z_1871 >= 0
 c1873: y_13 + y_60 - z_1872 >= 0
 c1874: y_3 + y_15 + y_20 + y_21 + y_33 + y_34 + y_41 + y_44 + y_48 + y_61
        + y_79 + y_80 + y_93 - z_1873 >= 0
 c1875: y_4 + y_6 + y_12 + y_22 + y_32 + y_88 + y_90 - z_1874 >= 0
 c1876: y_16 + y_50 + y_54 + y_56 + y_58 + y_66 - z_1875 >= 0
 c1877: y_8 + y_20 + y_34 + y_75 + y_80 + y_93 + y_96 - z_1876 >= 0
 c1878: y_11 + y_67 + y_68 + y_69 + y_97 - z_1877 >= 0
 c1879: y_12 + y_22 + y_57 + y_65 + y_72 + y_88 - z_1878 >= 0
 c1880: y_21 + y_30 + y_43 + y_94 - z_1879 >= 0
 c1881: y_3 + y_15 + y_19 + y_21 + y_33 + y_36 + y_41 + y_47 + y_48 + y_61
        + y_79 - z_1880 >= 0
 c1882: y_40 + y_42 + y_55 + y_64 - z_1881 >= 0
 c1883: y_21 + y_30 + y_43 + y_59 + y_94 - z_1882 >= 0
 c1884: y_11 + y_19 + y_30 + y_43 + y_52 + y_59 + y_94 - z_1883 >= 0
 c1885: y_5 + y_8 + y_20 + y_34 + y_61 + y_75 + y_80 + y_93 - z_1884 >= 0
 c1886: y_25 + y_29 + y_50 + y_56 + y_65 + y_77 - z_1885 >= 0
 c1887: y_21 + y_30 + y_43 + y_59 + y_94 - z_1886 >= 0
 c1888: y_4 + y_6 + y_9 + y_12 + y_32 + y_88 - z_1887 >= 0
 c1889: y_97 - z_1888 >= 0
 c1890: y_22 + y_57 + y_65 + y_72 - z_1889 >= 0
 c1891: y_11 + y_26 + y_52 + y_67 + y_68 + y_69 + y_97 - z_1890 >= 0
 c1892: y_8 + y_15 + y_20 + y_34 + y_46 + y_61 + y_75 + y_80 + y_93 + y_95
        - z_1891 >= 0
 c1893: y_5 + y_33 + y_34 + y_44 + y_61 + y_90 - z_1892 >= 0
 c1894: y_5 + y_8 + y_20 + y_34 + y_61 + y_80 + y_93 - z_1893 >= 0
 c1895: y_7 + y_31 + y_37 + y_51 + y_62 + y_89 + y_99 - z_1894 >= 0
 c1896: y_16 + y_39 + y_53 + y_54 + y_55 + y_58 + y_63 + y_64 + y_66 + y_91
        - z_1895 >= 0
 c1897: y_16 + y_17 + y_39 + y_53 + y_58 + y_63 + y_64 + y_91 - z_1896 >= 0
 c1898: y_15 + y_18 + y_36 + y_46 + y_47 + y_49 + y_74 + y_95 - z_1897 >= 0
 c1899: y_3 + y_15 + y_19 + y_21 + y_33 + y_36 + y_38 + y_41 + y_44 + y_47
        + y_48 + y_61 + y_79 - z_1898 >= 0
 c1900: y_7 + y_23 + y_31 + y_51 + y_62 + y_89 + y_98 + y_99 - z_1899 >= 0
 c1901: y_50 + y_56 + y_66 - z_1900 >= 0
 c1902: y_11 + y_67 + y_68 + y_69 + y_97 - z_1901 >= 0
 c1903: y_12 + y_22 + y_57 + y_65 + y_72 + y_88 - z_1902 >= 0
 c1904: y_22 + y_57 + y_65 + y_72 - z_1903 >= 0
 c1905: y_45 - z_1904 >= 0
 c1906: y_25 + y_29 + y_35 + y_50 + y_56 + y_77 + y_87 - z_1905 >= 0
 c1907: y_13 - z_1906 >= 0
 c1908: y_37 + y_45 + y_73 + y_89 - z_1907 >= 0
 c1909: y_0 + y_39 + y_42 + y_53 + y_55 + y_63 + y_64 - z_1908 >= 0
 c1910: y_3 + y_4 + y_19 + y_33 + y_38 + y_44 + y_90 - z_1909 >= 0
 c1911: y_30 + y_43 + y_52 + y_59 + y_94 - z_1910 >= 0
 c1912: y_24 + y_52 + y_70 + y_86 - z_1911 >= 0
 c1913: y_4 + y_5 + y_6 + y_34 + y_44 + y_90 - z_1912 >= 0
 c1914: y_1 + y_23 + y_31 + y_37 + y_73 + y_89 + y_98 + y_99 - z_1913 >= 0
 c1915: y_3 + y_5 + y_19 + y_33 + y_34 + y_38 + y_44 + y_48 + y_61 + y_79
        - z_1914 >= 0
 c1916: y_1 + y_23 + y_46 + y_49 + y_73 + y_74 + y_75 + y_98 - z_1915 >= 0
 c1917: y_7 + y_31 + y_37 + y_51 + y_89 + y_99 - z_1916 >= 0
 c1918: y_16 + y_25 + y_40 + y_50 + y_54 + y_66 + y_77 + y_87 + y_92 - z_1917
         >= 0
 c1919: y_11 + y_24 + y_52 + y_59 + y_67 + y_68 + y_69 + y_70 + y_86 + y_97
        - z_1918 >= 0
 c1920: y_25 + y_29 + y_77 - z_1919 >= 0
 c1921: y_3 + y_19 + y_21 + y_30 + y_36 + y_41 + y_43 + y_47 + y_48 + y_94
        - z_1920 >= 0
 c1922: y_4 + y_9 + y_26 + y_32 - z_1921 >= 0
 c1923: y_82 + y_83 + y_84 + y_85 - z_1922 >= 0
 c1924: y_3 + y_19 + y_26 + y_33 + y_38 + y_44 + y_67 + y_69 - z_1923 >= 0
 c1925: y_5 + y_6 + y_34 + y_44 + y_90 - z_1924 >= 0
 c1926: y_3 + y_5 + y_33 + y_34 + y_44 + y_48 + y_61 + y_90 + y_93 - z_1925 >= 
        0
 c1927: y_16 + y_17 + y_39 + y_53 + y_58 + y_63 + y_91 - z_1926 >= 0
 c1928: y_25 + y_29 + y_35 + y_77 - z_1927 >= 0
 c1929: y_71 - z_1928 >= 0
 c1930: y_0 + y_27 + y_42 + y_55 + y_63 + y_64 - z_1929 >= 0
 c1931: y_9 + y_12 + y_32 + y_71 + y_88 - z_1930 >= 0
 c1932: y_13 - z_1931 >= 0
 c1933: y_3 + y_19 + y_21 + y_33 + y_38 + y_41 + y_43 + y_48 - z_1932 >= 0
 c1934: y_12 + y_22 + y_32 + y_88 - z_1933 >= 0
 c1935: y_8 + y_17 + y_75 + y_80 + y_96 - z_1934 >= 0
 c1936: y_18 + y_21 + y_36 + y_41 + y_47 - z_1935 >= 0
 c1937: y_5 + y_8 + y_20 + y_34 + y_61 + y_75 + y_80 + y_93 - z_1936 >= 0
 c1938: y_5 + y_17 + y_34 + y_53 + y_58 + y_91 - z_1937 >= 0
 c1939: y_1 + y_23 + y_46 + y_49 + y_73 + y_75 + y_98 + y_99 - z_1938 >= 0
 c1940: y_57 + y_65 + y_72 - z_1939 >= 0
 c1941: y_3 + y_5 + y_20 + y_33 + y_34 + y_44 + y_48 + y_61 + y_79 + y_80 + y_93
        - z_1940 >= 0
 c1942: y_83 + y_84 + y_85 - z_1941 >= 0
 c1943: y_12 + y_71 + y_88 - z_1942 >= 0
 c1944: y_10 + y_13 + y_28 + y_60 + y_76 + y_78 + y_81 - z_1943 >= 0
 c1945: y_1 + y_7 + y_23 + y_31 + y_37 + y_51 + y_62 + y_73 + y_89 + y_98 + y_99
        - z_1944 >= 0
 c1946: y_25 + y_29 + y_35 + y_77 - z_1945 >= 0
 c1947: y_3 + y_19 + y_21 + y_33 + y_38 + y_41 + y_44 + y_47 + y_48 + y_61
        + y_79 - z_1946 >= 0
 c1948: y_9 + y_11 + y_26 + y_67 + y_68 + y_69 + y_97 - z_1947 >= 0
 c1949: y_16 + y_39 + y_53 + y_54 + y_58 + y_63 + y_64 + y_66 + y_91 - z_1948
         >= 0
 c1950: y_10 + y_12 + y_57 + y_72 + y_78 + y_88 - z_1949 >= 0
 c1951: y_9 + y_71 - z_1950 >= 0
 c1952: y_4 + y_6 + y_32 + y_44 + y_90 - z_1951 >= 0
 c1953: y_11 + y_30 + y_43 + y_52 + y_59 + y_68 + y_94 - z_1952 >= 0
 c1954: y_24 + y_30 + y_43 + y_52 + y_59 + y_70 + y_86 - z_1953 >= 0
 c1955: y_0 + y_39 + y_42 + y_53 + y_55 + y_63 + y_64 - z_1954 >= 0
 c1956: y_13 + y_57 + y_60 + y_72 + y_76 + y_78 + y_81 - z_1955 >= 0
 c1957: y_13 + y_28 + y_60 + y_76 - z_1956 >= 0
 c1958: y_22 + y_57 + y_65 + y_72 - z_1957 >= 0
 c1959: y_16 + y_50 + y_56 + y_58 + y_66 - z_1958 >= 0
 c1960: y_22 + y_56 - z_1959 >= 0
 c1961: y_24 + y_30 + y_43 + y_52 + y_59 + y_70 - z_1960 >= 0
 c1962: y_4 + y_6 + y_32 + y_90 - z_1961 >= 0
 c1963: y_0 + y_63 + y_64 - z_1962 >= 0
 c1964: y_12 + y_22 + y_32 + y_88 - z_1963 >= 0
 c1965: y_0 + y_2 + y_27 + y_42 + y_55 + y_64 - z_1964 >= 0
 c1966: y_1 + y_23 + y_46 + y_49 + y_73 + y_74 + y_98 + y_99 - z_1965 >= 0
 c1967: y_83 + y_85 - z_1966 >= 0
 c1968: y_25 + y_29 + y_35 + y_77 - z_1967 >= 0
 c1969: y_37 + y_45 - z_1968 >= 0
 c1970: y_97 - z_1969 >= 0
 c1971: y_10 + y_13 + y_60 + y_76 + y_78 + y_81 - z_1970 >= 0
 c1972: y_2 + y_14 + y_82 + y_83 + y_84 + y_85 - z_1971 >= 0
 c1973: y_13 + y_57 + y_60 + y_65 + y_72 + y_76 + y_78 + y_81 - z_1972 >= 0
 c1974: y_3 + y_5 + y_33 + y_34 + y_44 + y_61 + y_90 - z_1973 >= 0
 c1975: y_15 + y_20 + y_21 + y_33 + y_36 + y_41 + y_47 + y_48 + y_61 + y_79
        + y_80 + y_93 + y_95 - z_1974 >= 0
 c1976: y_9 + y_71 + y_97 - z_1975 >= 0
 c1977: y_0 + y_27 + y_42 + y_55 + y_63 + y_64 - z_1976 >= 0
 c1978: y_4 + y_9 + y_26 + y_32 + y_71 - z_1977 >= 0
 c1979: y_0 + y_27 + y_42 + y_55 + y_64 - z_1978 >= 0
 c1980: y_97 - z_1979 >= 0
 c1981: y_8 + y_15 + y_20 + y_34 + y_46 + y_61 + y_75 + y_80 + y_93 + y_95
        - z_1980 >= 0
 c1982: y_17 + y_39 + y_53 + y_58 + y_91 - z_1981 >= 0
 c1983: y_23 + y_51 + y_98 - z_1982 >= 0
 c1984: y_15 + y_20 + y_21 + y_33 + y_34 + y_41 + y_47 + y_48 + y_61 + y_79
        + y_80 + y_93 + y_95 - z_1983 >= 0
 c1985: y_17 + y_53 + y_58 + y_91 - z_1984 >= 0
 c1986: y_5 + y_34 - z_1985 >= 0
 c1987: y_16 + y_17 + y_39 + y_53 + y_54 + y_58 + y_63 + y_64 + y_91 - z_1986
         >= 0
 c1988: y_1 + y_23 + y_46 + y_49 + y_73 + y_75 + y_98 + y_99 - z_1987 >= 0
 c1989: y_25 + y_29 + y_35 + y_40 + y_50 + y_56 + y_66 + y_77 + y_87 + y_92
        - z_1988 >= 0
 c1990: y_25 + y_29 + y_35 + y_77 - z_1989 >= 0
 c1991: y_45 - z_1990 >= 0
 c1992: y_1 + y_8 + y_20 + y_46 + y_49 + y_75 + y_80 + y_93 + y_95 - z_1991 >= 
        0
 c1993: y_1 + y_7 + y_31 + y_37 + y_73 + y_89 + y_99 - z_1992 >= 0
 c1994: y_3 + y_19 + y_33 + y_38 + y_44 + y_48 + y_61 + y_79 - z_1993 >= 0
 c1995: y_12 + y_57 + y_72 + y_88 - z_1994 >= 0
 c1996: y_3 + y_5 + y_15 + y_19 + y_20 + y_33 + y_34 + y_38 + y_41 + y_44 + y_48
        + y_61 + y_79 + y_93 - z_1995 >= 0
 c1997: y_24 + y_30 + y_43 + y_52 + y_59 + y_70 + y_86 - z_1996 >= 0
 c1998: y_24 + y_30 + y_43 + y_52 + y_59 + y_70 + y_94 - z_1997 >= 0
 c1999: y_37 + y_45 - z_1998 >= 0
 c2000: y_17 + y_96 - z_1999 >= 0
 c2001: y_57 + y_60 + y_65 + y_72 + y_76 + y_78 + y_88 - z_2000 >= 0
 c2002: y_11 + y_43 + y_52 + y_59 + y_67 + y_68 + y_69 + y_97 - z_2001 >= 0
 c2003: y_46 + y_49 + y_74 + y_75 + y_95 - z_2002 >= 0
 c2004: y_16 + y_39 + y_40 + y_54 + y_66 + y_87 + y_92 - z_2003 >= 0
 c2005: y_10 + y_13 + y_28 + y_60 + y_76 + y_78 + y_81 - z_2004 >= 0
 c2006: - z_2005 >= 0
 c2007: y_46 + y_49 + y_74 + y_75 + y_95 - z_2006 >= 0
 c2008: y_96 - z_2007 >= 0
 c2009: y_40 + y_66 + y_87 + y_92 - z_2008 >= 0
 c2010: y_3 + y_19 + y_33 + y_38 + y_43 + y_44 + y_48 + y_69 - z_2009 >= 0
 c2011: y_5 + y_8 + y_15 + y_20 + y_34 + y_61 + y_75 + y_79 + y_80 + y_93
        - z_2010 >= 0
 c2012: y_5 + y_8 + y_20 + y_34 + y_61 + y_80 + y_93 - z_2011 >= 0
 c2013: y_1 + y_8 + y_46 + y_73 + y_75 + y_80 + y_96 - z_2012 >= 0
 c2014: y_5 + y_8 + y_17 + y_34 + y_75 + y_80 + y_93 - z_2013 >= 0
 c2015: y_22 + y_56 - z_2014 >= 0
 c2016: y_4 + y_9 + y_26 + y_32 - z_2015 >= 0
 c2017: y_16 + y_39 + y_53 + y_54 + y_58 + y_63 + y_66 + y_91 - z_2016 >= 0
 c2018: y_22 + y_50 + y_56 + y_65 - z_2017 >= 0
 c2019: y_13 - z_2018 >= 0
 c2020: y_50 + y_56 + y_66 + y_87 - z_2019 >= 0
 c2021: y_9 + y_11 + y_26 + y_38 + y_67 + y_68 + y_69 + y_97 - z_2020 >= 0
 c2022: y_3 + y_11 + y_19 + y_26 + y_33 + y_38 + y_43 + y_52 + y_59 + y_67
        + y_68 + y_69 - z_2021 >= 0
 c2023: y_25 + y_35 + y_77 + y_92 - z_2022 >= 0
 c2024: y_22 + y_56 + y_65 - z_2023 >= 0
 c2025: y_4 + y_9 + y_26 + y_32 + y_67 + y_69 - z_2024 >= 0
 c2026: y_9 + y_11 + y_26 + y_67 + y_68 + y_69 + y_97 - z_2025 >= 0
 c2027: y_3 + y_4 + y_6 + y_19 + y_26 + y_32 + y_33 + y_38 + y_44 + y_90
        - z_2026 >= 0
 c2028: y_29 - z_2027 >= 0
 c2029: y_18 + y_21 + y_30 + y_36 + y_41 + y_47 + y_48 + y_94 - z_2028 >= 0
 c2030: y_1 + y_8 + y_20 + y_46 + y_75 + y_80 + y_93 + y_95 - z_2029 >= 0
 c2031: y_3 + y_19 + y_21 + y_30 + y_33 + y_38 + y_43 + y_48 + y_59 - z_2030
         >= 0
 c2032: y_3 + y_19 + y_21 + y_30 + y_33 + y_36 + y_41 + y_43 + y_47 + y_48
        + y_94 - z_2031 >= 0
 c2033: y_9 + y_11 + y_19 + y_26 + y_38 + y_67 + y_68 + y_69 - z_2032 >= 0
 c2034: y_12 + y_22 + y_57 + y_88 - z_2033 >= 0
 c2035: y_8 + y_17 + y_73 + y_96 - z_2034 >= 0
 c2036: y_8 + y_15 + y_20 + y_46 + y_49 + y_74 + y_75 + y_80 + y_93 + y_95
        - z_2035 >= 0
 c2037: y_3 + y_19 + y_21 + y_33 + y_36 + y_41 + y_43 + y_47 + y_48 + y_79
        + y_94 - z_2036 >= 0
 c2038: y_46 + y_49 + y_74 + y_95 - z_2037 >= 0
 c2039: y_7 + y_23 + y_31 + y_51 + y_62 + y_98 - z_2038 >= 0
 c2040: y_13 - z_2039 >= 0
 c2041: y_16 + y_39 + y_53 + y_54 + y_58 + y_63 + y_66 + y_91 - z_2040 >= 0
 c2042: y_1 + y_23 + y_46 + y_49 + y_74 + y_98 - z_2041 >= 0
 c2043: y_13 + y_28 + y_60 + y_76 + y_78 + y_81 - z_2042 >= 0
 c2044: y_0 + y_27 + y_42 - z_2043 >= 0
 c2045: y_9 + y_71 - z_2044 >= 0
 c2046: y_12 + y_22 + y_57 + y_72 + y_78 + y_88 - z_2045 >= 0
 c2047: y_6 + y_58 + y_90 + y_91 - z_2046 >= 0
 c2048: y_4 + y_9 + y_26 + y_32 + y_67 + y_69 - z_2047 >= 0
 c2049: y_12 + y_22 + y_57 + y_72 + y_88 - z_2048 >= 0
 c2050: y_24 + y_70 + y_86 - z_2049 >= 0
 c2051: y_37 + y_45 - z_2050 >= 0
 c2052: y_0 + y_16 + y_39 + y_42 + y_53 + y_54 + y_55 + y_63 + y_64 - z_2051
         >= 0
 c2053: y_58 + y_91 - z_2052 >= 0
 c2054: y_6 + y_22 - z_2053 >= 0
 c2055: y_4 + y_5 + y_6 + y_32 + y_44 + y_90 - z_2054 >= 0
 c2056: y_15 + y_18 + y_21 + y_36 + y_41 + y_47 + y_79 - z_2055 >= 0
 c2057: y_2 + y_14 + y_27 + y_82 + y_83 - z_2056 >= 0
 c2058: y_7 + y_23 + y_31 + y_51 + y_62 + y_89 + y_98 + y_99 - z_2057 >= 0
 c2059: y_3 + y_19 + y_21 + y_33 + y_38 + y_41 + y_43 + y_44 + y_48 - z_2058
         >= 0
 c2060: y_22 + y_57 + y_65 - z_2059 >= 0
 c2061: y_6 + y_58 + y_90 - z_2060 >= 0
 c2062: y_1 + y_46 + y_49 + y_74 + y_75 + y_80 + y_95 - z_2061 >= 0
 c2063: y_7 + y_23 + y_31 + y_51 + y_62 + y_89 + y_98 + y_99 - z_2062 >= 0
 c2064: y_25 + y_29 + y_35 + y_50 + y_56 + y_77 + y_87 - z_2063 >= 0
 c2065: y_4 + y_6 + y_12 + y_22 + y_32 + y_88 - z_2064 >= 0
 c2066: y_2 + y_14 + y_82 - z_2065 >= 0
 c2067: y_9 + y_11 + y_26 + y_67 + y_68 + y_69 + y_97 - z_2066 >= 0
 c2068: y_5 + y_17 + y_34 + y_91 - z_2067 >= 0
 c2069: y_11 + y_24 + y_43 + y_52 + y_59 + y_68 + y_70 + y_86 - z_2068 >= 0
 c2070: y_45 - z_2069 >= 0
 c2071: y_6 + y_58 + y_91 - z_2070 >= 0
 c2072: y_58 - z_2071 >= 0
 c2073: y_16 + y_39 + y_53 + y_54 + y_55 + y_58 + y_63 + y_64 + y_66 - z_2072
         >= 0
 c2074: y_21 + y_30 + y_36 + y_43 + y_47 + y_94 - z_2073 >= 0
 c2075: y_9 + y_26 + y_67 + y_69 - z_2074 >= 0
 c2076: y_4 + y_6 + y_32 + y_44 + y_90 - z_2075 >= 0
 c2077: y_24 + y_52 + y_59 + y_70 + y_86 - z_2076 >= 0
 c2078: y_25 + y_29 + y_35 + y_77 - z_2077 >= 0
 c2079: y_1 + y_7 + y_23 + y_31 + y_51 + y_62 + y_89 + y_98 + y_99 - z_2078 >= 
        0
 c2080: y_13 + y_28 + y_60 + y_76 + y_78 + y_81 - z_2079 >= 0
 c2081: y_25 + y_29 + y_50 + y_56 + y_77 - z_2080 >= 0
 c2082: y_4 + y_6 + y_32 + y_90 - z_2081 >= 0
 c2083: y_1 + y_7 + y_23 + y_31 + y_51 + y_62 + y_89 + y_98 + y_99 - z_2082 >= 
        0
 c2084: y_24 + y_52 + y_59 + y_70 + y_86 - z_2083 >= 0
 c2085: y_83 + y_85 + y_92 - z_2084 >= 0
 c2086: y_50 + y_56 + y_66 - z_2085 >= 0
 c2087: y_15 + y_18 + y_20 + y_21 + y_36 + y_41 + y_47 + y_48 + y_61 + y_79
        + y_95 - z_2086 >= 0
 c2088: y_25 + y_40 + y_54 + y_66 + y_77 + y_87 + y_92 - z_2087 >= 0
 c2089: y_30 + y_43 + y_52 + y_59 + y_94 - z_2088 >= 0
 c2090: y_12 + y_57 + y_88 - z_2089 >= 0
 c2091: y_17 + y_39 + y_53 + y_58 + y_63 + y_91 - z_2090 >= 0
 c2092: y_37 + y_45 - z_2091 >= 0
 c2093: y_58 - z_2092 >= 0
 c2094: y_16 + y_39 + y_40 + y_54 + y_55 + y_63 + y_64 + y_66 + y_87 - z_2093
         >= 0
 c2095: y_3 + y_19 + y_33 + y_38 + y_43 + y_44 + y_48 + y_69 - z_2094 >= 0
 c2096: y_3 + y_5 + y_19 + y_33 + y_34 + y_38 + y_44 + y_48 + y_61 + y_90
        - z_2095 >= 0
 c2097: y_37 + y_45 + y_73 + y_89 + y_99 - z_2096 >= 0
 c2098: y_9 + y_11 + y_19 + y_26 + y_38 + y_67 + y_68 + y_69 - z_2097 >= 0
 c2099: y_16 + y_39 + y_50 + y_54 + y_63 + y_66 + y_87 - z_2098 >= 0
 c2100: y_0 + y_16 + y_39 + y_42 + y_53 + y_54 + y_55 + y_63 + y_64 - z_2099
         >= 0
 c2101: y_56 + y_65 - z_2100 >= 0
 c2102: y_8 + y_15 + y_20 + y_46 + y_49 + y_61 + y_75 + y_80 + y_93 + y_95
        - z_2101 >= 0
 c2103: y_10 + y_57 + y_60 + y_72 + y_76 + y_78 + y_81 - z_2102 >= 0
 c2104: y_2 + y_14 + y_27 + y_82 - z_2103 >= 0
 c2105: y_13 + y_60 + y_76 - z_2104 >= 0
 c2106: y_1 + y_8 + y_20 + y_46 + y_75 + y_80 + y_93 + y_95 - z_2105 >= 0
 c2107: y_5 + y_17 + y_34 - z_2106 >= 0
 c2108: y_18 + y_21 + y_36 + y_41 + y_47 + y_48 + y_79 + y_94 - z_2107 >= 0
 c2109: y_83 + y_84 + y_85 - z_2108 >= 0
 c2110: y_22 + y_57 + y_65 + y_72 + y_88 - z_2109 >= 0
 c2111: y_45 + y_73 + y_96 - z_2110 >= 0
 c2112: y_37 + y_45 + y_89 - z_2111 >= 0
 c2113: y_65 - z_2112 >= 0
 c2114: y_15 + y_18 + y_21 + y_36 + y_41 + y_47 + y_48 + y_79 + y_95 - z_2113
         >= 0
 c2115: y_25 + y_29 + y_50 + y_56 + y_77 - z_2114 >= 0
 c2116: y_3 + y_19 + y_26 + y_33 + y_38 + y_43 + y_44 + y_48 + y_67 + y_69
        - z_2115 >= 0
 c2117: y_3 + y_19 + y_21 + y_30 + y_36 + y_41 + y_43 + y_47 + y_48 + y_94
        - z_2116 >= 0
 c2118: y_16 + y_39 + y_53 + y_54 + y_58 + y_63 + y_66 + y_91 - z_2117 >= 0
 c2119: y_4 + y_9 + y_26 + y_32 + y_71 - z_2118 >= 0
 c2120: y_16 + y_39 + y_53 + y_54 + y_55 + y_58 + y_63 + y_64 + y_66 - z_2119
         >= 0
 c2121: y_16 + y_39 + y_53 + y_54 + y_58 + y_63 + y_64 + y_66 + y_87 - z_2120
         >= 0
 c2122: y_10 + y_13 + y_60 + y_72 + y_76 + y_78 + y_81 - z_2121 >= 0
 c2123: y_0 + y_45 - z_2122 >= 0
 c2124: y_11 + y_24 + y_43 + y_52 + y_59 + y_68 + y_70 + y_86 - z_2123 >= 0
 c2125: y_16 + y_39 + y_53 + y_54 + y_58 + y_63 + y_66 + y_91 - z_2124 >= 0
 c2126: y_12 + y_22 + y_57 + y_88 - z_2125 >= 0
 c2127: y_2 + y_14 + y_82 + y_83 + y_84 + y_85 - z_2126 >= 0
 c2128: y_10 + y_57 + y_60 + y_72 + y_76 + y_78 + y_81 - z_2127 >= 0
 c2129: y_4 + y_6 + y_32 + y_90 - z_2128 >= 0
 c2130: y_9 + y_11 + y_26 + y_38 + y_67 + y_68 + y_69 + y_97 - z_2129 >= 0
 c2131: y_0 + y_17 + y_39 + y_53 + y_63 + y_64 + y_91 - z_2130 >= 0
 c2132: y_25 + y_29 + y_35 + y_77 - z_2131 >= 0
 c2133: y_29 - z_2132 >= 0
 c2134: y_6 + y_90 - z_2133 >= 0
 c2135: y_25 + y_35 + y_40 + y_77 + y_87 + y_92 - z_2134 >= 0
 c2136: y_0 + y_27 + y_42 + y_55 + y_64 - z_2135 >= 0
 c2137: y_3 + y_19 + y_21 + y_33 + y_36 + y_41 + y_43 + y_47 + y_48 + y_79
        + y_94 - z_2136 >= 0
 c2138: y_50 + y_56 + y_66 - z_2137 >= 0
 c2139: y_4 + y_5 + y_6 + y_32 + y_44 + y_90 - z_2138 >= 0
 c2140: y_11 + y_24 + y_30 + y_43 + y_52 + y_59 + y_68 + y_70 - z_2139 >= 0
 c2141: y_0 + y_2 + y_27 + y_42 + y_55 - z_2140 >= 0
 c2142: y_3 + y_19 + y_21 + y_33 + y_38 + y_41 + y_43 + y_48 - z_2141 >= 0
 c2143: y_6 + y_58 + y_91 - z_2142 >= 0
 c2144: y_11 + y_26 + y_67 + y_68 + y_69 + y_97 - z_2143 >= 0
 c2145: y_2 + y_14 + y_27 + y_82 + y_83 - z_2144 >= 0
 c2146: y_5 + y_20 + y_33 + y_34 + y_44 + y_61 + y_80 + y_93 - z_2145 >= 0
 c2147: y_46 + y_49 + y_74 + y_95 - z_2146 >= 0
 c2148: y_23 + y_46 + y_49 + y_74 - z_2147 >= 0
 c2149: y_13 + y_28 + y_60 + y_76 + y_78 + y_81 - z_2148 >= 0
 c2150: y_3 + y_5 + y_20 + y_33 + y_34 + y_44 + y_48 + y_61 + y_79 + y_93
        - z_2149 >= 0
 c2151: y_10 + y_13 + y_57 + y_60 + y_72 + y_76 + y_78 + y_81 - z_2150 >= 0
 c2152: y_45 - z_2151 >= 0
 c2153: y_12 + y_71 + y_88 - z_2152 >= 0
 c2154: y_0 + y_17 + y_53 + y_63 + y_64 - z_2153 >= 0
 c2155: y_7 + y_31 + y_51 + y_62 + y_89 + y_98 + y_99 - z_2154 >= 0
 c2156: y_3 + y_15 + y_18 + y_21 + y_33 + y_36 + y_41 + y_47 + y_48 + y_61
        + y_79 - z_2155 >= 0
 c2157: y_3 + y_11 + y_19 + y_26 + y_38 + y_44 + y_67 + y_68 + y_69 - z_2156
         >= 0
 c2158: y_1 + y_8 + y_73 + y_75 + y_80 + y_96 - z_2157 >= 0
 c2159: y_11 + y_26 + y_43 + y_52 + y_59 + y_67 + y_68 + y_69 + y_97 - z_2158
         >= 0
 c2160: y_25 + y_29 + y_35 + y_50 + y_56 + y_77 - z_2159 >= 0
 c2161: y_24 + y_52 + y_59 + y_70 + y_86 - z_2160 >= 0
 c2162: y_1 + y_8 + y_73 + y_96 - z_2161 >= 0
 c2163: y_0 + y_27 + y_42 - z_2162 >= 0
 c2164: y_23 + y_46 + y_49 + y_74 + y_95 - z_2163 >= 0
 c2165: y_25 + y_29 + y_35 + y_50 + y_56 + y_66 + y_77 + y_87 - z_2164 >= 0
 c2166: y_8 + y_20 + y_34 + y_75 + y_80 + y_93 + y_96 - z_2165 >= 0
 c2167: y_4 + y_5 + y_6 + y_32 + y_44 + y_90 - z_2166 >= 0
 c2168: y_12 + y_32 + y_71 + y_88 - z_2167 >= 0
 c2169: y_24 + y_70 + y_86 - z_2168 >= 0
 c2170: y_7 + y_31 + y_51 + y_62 + y_98 - z_2169 >= 0
 c2171: y_0 + y_27 + y_42 + y_55 + y_63 + y_64 - z_2170 >= 0
 c2172: y_83 + y_85 - z_2171 >= 0
 c2173: y_9 + y_71 - z_2172 >= 0
 c2174: y_16 + y_40 + y_42 + y_54 + y_55 + y_64 - z_2173 >= 0
 c2175: y_56 + y_65 - z_2174 >= 0
 c2176: y_22 + y_65 - z_2175 >= 0
 c2177: y_13 + y_28 + y_60 + y_72 + y_76 + y_78 + y_81 - z_2176 >= 0
 c2178: y_24 + y_70 + y_86 - z_2177 >= 0
 c2179: y_8 + y_15 + y_20 + y_34 + y_46 + y_61 + y_75 + y_80 + y_93 - z_2178
         >= 0
 c2180: y_2 + y_14 + y_82 + y_83 + y_84 + y_85 - z_2179 >= 0
 c2181: y_0 + y_45 - z_2180 >= 0
 c2182: y_2 + y_40 + y_42 + y_55 + y_83 - z_2181 >= 0
 c2183: y_24 + y_30 + y_43 + y_52 + y_59 + y_70 + y_86 - z_2182 >= 0
 c2184: y_40 + y_87 + y_92 - z_2183 >= 0
 c2185: y_37 + y_45 + y_73 + y_96 - z_2184 >= 0
 c2186: y_9 + y_11 + y_26 + y_67 + y_68 + y_69 + y_97 - z_2185 >= 0
 c2187: y_7 + y_31 + y_51 + y_62 + y_89 - z_2186 >= 0
 c2188: y_40 + y_85 + y_92 - z_2187 >= 0
 c2189: y_5 + y_6 + y_58 + y_90 + y_91 - z_2188 >= 0
 c2190: y_3 + y_19 + y_21 + y_33 + y_38 + y_41 + y_44 + y_48 + y_79 - z_2189
         >= 0
 c2191: y_1 + y_8 + y_73 + y_75 + y_80 + y_96 - z_2190 >= 0
 c2192: y_11 + y_26 + y_52 + y_59 + y_67 + y_68 + y_69 + y_97 - z_2191 >= 0
 c2193: y_2 + y_55 + y_83 + y_85 - z_2192 >= 0
 c2194: y_0 + y_27 + y_42 + y_53 + y_55 + y_63 + y_64 - z_2193 >= 0
 c2195: y_37 + y_45 + y_73 + y_89 + y_99 - z_2194 >= 0
 c2196: y_8 + y_15 + y_20 + y_34 + y_46 + y_61 + y_75 + y_79 + y_80 + y_93
        + y_95 - z_2195 >= 0
 c2197: y_12 + y_22 + y_57 + y_88 - z_2196 >= 0
 c2198: y_14 + y_27 - z_2197 >= 0
 c2199: y_3 + y_4 + y_5 + y_19 + y_33 + y_38 + y_44 + y_90 - z_2198 >= 0
 c2200: y_50 + y_56 + y_66 + y_87 - z_2199 >= 0
 c2201: y_4 + y_6 + y_26 + y_32 + y_90 - z_2200 >= 0
 c2202: y_0 + y_2 + y_14 + y_27 + y_42 + y_55 + y_82 - z_2201 >= 0
 c2203: y_5 + y_20 + y_34 + y_44 + y_61 + y_80 + y_93 - z_2202 >= 0
 c2204: y_18 + y_21 + y_36 + y_41 + y_47 + y_48 + y_94 - z_2203 >= 0
 c2205: y_9 + y_11 + y_26 + y_38 + y_67 + y_68 + y_69 + y_97 - z_2204 >= 0
 c2206: y_1 + y_8 + y_23 + y_46 + y_49 + y_73 + y_75 - z_2205 >= 0
 c2207: y_3 + y_15 + y_18 + y_20 + y_21 + y_33 + y_36 + y_41 + y_47 + y_48
        + y_61 + y_79 + y_93 - z_2206 >= 0
 c2208: y_16 + y_39 + y_40 + y_54 + y_63 + y_66 + y_87 - z_2207 >= 0
 c2209: y_12 + y_71 + y_88 - z_2208 >= 0
 c2210: y_23 + y_46 + y_49 + y_74 + y_98 - z_2209 >= 0
 c2211: y_10 + y_57 + y_72 + y_76 + y_78 + y_81 + y_88 - z_2210 >= 0
 c2212: y_16 + y_39 + y_42 + y_53 + y_54 + y_55 + y_63 + y_64 - z_2211 >= 0
 c2213: y_8 + y_75 + y_80 + y_93 + y_96 - z_2212 >= 0
 c2214: y_46 + y_49 + y_74 - z_2213 >= 0
 c2215: y_29 + y_56 + y_65 - z_2214 >= 0
 c2216: y_4 + y_9 + y_26 + y_32 + y_38 + y_44 + y_67 + y_69 - z_2215 >= 0
 c2217: y_40 + y_87 + y_92 - z_2216 >= 0
 c2218: y_2 + y_14 + y_82 + y_83 + y_85 - z_2217 >= 0
 c2219: y_0 + y_27 + y_42 + y_55 + y_63 + y_64 - z_2218 >= 0
 c2220: y_11 + y_24 + y_30 + y_43 + y_52 + y_59 + y_70 + y_86 - z_2219 >= 0
 c2221: y_11 + y_24 + y_52 + y_68 + y_70 + y_86 + y_97 - z_2220 >= 0
 c2222: y_0 + y_17 + y_53 + y_63 + y_64 - z_2221 >= 0
 c2223: y_16 + y_39 + y_53 + y_54 + y_55 + y_58 + y_63 + y_64 + y_91 - z_2222
         >= 0
 c2224: y_1 + y_8 + y_73 + y_75 + y_96 - z_2223 >= 0
 c2225: y_0 + y_42 + y_53 + y_55 + y_63 + y_64 - z_2224 >= 0
 c2226: y_1 + y_46 + y_49 + y_74 + y_75 + y_80 + y_95 - z_2225 >= 0
 c2227: y_0 + y_16 + y_39 + y_42 + y_53 + y_54 + y_55 + y_63 + y_64 - z_2226
         >= 0
 c2228: y_12 + y_22 + y_57 + y_72 + y_88 - z_2227 >= 0
 c2229: y_11 + y_24 + y_52 + y_59 + y_67 + y_68 + y_69 + y_70 + y_86 + y_97
        - z_2228 >= 0
 c2230: y_6 + y_22 + y_90 - z_2229 >= 0
 c2231: y_45 - z_2230 >= 0
 c2232: y_9 + y_11 + y_26 + y_67 + y_68 + y_69 + y_97 - z_2231 >= 0
 c2233: y_92 - z_2232 >= 0
 c2234: y_0 + y_45 - z_2233 >= 0
 c2235: y_21 + y_30 + y_36 + y_47 + y_94 - z_2234 >= 0
 c2236: y_58 - z_2235 >= 0
 c2237: y_2 + y_27 + y_42 + y_55 + y_83 - z_2236 >= 0
 c2238: y_0 + y_45 - z_2237 >= 0
 c2239: y_5 + y_8 + y_17 + y_34 + y_91 + y_96 - z_2238 >= 0
 c2240: y_12 + y_22 + y_57 + y_88 - z_2239 >= 0
 c2241: y_11 + y_24 + y_52 + y_59 + y_68 + y_70 + y_86 - z_2240 >= 0
 c2242: y_3 + y_11 + y_19 + y_26 + y_33 + y_38 + y_43 + y_44 + y_67 + y_68
        + y_69 - z_2241 >= 0
 c2243: y_4 + y_6 + y_12 + y_22 + y_32 + y_88 - z_2242 >= 0
 c2244: y_12 + y_57 + y_72 + y_88 - z_2243 >= 0
 c2245: y_4 + y_6 + y_32 + y_90 - z_2244 >= 0
 c2246: y_0 + y_27 + y_42 + y_55 + y_64 - z_2245 >= 0
 c2247: y_11 + y_24 + y_43 + y_52 + y_59 + y_68 + y_70 + y_86 - z_2246 >= 0
 c2248: y_7 + y_31 + y_37 + y_51 + y_62 + y_89 + y_99 - z_2247 >= 0
 c2249: y_7 + y_23 + y_31 + y_37 + y_51 + y_62 + y_89 + y_98 + y_99 - z_2248
         >= 0
 c2250: y_22 + y_56 + y_65 - z_2249 >= 0
 c2251: y_1 + y_23 + y_31 + y_37 + y_73 + y_89 + y_98 + y_99 - z_2250 >= 0
 c2252: y_8 + y_20 + y_34 + y_75 + y_80 + y_93 + y_96 - z_2251 >= 0
 c2253: y_71 - z_2252 >= 0
 c2254: y_4 + y_9 + y_26 + y_32 + y_38 + y_67 + y_69 - z_2253 >= 0
 c2255: y_12 + y_71 + y_88 - z_2254 >= 0
 c2256: y_13 + y_28 + y_60 + y_76 + y_78 + y_81 - z_2255 >= 0
 c2257: y_22 + y_57 + y_65 + y_72 - z_2256 >= 0
 c2258: y_45 + y_96 - z_2257 >= 0
 c2259: y_23 + y_46 + y_49 + y_74 + y_98 - z_2258 >= 0
 c2260: y_83 + y_84 + y_85 - z_2259 >= 0
 c2261: y_5 + y_15 + y_20 + y_33 + y_34 + y_44 + y_48 + y_61 + y_79 + y_80
        + y_93 - z_2260 >= 0
 c2262: y_4 + y_6 + y_26 + y_32 + y_44 + y_90 - z_2261 >= 0
 c2263: y_16 + y_39 + y_40 + y_54 + y_63 + y_66 + y_87 - z_2262 >= 0
 c2264: y_4 + y_5 + y_6 + y_32 + y_90 - z_2263 >= 0
 c2265: y_9 + y_11 + y_26 + y_67 + y_68 + y_69 + y_97 - z_2264 >= 0
 c2266: y_23 + y_49 + y_74 + y_98 - z_2265 >= 0
 c2267: y_39 + y_53 + y_58 + y_91 - z_2266 >= 0
 c2268: y_17 + y_53 + y_91 + y_96 - z_2267 >= 0
 c2269: y_1 + y_7 + y_23 + y_31 + y_37 + y_51 + y_62 + y_73 + y_89 + y_98 + y_99
        - z_2268 >= 0
 c2270: y_24 + y_30 + y_43 + y_52 + y_59 + y_70 + y_94 - z_2269 >= 0
 c2271: y_57 + y_65 + y_72 - z_2270 >= 0
 c2272: y_9 + y_71 - z_2271 >= 0
 c2273: y_15 + y_18 + y_21 + y_36 + y_41 + y_47 + y_48 + y_79 + y_95 - z_2272
         >= 0
 c2274: y_10 + y_13 + y_57 + y_60 + y_72 + y_76 + y_78 + y_81 - z_2273 >= 0
 c2275: y_83 + y_84 + y_85 - z_2274 >= 0
 c2276: y_12 + y_22 + y_57 + y_88 - z_2275 >= 0
 c2277: y_0 + y_17 + y_96 - z_2276 >= 0
 c2278: y_0 + y_27 + y_42 - z_2277 >= 0
 c2279: y_0 + y_27 + y_42 + y_55 + y_63 + y_64 - z_2278 >= 0
 c2280: y_7 + y_23 + y_31 + y_51 + y_62 + y_89 + y_98 + y_99 - z_2279 >= 0
 c2281: y_9 + y_11 + y_26 + y_67 + y_68 + y_69 + y_97 - z_2280 >= 0
 c2282: y_37 + y_45 + y_96 - z_2281 >= 0
 c2283: y_9 + y_12 + y_32 + y_71 - z_2282 >= 0
 c2284: y_13 + y_28 + y_60 + y_76 - z_2283 >= 0
 c2285: y_22 + y_65 - z_2284 >= 0
 c2286: y_37 + y_45 - z_2285 >= 0
 c2287: y_25 + y_29 + y_35 + y_77 - z_2286 >= 0
 c2288: y_13 + y_28 + y_60 + y_76 - z_2287 >= 0
 c2289: y_2 + y_14 + y_27 + y_42 + y_82 - z_2288 >= 0
 c2290: y_3 + y_11 + y_19 + y_30 + y_38 + y_43 + y_48 + y_52 + y_59 + y_69
        - z_2289 >= 0
 c2291: y_4 + y_6 + y_22 + y_32 + y_90 - z_2290 >= 0
 c2292: y_13 + y_60 + y_72 + y_76 - z_2291 >= 0
 c2293: y_2 + y_14 + y_82 + y_83 + y_84 - z_2292 >= 0
 c2294: y_15 + y_20 + y_33 + y_34 + y_41 + y_48 + y_61 + y_75 + y_79 + y_80
        + y_93 + y_95 - z_2293 >= 0
 c2295: y_39 + y_53 + y_58 + y_91 - z_2294 >= 0
 c2296: y_8 + y_17 + y_96 - z_2295 >= 0
 c2297: y_4 + y_9 + y_26 + y_32 + y_71 - z_2296 >= 0
 c2298: y_12 + y_22 + y_57 + y_65 + y_72 + y_78 + y_88 - z_2297 >= 0
 c2299: y_10 + y_12 + y_57 + y_72 + y_88 - z_2298 >= 0
 c2300: y_4 + y_6 + y_22 + y_32 + y_90 - z_2299 >= 0
 c2301: y_16 + y_39 + y_40 + y_54 + y_55 + y_63 + y_64 + y_66 + y_87 - z_2300
         >= 0
 c2302: y_10 + y_57 + y_60 + y_72 + y_76 + y_78 + y_81 - z_2301 >= 0
 c2303: y_22 + y_57 + y_65 + y_72 - z_2302 >= 0
 c2304: y_22 + y_57 + y_65 + y_72 - z_2303 >= 0
 c2305: y_5 + y_17 + y_34 + y_91 - z_2304 >= 0
 c2306: y_11 + y_24 + y_52 + y_59 + y_67 + y_68 + y_69 + y_70 + y_86 + y_97
        - z_2305 >= 0
 c2307: y_10 + y_78 - z_2306 >= 0
 c2308: y_83 + y_84 + y_85 - z_2307 >= 0
 c2309: y_58 + y_91 - z_2308 >= 0
 c2310: y_85 + y_92 - z_2309 >= 0
 c2311: y_0 + y_27 + y_45 - z_2310 >= 0
 c2312: y_25 + y_35 + y_77 + y_92 - z_2311 >= 0
 c2313: y_11 + y_52 + y_67 + y_68 + y_69 + y_86 + y_97 - z_2312 >= 0
 c2314: y_65 + y_72 - z_2313 >= 0
 c2315: y_4 + y_9 + y_26 + y_32 + y_71 - z_2314 >= 0
 c2316: y_8 + y_15 + y_20 + y_46 + y_49 + y_61 + y_74 + y_75 + y_80 + y_93
        + y_95 - z_2315 >= 0
 c2317: y_1 + y_37 + y_73 + y_96 - z_2316 >= 0
 c2318: y_10 + y_13 + y_28 + y_60 + y_72 + y_76 + y_78 + y_81 - z_2317 >= 0
 c2319: y_0 + y_27 + y_42 + y_55 - z_2318 >= 0
 c2320: y_6 + y_22 - z_2319 >= 0
 c2321: y_0 + y_45 - z_2320 >= 0
 c2322: y_30 + y_43 + y_52 + y_59 + y_94 - z_2321 >= 0
 c2323: y_2 + y_40 + y_55 + y_83 + y_85 + y_92 - z_2322 >= 0
 c2324: y_10 + y_78 - z_2323 >= 0
 c2325: y_8 + y_15 + y_20 + y_46 + y_49 + y_61 + y_75 + y_80 + y_93 + y_95
        - z_2324 >= 0
 c2326: y_4 + y_6 + y_22 + y_32 + y_90 - z_2325 >= 0
 c2327: y_21 + y_30 + y_43 + y_52 + y_59 + y_94 - z_2326 >= 0
 c2328: y_16 + y_50 + y_54 + y_56 + y_58 + y_66 - z_2327 >= 0
 c2329: y_1 + y_8 + y_46 + y_73 + y_75 - z_2328 >= 0
 c2330: y_15 + y_18 + y_20 + y_21 + y_36 + y_41 + y_47 + y_48 + y_61 + y_79
        + y_93 + y_95 - z_2329 >= 0
 c2331: y_29 - z_2330 >= 0
 c2332: y_40 + y_54 + y_66 + y_87 + y_92 - z_2331 >= 0
 c2333: y_1 + y_8 + y_23 + y_46 + y_49 + y_73 + y_75 + y_99 - z_2332 >= 0
 c2334: y_3 + y_4 + y_6 + y_19 + y_26 + y_32 + y_33 + y_38 + y_44 + y_90
        - z_2333 >= 0
 c2335: y_9 + y_11 + y_19 + y_26 + y_38 + y_67 + y_68 + y_69 - z_2334 >= 0
 c2336: y_10 + y_13 + y_28 + y_60 + y_76 + y_78 + y_81 - z_2335 >= 0
 c2337: y_12 + y_22 + y_57 + y_65 + y_72 + y_88 - z_2336 >= 0
 c2338: y_13 + y_28 + y_60 + y_76 - z_2337 >= 0
 c2339: y_25 + y_29 + y_35 + y_50 + y_56 + y_77 - z_2338 >= 0
 c2340: - z_2339 >= 0
 c2341: y_37 + y_45 - z_2340 >= 0
 c2342: y_16 + y_25 + y_40 + y_50 + y_54 + y_56 + y_66 + y_77 + y_87 - z_2341
         >= 0
 c2343: y_25 + y_29 + y_35 + y_77 - z_2342 >= 0
 c2344: y_16 + y_50 + y_54 + y_56 + y_66 + y_87 - z_2343 >= 0
 c2345: y_23 + y_98 - z_2344 >= 0
 c2346: y_10 + y_13 + y_57 + y_60 + y_72 + y_76 + y_78 + y_81 - z_2345 >= 0
 c2347: y_11 + y_24 + y_52 + y_59 + y_67 + y_68 + y_69 + y_70 + y_86 + y_97
        - z_2346 >= 0
 c2348: y_3 + y_19 + y_21 + y_33 + y_38 + y_41 + y_43 + y_44 + y_48 + y_79
        - z_2347 >= 0
 c2349: y_5 + y_8 + y_17 + y_20 + y_34 + y_75 + y_80 + y_93 - z_2348 >= 0
 c2350: y_3 + y_15 + y_20 + y_21 + y_33 + y_34 + y_41 + y_48 + y_61 + y_79
        + y_80 + y_93 - z_2349 >= 0
 c2351: y_4 + y_6 + y_32 + y_90 - z_2350 >= 0
 c2352: y_45 - z_2351 >= 0
 c2353: y_85 + y_92 - z_2352 >= 0
 c2354: y_16 + y_39 + y_40 + y_50 + y_54 + y_56 + y_66 + y_87 - z_2353 >= 0
 c2355: y_11 + y_24 + y_43 + y_52 + y_59 + y_68 + y_70 + y_86 - z_2354 >= 0
 c2356: - z_2355 >= 0
 c2357: y_15 + y_18 + y_20 + y_21 + y_36 + y_41 + y_46 + y_47 + y_48 + y_61
        + y_79 + y_80 + y_93 + y_95 - z_2356 >= 0
 c2358: y_13 + y_28 + y_60 + y_76 - z_2357 >= 0
 c2359: y_37 + y_45 + y_73 + y_89 + y_99 - z_2358 >= 0
 c2360: y_3 + y_19 + y_26 + y_33 + y_38 + y_44 + y_48 + y_69 - z_2359 >= 0
 c2361: y_17 + y_39 + y_53 + y_55 + y_63 + y_64 + y_91 - z_2360 >= 0
 c2362: y_1 + y_31 + y_37 + y_73 + y_89 + y_99 - z_2361 >= 0
 c2363: y_13 + y_57 + y_65 + y_72 - z_2362 >= 0
 c2364: y_8 + y_15 + y_20 + y_46 + y_49 + y_61 + y_75 + y_79 + y_80 + y_93
        + y_95 - z_2363 >= 0
 c2365: y_83 + y_84 + y_85 - z_2364 >= 0
 c2366: y_16 + y_39 + y_40 + y_50 + y_54 + y_66 + y_87 - z_2365 >= 0
 c2367: y_5 + y_17 + y_53 + y_58 + y_91 - z_2366 >= 0
 c2368: y_0 + y_27 + y_42 + y_55 + y_63 + y_64 - z_2367 >= 0
 c2369: y_16 + y_39 + y_53 + y_54 + y_58 + y_91 - z_2368 >= 0
 c2370: y_5 + y_8 + y_17 + y_34 + y_80 + y_93 - z_2369 >= 0
 c2371: y_3 + y_19 + y_21 + y_30 + y_43 + y_48 + y_52 + y_59 + y_94 - z_2370
         >= 0
 c2372: y_8 + y_15 + y_20 + y_46 + y_49 + y_75 + y_80 + y_93 + y_95 - z_2371
         >= 0
 c2373: y_1 + y_23 + y_46 + y_49 + y_73 + y_75 + y_98 + y_99 - z_2372 >= 0
 c2374: y_37 + y_45 + y_73 + y_96 - z_2373 >= 0
 c2375: y_25 + y_29 + y_35 + y_50 + y_56 + y_66 + y_77 + y_87 - z_2374 >= 0
 c2376: y_22 + y_50 + y_56 + y_65 - z_2375 >= 0
 c2377: y_16 + y_40 + y_50 + y_54 + y_56 + y_66 + y_87 - z_2376 >= 0
 c2378: y_11 + y_68 + y_86 + y_97 - z_2377 >= 0
 c2379: y_5 + y_6 + y_34 + y_44 + y_90 - z_2378 >= 0
 c2380: y_16 + y_39 + y_40 + y_54 + y_63 + y_64 + y_66 + y_87 - z_2379 >= 0
 c2381: y_16 + y_39 + y_40 + y_54 + y_63 + y_66 + y_87 - z_2380 >= 0
 c2382: y_16 + y_25 + y_50 + y_54 + y_56 + y_66 + y_77 + y_87 - z_2381 >= 0
 c2383: y_0 + y_27 + y_42 + y_55 + y_63 + y_64 - z_2382 >= 0
 c2384: y_16 + y_39 + y_50 + y_54 + y_56 + y_58 + y_66 + y_87 - z_2383 >= 0
 c2385: y_40 + y_87 + y_92 - z_2384 >= 0
 c2386: y_7 + y_23 + y_31 + y_51 + y_62 + y_98 - z_2385 >= 0
 c2387: y_9 + y_71 - z_2386 >= 0
 c2388: y_1 + y_73 + y_75 + y_99 - z_2387 >= 0
 c2389: y_4 + y_5 + y_6 + y_33 + y_34 + y_44 + y_90 - z_2388 >= 0
 c2390: y_15 + y_18 + y_21 + y_36 + y_41 + y_47 + y_48 + y_79 + y_94 - z_2389
         >= 0
 c2391: y_1 + y_73 + y_75 + y_99 - z_2390 >= 0
 c2392: y_12 + y_22 + y_57 + y_72 + y_88 - z_2391 >= 0
 c2393: y_10 + y_13 + y_60 + y_76 + y_78 + y_81 - z_2392 >= 0
 c2394: y_12 + y_71 + y_88 - z_2393 >= 0
 c2395: y_1 + y_8 + y_46 + y_73 + y_75 + y_96 + y_99 - z_2394 >= 0
 c2396: y_0 + y_39 + y_42 + y_53 + y_55 + y_63 + y_64 - z_2395 >= 0
 c2397: y_10 + y_76 + y_78 + y_81 - z_2396 >= 0
 c2398: y_8 + y_15 + y_20 + y_46 + y_49 + y_61 + y_75 + y_80 + y_93 + y_95
        - z_2397 >= 0
 c2399: y_16 + y_25 + y_35 + y_40 + y_50 + y_54 + y_56 + y_66 + y_77 + y_87
        - z_2398 >= 0
 c2400: y_10 + y_57 + y_60 + y_72 + y_76 + y_78 + y_81 - z_2399 >= 0
 c2401: y_29 - z_2400 >= 0
 c2402: y_12 + y_22 + y_57 + y_65 + y_72 + y_88 - z_2401 >= 0
 c2403: y_25 + y_29 + y_35 + y_77 + y_92 - z_2402 >= 0
 c2404: y_24 + y_30 + y_43 + y_52 + y_59 + y_70 + y_86 - z_2403 >= 0
 c2405: y_17 + y_53 + y_91 + y_96 - z_2404 >= 0
 c2406: y_0 + y_27 + y_42 - z_2405 >= 0
 c2407: y_29 - z_2406 >= 0
 c2408: y_0 + y_16 + y_39 + y_42 + y_54 + y_55 + y_63 + y_64 - z_2407 >= 0
 c2409: y_11 + y_19 + y_30 + y_43 + y_52 + y_59 + y_68 + y_69 - z_2408 >= 0
 c2410: y_23 + y_49 + y_74 + y_98 - z_2409 >= 0
 c2411: y_17 + y_39 + y_53 + y_58 + y_63 + y_91 - z_2410 >= 0
 c2412: y_3 + y_4 + y_5 + y_6 + y_33 + y_34 + y_38 + y_44 + y_90 - z_2411 >= 0
 c2413: y_23 + y_49 + y_74 + y_98 - z_2412 >= 0
 c2414: y_50 + y_56 - z_2413 >= 0
 c2415: y_4 + y_9 + y_12 + y_26 + y_32 + y_71 - z_2414 >= 0
 c2416: y_17 + y_53 + y_58 + y_91 - z_2415 >= 0
 c2417: y_8 + y_15 + y_20 + y_34 + y_46 + y_61 + y_75 + y_79 + y_80 + y_93
        + y_95 - z_2416 >= 0
 c2418: y_2 + y_83 + y_85 - z_2417 >= 0
 c2419: y_23 + y_49 + y_74 + y_98 - z_2418 >= 0
 c2420: y_12 + y_71 + y_88 - z_2419 >= 0
 c2421: y_25 + y_29 + y_35 + y_77 - z_2420 >= 0
 c2422: y_1 + y_23 + y_31 + y_73 + y_89 + y_98 + y_99 - z_2421 >= 0
 c2423: y_9 + y_71 - z_2422 >= 0
 c2424: y_12 + y_22 + y_57 + y_72 + y_78 + y_88 - z_2423 >= 0
 c2425: y_15 + y_18 + y_21 + y_36 + y_41 + y_47 + y_48 + y_79 - z_2424 >= 0
 c2426: - z_2425 >= 0
 c2427: y_3 + y_5 + y_33 + y_34 + y_38 + y_44 + y_90 - z_2426 >= 0
 c2428: y_40 + y_92 - z_2427 >= 0
 c2429: y_16 + y_40 + y_54 + y_66 + y_87 + y_92 - z_2428 >= 0
 c2430: y_3 + y_15 + y_19 + y_21 + y_33 + y_36 + y_38 + y_41 + y_44 + y_47
        + y_48 + y_61 + y_79 - z_2429 >= 0
 c2431: y_1 + y_23 + y_46 + y_49 + y_74 + y_95 + y_98 - z_2430 >= 0
 c2432: y_22 + y_56 + y_57 + y_65 - z_2431 >= 0
 c2433: y_16 + y_40 + y_54 + y_66 + y_87 + y_92 - z_2432 >= 0
 c2434: y_6 + y_90 - z_2433 >= 0
 c2435: y_4 + y_9 + y_12 + y_32 + y_71 + y_88 - z_2434 >= 0
 c2436: y_37 + y_45 + y_73 + y_96 - z_2435 >= 0
 c2437: y_5 + y_8 + y_20 + y_34 + y_61 + y_75 + y_80 + y_93 - z_2436 >= 0
 c2438: y_5 + y_34 + y_61 + y_93 - z_2437 >= 0
 c2439: y_4 + y_9 + y_19 + y_26 + y_32 + y_38 + y_44 + y_67 + y_69 - z_2438 >= 
        0
 c2440: y_37 + y_45 - z_2439 >= 0
 c2441: y_16 + y_25 + y_40 + y_50 + y_54 + y_56 + y_66 + y_87 - z_2440 >= 0
 c2442: y_23 + y_46 + y_49 + y_74 + y_98 - z_2441 >= 0
 c2443: y_0 + y_27 + y_42 + y_64 - z_2442 >= 0
 c2444: y_9 + y_71 - z_2443 >= 0
 c2445: y_17 + y_39 + y_53 + y_58 + y_63 + y_91 - z_2444 >= 0
 c2446: y_22 + y_56 + y_65 - z_2445 >= 0
 c2447: y_3 + y_4 + y_5 + y_19 + y_33 + y_38 + y_44 + y_90 - z_2446 >= 0
 c2448: y_25 + y_29 + y_35 + y_77 - z_2447 >= 0
 c2449: y_7 + y_23 + y_31 + y_51 + y_98 + y_99 - z_2448 >= 0
 c2450: y_18 + y_21 + y_36 + y_41 + y_47 - z_2449 >= 0
 c2451: y_50 + y_56 + y_66 - z_2450 >= 0
 c2452: y_25 + y_35 + y_77 + y_92 - z_2451 >= 0
 c2453: y_2 + y_14 + y_82 + y_83 + y_84 + y_85 - z_2452 >= 0
 c2454: y_16 + y_40 + y_54 + y_66 + y_87 + y_92 - z_2453 >= 0
 c2455: y_96 - z_2454 >= 0
 c2456: y_0 + y_27 + y_42 + y_55 + y_64 - z_2455 >= 0
 c2457: y_96 - z_2456 >= 0
 c2458: y_3 + y_4 + y_5 + y_6 + y_19 + y_33 + y_38 + y_44 + y_90 - z_2457 >= 0
 c2459: y_27 - z_2458 >= 0
 c2460: y_4 + y_9 + y_26 + y_32 + y_71 - z_2459 >= 0
 c2461: y_0 + y_45 - z_2460 >= 0
 c2462: y_2 + y_14 + y_27 + y_42 + y_55 + y_83 - z_2461 >= 0
 c2463: y_12 + y_22 + y_57 + y_88 - z_2462 >= 0
 c2464: y_30 + y_43 + y_59 + y_94 - z_2463 >= 0
 c2465: y_3 + y_19 + y_33 + y_38 + y_44 + y_48 - z_2464 >= 0
 c2466: y_7 + y_31 + y_37 + y_51 + y_62 + y_89 + y_99 - z_2465 >= 0
 c2467: y_9 + y_71 - z_2466 >= 0
 c2468: y_7 + y_23 + y_31 + y_51 + y_98 - z_2467 >= 0
 c2469: y_0 + y_17 + y_53 + y_63 + y_64 - z_2468 >= 0
 c2470: y_4 + y_9 + y_26 + y_32 + y_71 - z_2469 >= 0
 c2471: y_24 + y_70 + y_86 - z_2470 >= 0
 c2472: y_7 + y_31 + y_37 + y_51 + y_62 + y_89 + y_99 - z_2471 >= 0
 c2473: y_16 + y_39 + y_50 + y_54 + y_56 + y_58 + y_66 - z_2472 >= 0
 c2474: y_5 + y_6 + y_58 + y_90 + y_91 - z_2473 >= 0
 c2475: y_73 + y_96 - z_2474 >= 0
 c2476: y_9 + y_26 + y_67 + y_71 + y_97 - z_2475 >= 0
 c2477: y_11 + y_24 + y_30 + y_43 + y_52 + y_59 + y_68 + y_70 + y_86 - z_2476
         >= 0
 c2478: y_0 + y_2 + y_27 + y_42 + y_55 + y_64 - z_2477 >= 0
 c2479: y_29 + y_65 - z_2478 >= 0
 c2480: y_3 + y_4 + y_19 + y_26 + y_33 + y_38 + y_44 - z_2479 >= 0
 c2481: y_0 + y_2 + y_27 + y_42 + y_55 + y_64 - z_2480 >= 0
 c2482: y_15 + y_20 + y_21 + y_33 + y_36 + y_41 + y_47 + y_48 + y_61 + y_79
        + y_80 + y_93 + y_95 - z_2481 >= 0
 c2483: y_0 + y_2 + y_27 + y_42 + y_55 + y_64 - z_2482 >= 0
 c2484: y_73 + y_96 - z_2483 >= 0
 c2485: y_1 + y_23 + y_49 + y_74 + y_98 + y_99 - z_2484 >= 0
 c2486: y_11 + y_19 + y_38 + y_43 + y_52 + y_59 + y_67 + y_68 + y_69 - z_2485
         >= 0
 c2487: y_2 + y_14 + y_82 + y_83 + y_84 + y_85 - z_2486 >= 0
 c2488: y_17 + y_39 + y_53 + y_58 + y_63 + y_91 - z_2487 >= 0
 c2489: y_25 + y_29 + y_35 + y_77 - z_2488 >= 0
 c2490: y_2 + y_14 + y_82 + y_83 + y_84 + y_85 - z_2489 >= 0
 c2491: y_92 - z_2490 >= 0
 c2492: y_1 + y_23 + y_31 + y_46 + y_49 + y_73 + y_89 + y_98 + y_99 - z_2491
         >= 0
 c2493: y_37 + y_45 - z_2492 >= 0
 c2494: y_10 + y_12 + y_57 + y_72 + y_78 + y_88 - z_2493 >= 0
 c2495: y_0 + y_42 + y_53 + y_55 + y_63 + y_64 - z_2494 >= 0
 c2496: y_45 - z_2495 >= 0
 c2497: y_17 + y_39 + y_53 + y_63 + y_64 + y_91 - z_2496 >= 0
 c2498: y_4 + y_5 + y_6 + y_32 + y_44 + y_90 - z_2497 >= 0
 c2499: y_40 + y_55 + y_83 + y_92 - z_2498 >= 0
 c2500: y_4 + y_9 + y_26 + y_32 + y_71 - z_2499 >= 0
 c2501: y_10 + y_12 + y_57 + y_72 + y_88 - z_2500 >= 0
 c2502: y_29 - z_2501 >= 0
 c2503: y_18 + y_21 + y_36 + y_41 + y_47 - z_2502 >= 0
 c2504: y_15 + y_18 + y_20 + y_21 + y_36 + y_41 + y_47 + y_48 + y_61 + y_79
        + y_95 - z_2503 >= 0
 c2505: y_12 + y_71 + y_88 - z_2504 >= 0
 c2506: y_11 + y_52 + y_67 + y_68 + y_69 + y_97 - z_2505 >= 0
 c2507: y_3 + y_15 + y_18 + y_20 + y_21 + y_33 + y_36 + y_41 + y_47 + y_48
        + y_61 + y_79 + y_93 - z_2506 >= 0
 c2508: y_16 + y_39 + y_53 + y_54 + y_58 + y_63 + y_64 + y_66 + y_91 - z_2507
         >= 0
 c2509: y_15 + y_20 + y_33 + y_34 + y_41 + y_48 + y_61 + y_75 + y_79 + y_80
        + y_93 + y_95 - z_2508 >= 0
 c2510: y_16 + y_39 + y_40 + y_54 + y_63 + y_66 + y_87 - z_2509 >= 0
 c2511: y_4 + y_9 + y_26 + y_32 - z_2510 >= 0
 c2512: y_1 + y_7 + y_23 + y_31 + y_49 + y_51 + y_89 + y_98 + y_99 - z_2511 >= 
        0
 c2513: y_10 + y_13 + y_60 + y_72 + y_76 + y_78 + y_81 - z_2512 >= 0
 c2514: y_15 + y_20 + y_21 + y_33 + y_36 + y_41 + y_47 + y_48 + y_61 + y_79
        + y_80 + y_93 + y_95 - z_2513 >= 0
 c2515: y_3 + y_5 + y_6 + y_33 + y_34 + y_38 + y_44 + y_90 - z_2514 >= 0
 c2516: y_4 + y_6 + y_32 + y_90 - z_2515 >= 0
 c2517: y_37 + y_89 - z_2516 >= 0
 c2518: y_17 + y_53 + y_58 + y_91 - z_2517 >= 0
 c2519: y_23 + y_49 + y_74 + y_98 - z_2518 >= 0
 c2520: y_3 + y_19 + y_21 + y_33 + y_38 + y_41 + y_43 + y_44 + y_48 + y_79
        - z_2519 >= 0
 c2521: y_6 + y_22 - z_2520 >= 0
 c2522: y_8 + y_15 + y_20 + y_46 + y_49 + y_61 + y_75 + y_79 + y_80 + y_93
        + y_95 - z_2521 >= 0
 c2523: y_22 + y_57 + y_65 + y_72 - z_2522 >= 0
 c2524: y_3 + y_11 + y_19 + y_26 + y_38 + y_67 + y_68 + y_69 - z_2523 >= 0
 c2525: y_7 + y_31 + y_37 + y_51 + y_62 + y_89 + y_99 - z_2524 >= 0
 c2526: y_10 + y_60 + y_76 + y_78 + y_81 - z_2525 >= 0
 c2527: y_3 + y_15 + y_20 + y_21 + y_33 + y_36 + y_41 + y_47 + y_48 + y_61
        + y_79 + y_93 - z_2526 >= 0
 c2528: y_9 + y_12 + y_71 + y_88 - z_2527 >= 0
 c2529: y_9 + y_71 - z_2528 >= 0
 c2530: y_4 + y_6 + y_12 + y_22 + y_32 + y_88 - z_2529 >= 0
 c2531: y_3 + y_4 + y_9 + y_19 + y_26 + y_32 + y_38 + y_44 + y_67 + y_69
        - z_2530 >= 0
 c2532: y_2 + y_14 + y_27 + y_42 + y_82 + y_83 - z_2531 >= 0
 c2533: y_6 + y_22 + y_90 - z_2532 >= 0
 c2534: y_40 + y_87 + y_92 - z_2533 >= 0
 c2535: y_25 + y_29 + y_35 + y_77 - z_2534 >= 0
 c2536: y_7 + y_31 + y_37 + y_51 + y_62 + y_89 + y_98 + y_99 - z_2535 >= 0
 c2537: y_4 + y_5 + y_6 + y_90 - z_2536 >= 0
 c2538: y_8 + y_17 + y_75 + y_80 + y_96 - z_2537 >= 0
 c2539: y_1 + y_23 + y_46 + y_49 + y_74 + y_98 + y_99 - z_2538 >= 0
 c2540: y_3 + y_5 + y_19 + y_20 + y_33 + y_34 + y_38 + y_41 + y_44 + y_48 + y_61
        + y_79 + y_93 - z_2539 >= 0
 c2541: y_0 + y_17 + y_39 + y_42 + y_53 + y_55 + y_63 + y_64 - z_2540 >= 0
 c2542: y_2 + y_14 + y_82 + y_83 + y_84 + y_85 - z_2541 >= 0
 c2543: y_13 - z_2542 >= 0
 c2544: y_16 + y_39 + y_40 + y_54 + y_63 + y_66 + y_87 - z_2543 >= 0
 c2545: y_46 + y_49 + y_74 + y_95 - z_2544 >= 0
 c2546: y_23 + y_46 + y_49 + y_74 + y_95 - z_2545 >= 0
 c2547: y_5 + y_8 + y_17 + y_34 - z_2546 >= 0
 c2548: y_24 + y_30 + y_43 + y_52 + y_59 + y_70 - z_2547 >= 0
 c2549: y_11 + y_24 + y_52 + y_68 + y_70 + y_86 + y_97 - z_2548 >= 0
 c2550: y_9 + y_12 + y_71 + y_88 - z_2549 >= 0
 c2551: y_83 + y_85 - z_2550 >= 0
 c2552: y_22 + y_56 + y_57 + y_65 - z_2551 >= 0
 c2553: y_18 + y_36 + y_47 + y_74 + y_95 - z_2552 >= 0
 c2554: y_0 + y_2 + y_14 + y_27 + y_42 + y_82 - z_2553 >= 0
 c2555: y_0 + y_27 + y_42 + y_55 + y_64 - z_2554 >= 0
 c2556: y_9 + y_71 - z_2555 >= 0
 c2557: y_92 - z_2556 >= 0
 c2558: y_23 + y_49 + y_74 + y_98 - z_2557 >= 0
 c2559: y_10 + y_12 + y_88 - z_2558 >= 0
 c2560: y_3 + y_11 + y_19 + y_26 + y_33 + y_38 + y_44 + y_67 + y_68 + y_69
        - z_2559 >= 0
 c2561: y_21 + y_30 + y_43 + y_59 + y_94 - z_2560 >= 0
 c2562: y_15 + y_46 + y_49 + y_74 + y_75 + y_80 + y_95 - z_2561 >= 0
 c2563: y_8 + y_15 + y_20 + y_34 + y_41 + y_46 + y_61 + y_75 + y_79 + y_80
        + y_93 + y_95 - z_2562 >= 0
 c2564: y_45 + y_96 - z_2563 >= 0
 c2565: y_18 + y_46 + y_49 + y_74 + y_95 - z_2564 >= 0
 c2566: y_12 + y_71 + y_88 - z_2565 >= 0
 c2567: y_0 + y_27 - z_2566 >= 0
 c2568: y_17 + y_96 - z_2567 >= 0
 c2569: y_3 + y_5 + y_19 + y_33 + y_34 + y_38 + y_44 + y_90 - z_2568 >= 0
 c2570: y_2 + y_27 + y_42 + y_55 + y_83 - z_2569 >= 0
 c2571: y_24 + y_52 + y_70 + y_86 - z_2570 >= 0
 c2572: y_1 + y_31 + y_37 + y_73 + y_89 + y_99 - z_2571 >= 0
 c2573: y_45 - z_2572 >= 0
 c2574: y_23 + y_46 + y_49 + y_74 + y_98 - z_2573 >= 0
 c2575: y_7 + y_23 + y_31 + y_51 + y_62 + y_98 - z_2574 >= 0
 c2576: y_16 + y_40 + y_54 + y_55 + y_66 + y_87 + y_92 - z_2575 >= 0
 c2577: y_0 + y_27 + y_42 - z_2576 >= 0
 c2578: y_9 + y_12 + y_71 + y_88 - z_2577 >= 0
 c2579: y_11 + y_24 + y_30 + y_43 + y_52 + y_59 + y_68 + y_70 + y_86 - z_2578
         >= 0
 c2580: y_11 + y_52 + y_67 + y_68 + y_69 + y_97 - z_2579 >= 0
 c2581: y_2 + y_82 + y_83 + y_85 - z_2580 >= 0
 c2582: y_3 + y_11 + y_19 + y_30 + y_38 + y_43 + y_52 + y_59 + y_68 + y_69
        - z_2581 >= 0
 c2583: y_18 + y_36 + y_47 + y_74 + y_95 - z_2582 >= 0
 c2584: y_18 + y_21 + y_36 + y_41 + y_47 + y_48 + y_79 + y_94 - z_2583 >= 0
 c2585: y_16 + y_39 + y_40 + y_54 + y_66 + y_87 + y_92 - z_2584 >= 0
 c2586: y_9 + y_11 + y_26 + y_38 + y_67 + y_68 + y_69 - z_2585 >= 0
 c2587: y_13 + y_28 + y_60 + y_76 - z_2586 >= 0
 c2588: y_25 + y_29 + y_35 + y_77 - z_2587 >= 0
 c2589: y_25 + y_35 + y_40 + y_50 + y_54 + y_56 + y_66 + y_77 + y_87 + y_92
        - z_2588 >= 0
 c2590: y_45 - z_2589 >= 0
 c2591: y_9 + y_11 + y_26 + y_67 + y_68 + y_69 + y_97 - z_2590 >= 0
 c2592: y_40 + y_92 - z_2591 >= 0
 c2593: y_11 + y_68 + y_86 + y_97 - z_2592 >= 0
 c2594: y_25 + y_29 + y_35 + y_40 + y_50 + y_54 + y_56 + y_66 + y_77 + y_87
        - z_2593 >= 0
 c2595: y_8 + y_17 + y_73 + y_96 - z_2594 >= 0
 c2596: y_37 + y_45 - z_2595 >= 0
 c2597: y_40 + y_55 + y_83 + y_92 - z_2596 >= 0
 c2598: y_50 + y_56 + y_66 - z_2597 >= 0
 c2599: y_11 + y_19 + y_43 + y_52 + y_59 + y_67 + y_68 + y_69 - z_2598 >= 0
 c2600: y_3 + y_11 + y_19 + y_30 + y_38 + y_43 + y_52 + y_59 + y_67 + y_68
        + y_69 - z_2599 >= 0
 c2601: y_12 + y_71 + y_88 - z_2600 >= 0
 c2602: y_25 + y_29 + y_35 + y_50 + y_56 + y_66 + y_77 + y_87 - z_2601 >= 0
 c2603: y_18 + y_21 + y_36 + y_41 + y_47 + y_48 + y_79 + y_94 - z_2602 >= 0
 c2604: y_24 + y_30 + y_43 + y_52 + y_59 + y_70 + y_94 - z_2603 >= 0
 c2605: y_10 + y_13 + y_28 + y_60 + y_72 + y_76 + y_78 + y_81 - z_2604 >= 0
 c2606: y_50 + y_56 + y_66 - z_2605 >= 0
 c2607: y_2 + y_40 + y_55 + y_83 + y_85 + y_92 - z_2606 >= 0
 c2608: y_3 + y_19 + y_21 + y_33 + y_38 + y_43 + y_48 - z_2607 >= 0
 c2609: y_7 + y_31 + y_37 + y_51 + y_62 + y_89 + y_99 - z_2608 >= 0
 c2610: y_37 + y_45 + y_89 - z_2609 >= 0
 c2611: y_15 + y_18 + y_21 + y_36 + y_41 + y_47 + y_48 + y_79 + y_95 - z_2610
         >= 0
 c2612: y_22 + y_56 + y_57 + y_65 - z_2611 >= 0
 c2613: y_11 + y_52 + y_67 + y_68 + y_69 + y_97 - z_2612 >= 0
 c2614: y_16 + y_39 + y_50 + y_54 + y_56 + y_66 + y_87 - z_2613 >= 0
 c2615: y_8 + y_15 + y_20 + y_46 + y_61 + y_75 + y_80 + y_93 + y_95 - z_2614
         >= 0
 c2616: y_9 + y_11 + y_26 + y_67 + y_68 + y_69 + y_97 - z_2615 >= 0
 c2617: y_9 + y_26 + y_67 + y_69 + y_71 - z_2616 >= 0
 c2618: y_45 - z_2617 >= 0
 c2619: y_25 + y_29 + y_35 + y_77 - z_2618 >= 0
 c2620: y_5 + y_20 + y_34 + y_61 + y_80 + y_93 - z_2619 >= 0
 c2621: y_24 + y_30 + y_43 + y_52 + y_59 + y_70 + y_94 - z_2620 >= 0
 c2622: y_7 + y_23 + y_31 + y_51 + y_62 + y_98 - z_2621 >= 0
 c2623: y_10 + y_13 + y_57 + y_60 + y_72 + y_76 + y_78 + y_81 - z_2622 >= 0
 c2624: y_40 + y_83 + y_85 + y_92 - z_2623 >= 0
 c2625: y_11 + y_52 + y_67 + y_68 + y_69 + y_86 + y_97 - z_2624 >= 0
 c2626: y_0 + y_96 - z_2625 >= 0
 c2627: y_40 + y_87 + y_92 - z_2626 >= 0
 c2628: y_1 + y_23 + y_46 + y_49 + y_73 + y_75 + y_98 + y_99 - z_2627 >= 0
 c2629: y_0 + y_2 + y_14 + y_27 + y_42 + y_55 + y_82 - z_2628 >= 0
 c2630: y_9 + y_71 - z_2629 >= 0
 c2631: y_10 + y_13 + y_60 + y_72 + y_76 + y_78 + y_81 - z_2630 >= 0
 c2632: y_13 + y_57 + y_65 + y_72 - z_2631 >= 0
 c2633: y_83 + y_85 + y_92 - z_2632 >= 0
 c2634: y_0 + y_27 + y_39 + y_42 + y_53 + y_55 + y_63 + y_64 - z_2633 >= 0
 c2635: y_10 + y_13 + y_57 + y_60 + y_72 + y_76 + y_78 + y_81 - z_2634 >= 0
 c2636: y_10 + y_78 - z_2635 >= 0
 c2637: y_11 + y_24 + y_30 + y_43 + y_52 + y_59 + y_68 + y_70 + y_94 - z_2636
         >= 0
 c2638: y_22 + y_57 + y_65 + y_72 - z_2637 >= 0
 c2639: y_13 + y_28 + y_60 + y_76 + y_78 + y_81 - z_2638 >= 0
 c2640: y_25 + y_29 + y_50 + y_56 + y_77 - z_2639 >= 0
 c2641: y_2 + y_14 + y_27 + y_42 + y_55 + y_82 + y_83 + y_85 - z_2640 >= 0
 c2642: y_8 + y_17 + y_96 - z_2641 >= 0
 c2643: y_6 + y_22 - z_2642 >= 0
 c2644: y_50 + y_56 + y_65 - z_2643 >= 0
 c2645: y_17 + y_53 + y_63 + y_64 + y_91 - z_2644 >= 0
 c2646: y_1 + y_8 + y_46 + y_73 + y_75 + y_99 - z_2645 >= 0
 c2647: y_23 + y_46 + y_49 + y_74 - z_2646 >= 0
 c2648: y_45 - z_2647 >= 0
 c2649: y_11 + y_67 + y_68 + y_69 + y_97 - z_2648 >= 0
 c2650: y_2 + y_14 + y_82 + y_83 + y_85 - z_2649 >= 0
 c2651: y_7 + y_31 + y_51 + y_62 + y_89 + y_99 - z_2650 >= 0
 c2652: y_25 + y_29 + y_50 + y_56 + y_66 + y_77 + y_87 - z_2651 >= 0
 c2653: y_1 + y_31 + y_37 + y_73 + y_89 + y_99 - z_2652 >= 0
 c2654: y_15 + y_18 + y_20 + y_21 + y_36 + y_41 + y_47 + y_48 + y_79 + y_95
        - z_2653 >= 0
 c2655: y_1 + y_7 + y_23 + y_31 + y_51 + y_62 + y_89 + y_98 + y_99 - z_2654 >= 
        0
 c2656: y_11 + y_67 + y_68 + y_69 + y_97 - z_2655 >= 0
 c2657: y_9 + y_11 + y_26 + y_67 + y_68 + y_69 + y_97 - z_2656 >= 0
 c2658: y_4 + y_6 + y_22 + y_32 + y_90 - z_2657 >= 0
 c2659: y_11 + y_52 + y_67 + y_68 + y_69 + y_97 - z_2658 >= 0
 c2660: y_1 + y_8 + y_46 + y_49 + y_73 + y_75 + y_80 + y_95 - z_2659 >= 0
 c2661: y_4 + y_6 + y_12 + y_22 + y_32 + y_88 - z_2660 >= 0
 c2662: y_15 + y_18 + y_36 + y_41 + y_46 + y_47 + y_49 + y_74 + y_95 - z_2661
         >= 0
 c2663: y_5 + y_6 + y_90 - z_2662 >= 0
 c2664: y_5 + y_6 + y_90 - z_2663 >= 0
 c2665: y_22 + y_57 + y_65 + y_72 + y_88 - z_2664 >= 0
 c2666: y_16 + y_39 + y_40 + y_54 + y_55 + y_63 + y_64 + y_66 + y_87 - z_2665
         >= 0
 c2667: y_13 + y_57 + y_60 + y_65 + y_72 + y_76 - z_2666 >= 0
 c2668: y_25 + y_29 + y_35 + y_77 - z_2667 >= 0
 c2669: y_7 + y_23 + y_31 + y_51 + y_62 + y_89 + y_98 + y_99 - z_2668 >= 0
 c2670: y_7 + y_31 + y_37 + y_51 + y_62 + y_89 + y_99 - z_2669 >= 0
 c2671: y_7 + y_23 + y_51 + y_98 - z_2670 >= 0
 c2672: y_15 + y_18 + y_36 + y_41 + y_46 + y_47 + y_49 + y_74 + y_95 - z_2671
         >= 0
 c2673: y_46 + y_49 + y_74 + y_95 - z_2672 >= 0
 c2674: y_3 + y_19 + y_33 + y_38 + y_44 + y_48 + y_61 + y_79 - z_2673 >= 0
 c2675: y_40 + y_92 - z_2674 >= 0
 c2676: y_15 + y_18 + y_21 + y_36 + y_41 + y_47 + y_74 + y_79 + y_95 - z_2675
         >= 0
 c2677: y_25 + y_29 + y_35 + y_50 + y_77 + y_87 - z_2676 >= 0
 c2678: y_7 + y_23 + y_31 + y_51 + y_62 + y_89 + y_98 + y_99 - z_2677 >= 0
 c2679: y_16 + y_39 + y_53 + y_54 + y_58 + y_63 + y_64 + y_66 + y_87 - z_2678
         >= 0
 c2680: y_15 + y_18 + y_21 + y_36 + y_41 + y_47 + y_48 + y_79 + y_95 - z_2679
         >= 0
 c2681: y_25 + y_35 + y_40 + y_66 + y_77 + y_87 + y_92 - z_2680 >= 0
 c2682: y_11 + y_19 + y_43 + y_52 + y_59 + y_67 + y_68 + y_69 - z_2681 >= 0
 c2683: y_4 + y_6 + y_26 + y_32 + y_38 + y_44 + y_90 - z_2682 >= 0
 c2684: y_0 + y_2 + y_27 + y_42 + y_55 + y_83 - z_2683 >= 0
 c2685: y_8 + y_15 + y_20 + y_34 + y_41 + y_46 + y_48 + y_61 + y_75 + y_79
        + y_80 + y_93 + y_95 - z_2684 >= 0
 c2686: y_10 + y_12 + y_88 - z_2685 >= 0
 c2687: y_73 + y_96 - z_2686 >= 0
 c2688: y_4 + y_6 + y_12 + y_22 + y_32 + y_88 - z_2687 >= 0
 c2689: y_5 + y_8 + y_20 + y_34 + y_61 + y_75 + y_80 + y_93 - z_2688 >= 0
 c2690: y_13 + y_57 + y_60 + y_65 + y_72 + y_76 + y_78 + y_81 - z_2689 >= 0
 c2691: y_1 + y_8 + y_73 + y_75 + y_96 - z_2690 >= 0
 c2692: y_57 + y_65 + y_72 + y_76 + y_78 + y_88 - z_2691 >= 0
 c2693: y_85 + y_92 - z_2692 >= 0
 c2694: y_12 + y_22 + y_57 + y_88 - z_2693 >= 0
 c2695: y_3 + y_4 + y_19 + y_26 + y_32 + y_33 + y_38 + y_44 + y_90 - z_2694 >= 
        0
 c2696: y_21 + y_30 + y_36 + y_41 + y_43 + y_47 + y_94 - z_2695 >= 0
 c2697: y_0 + y_64 - z_2696 >= 0
 c2698: y_40 + y_83 + y_85 + y_92 - z_2697 >= 0
 c2699: y_9 + y_26 + y_67 + y_69 + y_71 - z_2698 >= 0
 c2700: y_3 + y_4 + y_5 + y_6 + y_32 + y_33 + y_38 + y_44 + y_90 - z_2699 >= 0
 c2701: y_6 + y_58 + y_90 - z_2700 >= 0
 c2702: y_2 + y_14 + y_82 + y_83 + y_84 - z_2701 >= 0
 c2703: y_10 + y_12 + y_57 + y_72 + y_78 + y_81 + y_88 - z_2702 >= 0
 c2704: y_5 + y_8 + y_17 + y_34 + y_75 + y_80 + y_96 - z_2703 >= 0
 c2705: y_7 + y_31 + y_37 + y_51 + y_89 + y_99 - z_2704 >= 0
 c2706: y_1 + y_37 + y_45 + y_73 + y_89 + y_96 + y_99 - z_2705 >= 0
 c2707: y_25 + y_29 + y_35 + y_77 - z_2706 >= 0
 c2708: y_2 + y_14 + y_27 + y_82 - z_2707 >= 0
 c2709: y_10 + y_13 + y_28 + y_60 + y_76 + y_78 + y_81 - z_2708 >= 0
 c2710: y_16 + y_39 + y_53 + y_54 + y_58 + y_63 + y_64 + y_91 - z_2709 >= 0
 c2711: y_23 + y_98 - z_2710 >= 0
 c2712: y_4 + y_6 + y_26 + y_32 + y_38 + y_44 + y_90 - z_2711 >= 0
 c2713: y_25 + y_29 + y_35 + y_77 - z_2712 >= 0
 c2714: y_17 + y_96 - z_2713 >= 0
 c2715: y_40 + y_87 + y_92 - z_2714 >= 0
 c2716: y_13 + y_60 + y_72 + y_76 - z_2715 >= 0
 c2717: y_16 + y_25 + y_50 + y_54 + y_56 + y_66 + y_77 + y_87 - z_2716 >= 0
 c2718: y_4 + y_6 + y_26 + y_32 + y_38 + y_44 + y_90 - z_2717 >= 0
 c2719: y_15 + y_18 + y_21 + y_36 + y_41 + y_47 + y_48 + y_79 + y_95 - z_2718
         >= 0
 c2720: y_4 + y_12 + y_22 + y_32 + y_88 - z_2719 >= 0
 c2721: y_40 + y_87 + y_92 - z_2720 >= 0
 c2722: y_13 + y_57 + y_60 + y_72 + y_76 + y_78 + y_81 - z_2721 >= 0
 c2723: y_13 + y_28 + y_60 + y_76 + y_78 + y_81 - z_2722 >= 0
 c2724: y_29 + y_50 + y_56 + y_65 - z_2723 >= 0
 c2725: y_13 - z_2724 >= 0
 c2726: y_25 + y_29 + y_35 + y_77 + y_87 + y_92 - z_2725 >= 0
 c2727: y_11 + y_24 + y_52 + y_59 + y_68 + y_70 + y_86 - z_2726 >= 0
 c2728: y_17 + y_53 + y_91 + y_96 - z_2727 >= 0
 c2729: y_0 + y_27 - z_2728 >= 0
 c2730: y_9 + y_26 + y_67 + y_68 + y_69 + y_97 - z_2729 >= 0
 c2731: y_16 + y_50 + y_56 + y_58 + y_66 - z_2730 >= 0
 c2732: y_23 + y_49 + y_74 + y_98 - z_2731 >= 0
 c2733: y_25 + y_29 + y_35 + y_77 + y_87 - z_2732 >= 0
 c2734: y_25 + y_35 + y_77 + y_92 - z_2733 >= 0
 c2735: y_7 + y_31 + y_37 + y_51 + y_62 + y_89 + y_99 - z_2734 >= 0
 c2736: y_5 + y_20 + y_33 + y_34 + y_44 + y_61 + y_93 - z_2735 >= 0
 c2737: y_37 + y_45 - z_2736 >= 0
 c2738: y_83 + y_85 - z_2737 >= 0
 c2739: y_16 + y_39 + y_40 + y_54 + y_55 + y_63 + y_64 + y_66 + y_87 - z_2738
         >= 0
 c2740: y_30 + y_43 + y_52 + y_59 + y_94 - z_2739 >= 0
 c2741: y_3 + y_19 + y_21 + y_33 + y_36 + y_38 + y_41 + y_43 + y_47 + y_48
        + y_79 - z_2740 >= 0
 c2742: y_12 + y_71 - z_2741 >= 0
 c2743: y_1 + y_8 + y_73 + y_75 + y_96 - z_2742 >= 0
 c2744: y_37 + y_45 + y_89 - z_2743 >= 0
 c2745: y_13 + y_28 + y_60 + y_76 + y_81 - z_2744 >= 0
 c2746: y_4 + y_5 + y_6 + y_32 + y_44 + y_90 - z_2745 >= 0
 c2747: y_29 + y_50 + y_56 + y_65 - z_2746 >= 0
 c2748: y_15 + y_18 + y_20 + y_36 + y_41 + y_46 + y_47 + y_49 + y_74 + y_79
        + y_95 - z_2747 >= 0
 c2749: y_13 + y_57 + y_60 + y_65 + y_72 + y_76 + y_78 - z_2748 >= 0
 c2750: y_2 + y_14 + y_82 + y_83 + y_85 - z_2749 >= 0
 c2751: y_27 - z_2750 >= 0
 c2752: y_1 + y_7 + y_23 + y_31 + y_51 + y_62 + y_89 + y_98 + y_99 - z_2751 >= 
        0
 c2753: y_37 + y_45 - z_2752 >= 0
 c2754: y_37 + y_45 - z_2753 >= 0
 c2755: y_2 + y_14 + y_27 + y_42 + y_82 - z_2754 >= 0
 c2756: y_16 + y_39 + y_40 + y_50 + y_54 + y_63 + y_66 + y_87 - z_2755 >= 0
 c2757: y_9 + y_26 + y_67 + y_69 + y_71 - z_2756 >= 0
 c2758: y_1 + y_23 + y_46 + y_49 + y_74 + y_75 + y_95 - z_2757 >= 0
 c2759: y_3 + y_4 + y_6 + y_26 + y_32 + y_38 + y_44 + y_90 - z_2758 >= 0
 c2760: y_16 + y_17 + y_39 + y_53 + y_58 + y_63 + y_91 - z_2759 >= 0
 c2761: y_23 + y_46 + y_49 + y_74 + y_95 - z_2760 >= 0
 c2762: y_83 + y_84 + y_85 - z_2761 >= 0
 c2763: y_9 + y_71 - z_2762 >= 0
 c2764: y_2 + y_14 + y_27 + y_82 + y_83 - z_2763 >= 0
 c2765: y_1 + y_23 + y_46 + y_49 + y_74 + y_75 + y_95 + y_98 - z_2764 >= 0
 c2766: y_3 + y_5 + y_19 + y_33 + y_34 + y_38 + y_44 + y_48 + y_61 + y_79 + y_93
        - z_2765 >= 0
 c2767: y_22 + y_57 + y_65 + y_72 - z_2766 >= 0
 c2768: y_16 + y_25 + y_40 + y_54 + y_66 + y_87 + y_92 - z_2767 >= 0
 c2769: y_37 + y_45 - z_2768 >= 0
 c2770: y_1 + y_7 + y_23 + y_31 + y_51 + y_89 + y_98 + y_99 - z_2769 >= 0
 c2771: y_0 + y_27 + y_42 - z_2770 >= 0
 c2772: y_13 + y_28 + y_60 - z_2771 >= 0
 c2773: y_11 + y_24 + y_52 + y_59 + y_67 + y_68 + y_69 + y_70 + y_86 + y_97
        - z_2772 >= 0
 c2774: y_0 + y_27 + y_42 + y_55 + y_64 - z_2773 >= 0
 c2775: y_58 + y_91 - z_2774 >= 0
 c2776: y_2 + y_40 + y_83 + y_85 + y_92 - z_2775 >= 0
 c2777: y_3 + y_19 + y_21 + y_33 + y_38 + y_43 + y_44 + y_48 - z_2776 >= 0
 c2778: y_12 + y_22 + y_57 + y_65 + y_72 + y_88 - z_2777 >= 0
 c2779: y_56 + y_65 - z_2778 >= 0
 c2780: y_25 + y_29 + y_35 + y_77 + y_87 + y_92 - z_2779 >= 0
 c2781: y_24 + y_70 + y_86 - z_2780 >= 0
 c2782: y_16 + y_39 + y_40 + y_42 + y_54 + y_55 + y_63 + y_64 - z_2781 >= 0
 c2783: y_12 + y_22 + y_57 + y_72 + y_88 - z_2782 >= 0
 c2784: y_25 + y_29 + y_50 + y_56 + y_77 - z_2783 >= 0
 c2785: y_2 + y_14 + y_27 + y_82 - z_2784 >= 0
 c2786: y_11 + y_24 + y_52 + y_59 + y_68 + y_70 + y_86 + y_97 - z_2785 >= 0
 c2787: y_40 + y_54 + y_55 + y_87 + y_92 - z_2786 >= 0
 c2788: y_1 + y_31 + y_37 + y_73 + y_89 + y_98 + y_99 - z_2787 >= 0
 c2789: y_11 + y_67 + y_68 + y_69 + y_97 - z_2788 >= 0
 c2790: y_4 + y_9 + y_12 + y_32 + y_71 + y_88 - z_2789 >= 0
 c2791: y_24 + y_30 + y_43 + y_52 + y_59 + y_70 - z_2790 >= 0
 c2792: y_17 + y_39 + y_53 + y_58 + y_63 + y_64 + y_91 - z_2791 >= 0
 c2793: y_1 + y_23 + y_31 + y_46 + y_49 + y_98 + y_99 - z_2792 >= 0
 c2794: y_40 + y_83 + y_85 + y_92 - z_2793 >= 0
 c2795: y_10 + y_12 + y_88 - z_2794 >= 0
 c2796: y_13 + y_28 + y_60 + y_76 + y_81 - z_2795 >= 0
 c2797: y_3 + y_19 + y_21 + y_30 + y_33 + y_36 + y_41 + y_43 + y_47 + y_48
        + y_94 - z_2796 >= 0
 c2798: y_4 + y_6 + y_32 + y_44 + y_90 - z_2797 >= 0
 c2799: y_3 + y_11 + y_19 + y_26 + y_33 + y_38 + y_43 + y_44 + y_48 + y_67
        + y_68 + y_69 - z_2798 >= 0
 c2800: y_16 + y_39 + y_40 + y_42 + y_54 + y_55 + y_63 + y_64 + y_66 - z_2799
         >= 0
 c2801: y_11 + y_67 + y_68 + y_69 + y_97 - z_2800 >= 0
 c2802: y_11 + y_52 + y_59 + y_67 + y_68 + y_69 + y_97 - z_2801 >= 0
 c2803: y_83 + y_84 + y_85 - z_2802 >= 0
 c2804: y_18 + y_49 + y_74 + y_95 - z_2803 >= 0
 c2805: y_1 + y_8 + y_46 + y_73 + y_75 + y_96 - z_2804 >= 0
 c2806: y_15 + y_18 + y_20 + y_21 + y_36 + y_41 + y_47 + y_48 + y_61 + y_79
        + y_80 + y_93 + y_95 - z_2805 >= 0
 c2807: y_40 + y_92 - z_2806 >= 0
 c2808: y_4 + y_6 + y_32 + y_90 - z_2807 >= 0
 c2809: y_10 + y_13 + y_28 + y_60 + y_76 + y_78 + y_81 - z_2808 >= 0
 c2810: y_25 + y_35 + y_40 + y_77 + y_87 + y_92 - z_2809 >= 0
 c2811: y_3 + y_15 + y_20 + y_21 + y_33 + y_34 + y_41 + y_48 + y_61 + y_79
        + y_80 + y_93 - z_2810 >= 0
 c2812: y_11 + y_43 + y_52 + y_59 + y_67 + y_68 + y_69 + y_97 - z_2811 >= 0
 c2813: y_17 + y_53 + y_58 + y_63 + y_91 - z_2812 >= 0
 c2814: y_18 + y_21 + y_30 + y_36 + y_41 + y_47 + y_48 + y_79 + y_94 - z_2813
         >= 0
 c2815: y_65 - z_2814 >= 0
 c2816: y_12 + y_22 + y_57 + y_72 + y_88 - z_2815 >= 0
 c2817: y_0 + y_2 + y_27 + y_42 + y_55 + y_64 - z_2816 >= 0
 c2818: y_11 + y_43 + y_52 + y_59 + y_67 + y_68 + y_69 + y_97 - z_2817 >= 0
 c2819: y_3 + y_19 + y_26 + y_33 + y_38 + y_44 + y_48 + y_69 - z_2818 >= 0
 c2820: y_83 + y_85 + y_92 - z_2819 >= 0
 c2821: y_16 + y_50 + y_54 + y_56 + y_58 + y_66 - z_2820 >= 0
 c2822: y_2 + y_14 + y_27 + y_42 + y_55 + y_82 + y_83 - z_2821 >= 0
 c2823: y_50 + y_56 + y_66 + y_87 - z_2822 >= 0
 c2824: y_0 + y_17 + y_53 + y_63 + y_64 + y_96 - z_2823 >= 0
 c2825: y_6 + y_22 - z_2824 >= 0
 c2826: y_8 + y_15 + y_20 + y_46 + y_61 + y_75 + y_79 + y_80 + y_93 + y_95
        - z_2825 >= 0
 c2827: y_9 + y_11 + y_19 + y_26 + y_38 + y_67 + y_68 + y_69 + y_97 - z_2826
         >= 0
 c2828: y_8 + y_15 + y_20 + y_46 + y_49 + y_61 + y_75 + y_80 + y_93 + y_95
        - z_2827 >= 0
 c2829: y_30 + y_43 + y_52 + y_59 + y_94 - z_2828 >= 0
 c2830: y_0 + y_17 + y_53 + y_63 + y_64 + y_96 - z_2829 >= 0
 c2831: y_11 + y_24 + y_52 + y_59 + y_70 + y_86 - z_2830 >= 0
 c2832: y_7 + y_23 + y_31 + y_51 + y_62 + y_89 + y_98 + y_99 - z_2831 >= 0
 c2833: y_30 + y_43 + y_52 + y_59 + y_94 - z_2832 >= 0
 c2834: y_17 + y_96 - z_2833 >= 0
 c2835: y_17 + y_96 - z_2834 >= 0
 c2836: y_16 + y_25 + y_40 + y_50 + y_54 + y_56 + y_66 + y_87 - z_2835 >= 0
 c2837: y_0 + y_27 + y_45 - z_2836 >= 0
 c2838: y_50 + y_56 + y_58 - z_2837 >= 0
 c2839: y_16 + y_40 + y_54 + y_55 + y_66 + y_87 + y_92 - z_2838 >= 0
 c2840: y_83 + y_85 - z_2839 >= 0
 c2841: y_16 + y_17 + y_39 + y_53 + y_54 + y_58 + y_63 + y_64 + y_91 - z_2840
         >= 0
 c2842: y_1 + y_23 + y_31 + y_37 + y_73 + y_89 + y_99 - z_2841 >= 0
 c2843: y_12 + y_71 + y_88 - z_2842 >= 0
 c2844: y_16 + y_39 + y_53 + y_54 + y_58 + y_63 + y_64 + y_66 + y_91 - z_2843
         >= 0
 c2845: y_58 - z_2844 >= 0
 c2846: y_0 + y_96 - z_2845 >= 0
 c2847: y_3 + y_4 + y_19 + y_26 + y_32 + y_33 + y_38 + y_44 + y_90 - z_2846 >= 
        0
 c2848: y_5 + y_6 + y_90 - z_2847 >= 0
 c2849: y_16 + y_39 + y_40 + y_54 + y_66 + y_87 + y_92 - z_2848 >= 0
 c2850: y_12 + y_88 - z_2849 >= 0
 c2851: y_73 + y_96 - z_2850 >= 0
 c2852: y_5 + y_8 + y_17 + y_20 + y_34 + y_75 + y_80 + y_93 - z_2851 >= 0
 c2853: y_13 + y_28 + y_60 + y_76 + y_81 - z_2852 >= 0
 c2854: y_7 + y_31 + y_37 + y_51 + y_62 + y_89 + y_99 - z_2853 >= 0
 c2855: y_3 + y_11 + y_19 + y_33 + y_38 + y_43 + y_48 + y_69 - z_2854 >= 0
 c2856: y_1 + y_7 + y_23 + y_31 + y_51 + y_62 + y_89 + y_98 + y_99 - z_2855 >= 
        0
 c2857: y_9 + y_11 + y_19 + y_26 + y_38 + y_67 + y_68 + y_69 - z_2856 >= 0
 c2858: y_16 + y_39 + y_53 + y_54 + y_55 + y_63 + y_64 + y_66 - z_2857 >= 0
 c2859: y_12 + y_22 + y_57 + y_65 + y_72 + y_78 + y_88 - z_2858 >= 0
 c2860: y_8 + y_17 + y_34 + y_75 + y_96 - z_2859 >= 0
 c2861: y_17 + y_39 + y_53 + y_58 + y_63 + y_64 + y_91 - z_2860 >= 0
 c2862: y_24 + y_30 + y_43 + y_52 + y_59 + y_70 - z_2861 >= 0
 c2863: y_9 + y_26 + y_67 + y_69 + y_71 - z_2862 >= 0
 c2864: y_15 + y_20 + y_21 + y_33 + y_34 + y_41 + y_48 + y_61 + y_75 + y_79
        + y_80 + y_93 + y_95 - z_2863 >= 0
 c2865: y_45 + y_96 - z_2864 >= 0
 c2866: y_4 + y_9 + y_26 + y_32 + y_67 - z_2865 >= 0
 c2867: y_3 + y_11 + y_19 + y_26 + y_38 + y_43 + y_52 + y_67 + y_68 + y_69
        - z_2866 >= 0
 c2868: y_12 + y_22 + y_57 + y_65 + y_72 + y_88 - z_2867 >= 0
 c2869: y_2 + y_27 + y_42 + y_55 + y_83 - z_2868 >= 0
 c2870: y_13 + y_28 + y_60 + y_76 + y_78 + y_81 - z_2869 >= 0
 c2871: y_13 + y_28 + y_60 + y_76 + y_81 - z_2870 >= 0
 c2872: y_2 + y_14 + y_82 - z_2871 >= 0
 c2873: y_1 + y_8 + y_73 + y_75 + y_96 - z_2872 >= 0
 c2874: y_15 + y_18 + y_36 + y_41 + y_46 + y_47 + y_49 + y_74 + y_79 + y_95
        - z_2873 >= 0
 c2875: y_2 + y_14 + y_82 + y_83 - z_2874 >= 0
 c2876: y_5 + y_8 + y_20 + y_34 + y_61 + y_80 + y_93 - z_2875 >= 0
 c2877: y_8 + y_73 + y_75 + y_80 + y_96 - z_2876 >= 0
 c2878: y_8 + y_15 + y_20 + y_46 + y_49 + y_61 + y_75 + y_79 + y_80 + y_93
        + y_95 - z_2877 >= 0
 c2879: y_65 - z_2878 >= 0
 c2880: y_25 + y_35 + y_40 + y_66 + y_77 + y_87 + y_92 - z_2879 >= 0
 c2881: y_1 + y_8 + y_46 + y_49 + y_73 + y_75 + y_80 + y_95 - z_2880 >= 0
 c2882: y_1 + y_23 + y_46 + y_49 + y_74 + y_75 + y_95 + y_98 - z_2881 >= 0
 c2883: y_15 + y_18 + y_36 + y_41 + y_47 + y_74 + y_95 - z_2882 >= 0
 c2884: y_12 + y_22 + y_57 + y_72 + y_88 - z_2883 >= 0
 c2885: y_12 + y_22 + y_57 + y_72 + y_88 - z_2884 >= 0
 c2886: y_50 + y_56 + y_66 + y_87 - z_2885 >= 0
 c2887: y_4 + y_6 + y_32 + y_90 - z_2886 >= 0
 c2888: y_25 + y_29 + y_35 + y_50 + y_56 + y_77 + y_87 - z_2887 >= 0
 c2889: y_13 + y_28 + y_60 + y_76 - z_2888 >= 0
 c2890: y_13 + y_28 + y_60 + y_76 + y_78 + y_81 - z_2889 >= 0
 c2891: y_4 + y_6 + y_9 + y_26 + y_32 + y_90 - z_2890 >= 0
 c2892: y_1 + y_23 + y_46 + y_49 + y_74 + y_98 - z_2891 >= 0
 c2893: y_12 + y_22 + y_57 + y_65 + y_72 + y_88 - z_2892 >= 0
 c2894: y_17 + y_53 + y_63 + y_96 - z_2893 >= 0
 c2895: y_50 + y_56 - z_2894 >= 0
 c2896: y_25 + y_35 + y_40 + y_66 + y_77 + y_87 + y_92 - z_2895 >= 0
 c2897: y_10 + y_12 + y_57 + y_72 + y_78 + y_88 - z_2896 >= 0
 c2898: y_37 + y_45 - z_2897 >= 0
 c2899: y_57 + y_65 + y_72 - z_2898 >= 0
 c2900: y_45 - z_2899 >= 0
 c2901: y_17 + y_39 + y_53 + y_58 + y_91 - z_2900 >= 0
 c2902: y_23 + y_46 + y_49 + y_74 + y_98 - z_2901 >= 0
 c2903: y_2 + y_14 + y_82 + y_83 + y_85 - z_2902 >= 0
 c2904: y_13 + y_28 + y_60 + y_76 + y_81 - z_2903 >= 0
 c2905: y_13 + y_60 - z_2904 >= 0
 c2906: y_9 + y_12 + y_32 + y_71 + y_88 - z_2905 >= 0
 c2907: y_15 + y_46 + y_49 + y_74 + y_75 + y_95 - z_2906 >= 0
 c2908: y_3 + y_15 + y_19 + y_21 + y_33 + y_36 + y_38 + y_41 + y_47 + y_48
        + y_79 - z_2907 >= 0
 c2909: y_13 + y_60 - z_2908 >= 0
 c2910: y_3 + y_5 + y_19 + y_33 + y_38 + y_44 + y_90 - z_2909 >= 0
 c2911: y_18 + y_21 + y_36 + y_41 + y_47 + y_94 - z_2910 >= 0
 c2912: y_0 + y_53 + y_63 + y_64 - z_2911 >= 0
 c2913: y_3 + y_19 + y_21 + y_33 + y_38 + y_44 + y_48 + y_79 - z_2912 >= 0
 c2914: y_9 + y_26 + y_67 + y_69 + y_71 + y_97 - z_2913 >= 0
 c2915: y_2 + y_14 + y_82 + y_83 + y_84 + y_85 - z_2914 >= 0
 c2916: y_9 + y_12 + y_71 - z_2915 >= 0
 c2917: y_15 + y_20 + y_41 + y_46 + y_61 + y_75 + y_79 + y_80 + y_93 + y_95
        - z_2916 >= 0
 c2918: y_6 + y_58 + y_90 + y_91 - z_2917 >= 0
 c2919: y_71 - z_2918 >= 0
 c2920: y_16 + y_39 + y_50 + y_54 + y_56 + y_66 + y_87 - z_2919 >= 0
 c2921: y_5 + y_8 + y_20 + y_34 + y_61 + y_75 + y_80 + y_93 - z_2920 >= 0
 c2922: y_40 + y_55 + y_87 + y_92 - z_2921 >= 0
 c2923: y_25 + y_35 + y_40 + y_77 + y_87 + y_92 - z_2922 >= 0
 c2924: y_11 + y_24 + y_52 + y_68 + y_70 + y_86 + y_97 - z_2923 >= 0
 c2925: y_12 + y_22 + y_57 + y_88 - z_2924 >= 0
 c2926: y_5 + y_6 + y_34 + y_90 - z_2925 >= 0
 c2927: y_50 + y_56 + y_65 - z_2926 >= 0
 c2928: y_11 + y_67 + y_68 + y_69 + y_97 - z_2927 >= 0
 c2929: y_10 + y_13 + y_28 + y_60 + y_76 + y_78 + y_81 - z_2928 >= 0
 c2930: y_29 - z_2929 >= 0
 c2931: y_4 + y_6 + y_9 + y_12 + y_32 + y_88 - z_2930 >= 0
 c2932: y_8 + y_15 + y_20 + y_34 + y_46 + y_61 + y_75 + y_79 + y_80 + y_93
        + y_95 - z_2931 >= 0
 c2933: y_29 - z_2932 >= 0
 c2934: y_12 + y_22 + y_57 + y_65 + y_88 - z_2933 >= 0
 c2935: y_15 + y_20 + y_41 + y_46 + y_47 + y_48 + y_61 + y_75 + y_79 + y_80
        + y_93 + y_95 - z_2934 >= 0
 c2936: y_25 + y_35 + y_40 + y_77 + y_87 + y_92 - z_2935 >= 0
 c2937: y_16 + y_39 + y_53 + y_54 + y_58 + y_66 + y_91 - z_2936 >= 0
 c2938: y_65 - z_2937 >= 0
 c2939: y_50 + y_56 + y_58 - z_2938 >= 0
 c2940: y_37 + y_45 - z_2939 >= 0
 c2941: y_0 + y_17 + y_39 + y_53 + y_55 + y_63 + y_64 - z_2940 >= 0
 c2942: y_13 + y_57 + y_60 + y_65 + y_72 + y_76 - z_2941 >= 0
 c2943: y_16 + y_40 + y_54 + y_55 + y_66 + y_87 + y_92 - z_2942 >= 0
 c2944: y_1 + y_31 + y_37 + y_73 + y_89 + y_99 - z_2943 >= 0
 c2945: y_22 + y_50 + y_56 + y_65 - z_2944 >= 0
 c2946: y_17 + y_96 - z_2945 >= 0
 c2947: y_0 + y_16 + y_39 + y_42 + y_54 + y_55 + y_63 + y_64 - z_2946 >= 0
 c2948: y_29 - z_2947 >= 0
 c2949: y_3 + y_4 + y_6 + y_32 + y_33 + y_38 + y_44 + y_90 - z_2948 >= 0
 c2950: y_15 + y_18 + y_20 + y_21 + y_33 + y_36 + y_41 + y_47 + y_48 + y_61
        + y_79 + y_93 + y_95 - z_2949 >= 0
 c2951: y_25 + y_29 + y_35 + y_50 + y_77 - z_2950 >= 0
 c2952: y_7 + y_51 + y_62 - z_2951 >= 0
 c2953: y_50 + y_56 - z_2952 >= 0
 c2954: y_11 + y_24 + y_43 + y_52 + y_59 + y_68 + y_70 + y_86 - z_2953 >= 0
 c2955: y_25 + y_29 + y_35 + y_77 + y_87 + y_92 - z_2954 >= 0
 c2956: y_16 + y_39 + y_50 + y_54 + y_56 + y_58 + y_66 + y_91 - z_2955 >= 0
 c2957: y_5 + y_15 + y_20 + y_33 + y_34 + y_48 + y_61 + y_79 + y_80 + y_93
        - z_2956 >= 0
 c2958: y_25 + y_29 + y_50 + y_56 + y_66 + y_77 + y_87 - z_2957 >= 0
 c2959: y_0 + y_14 + y_27 + y_42 - z_2958 >= 0
 c2960: y_0 + y_2 + y_14 + y_27 + y_42 + y_82 - z_2959 >= 0
 c2961: y_8 + y_20 + y_34 + y_61 + y_75 + y_80 + y_93 - z_2960 >= 0
 c2962: y_0 + y_27 + y_42 + y_55 + y_64 - z_2961 >= 0
 c2963: y_10 + y_76 + y_78 + y_81 - z_2962 >= 0
 c2964: y_56 + y_58 - z_2963 >= 0
 c2965: y_1 + y_7 + y_23 + y_31 + y_51 + y_62 + y_89 + y_98 + y_99 - z_2964 >= 
        0
 c2966: y_12 + y_22 + y_57 + y_65 + y_72 + y_88 - z_2965 >= 0
 c2967: y_2 + y_14 + y_82 + y_83 + y_84 - z_2966 >= 0
 c2968: y_6 + y_22 + y_32 - z_2967 >= 0
 c2969: y_6 + y_58 + y_91 - z_2968 >= 0
 c2970: - z_2969 >= 0
 c2971: y_3 + y_15 + y_20 + y_21 + y_33 + y_36 + y_41 + y_47 + y_48 + y_61
        + y_79 + y_80 + y_93 + y_95 - z_2970 >= 0
 c2972: y_18 + y_21 + y_36 + y_41 + y_47 + y_94 - z_2971 >= 0
 c2973: y_15 + y_18 + y_20 + y_36 + y_41 + y_46 + y_47 + y_61 + y_75 + y_79
        + y_80 + y_93 + y_95 - z_2972 >= 0
 c2974: y_9 + y_12 + y_32 + y_71 + y_88 - z_2973 >= 0
 c2975: y_13 + y_60 + y_76 - z_2974 >= 0
 c2976: y_1 + y_23 + y_31 + y_46 + y_73 + y_89 + y_98 + y_99 - z_2975 >= 0
 c2977: y_1 + y_73 + y_96 - z_2976 >= 0
 c2978: y_11 + y_43 + y_52 + y_59 + y_67 + y_68 + y_69 + y_97 - z_2977 >= 0
 c2979: y_37 + y_45 - z_2978 >= 0
 c2980: y_11 + y_19 + y_26 + y_38 + y_43 + y_52 + y_59 + y_67 + y_68 + y_69
        - z_2979 >= 0
 c2981: y_58 + y_91 - z_2980 >= 0
 c2982: y_12 + y_71 + y_88 - z_2981 >= 0
 c2983: y_17 + y_39 + y_53 + y_58 + y_63 + y_91 - z_2982 >= 0
 c2984: y_83 + y_84 + y_85 - z_2983 >= 0
 c2985: y_2 + y_83 + y_85 - z_2984 >= 0
 c2986: y_10 + y_12 + y_57 + y_72 + y_78 + y_88 - z_2985 >= 0
 c2987: y_45 - z_2986 >= 0
 c2988: y_4 + y_6 + y_32 + y_90 - z_2987 >= 0
 c2989: y_6 + y_22 + y_32 + y_90 - z_2988 >= 0
 c2990: y_71 - z_2989 >= 0
 c2991: y_8 + y_15 + y_20 + y_34 + y_41 + y_48 + y_61 + y_75 + y_79 + y_80
        + y_93 + y_95 - z_2990 >= 0
 c2992: y_22 + y_65 - z_2991 >= 0
 c2993: y_6 + y_58 + y_90 + y_91 - z_2992 >= 0
 c2994: y_12 + y_22 + y_57 + y_72 + y_88 - z_2993 >= 0
 c2995: y_10 + y_12 + y_57 + y_72 + y_78 + y_88 - z_2994 >= 0
 c2996: y_4 + y_9 + y_26 + y_32 + y_71 - z_2995 >= 0
 c2997: y_16 + y_39 + y_40 + y_42 + y_54 + y_55 + y_63 + y_64 + y_66 - z_2996
         >= 0
 c2998: y_2 + y_14 + y_27 + y_82 - z_2997 >= 0
 c2999: y_1 + y_23 + y_46 + y_49 + y_74 + y_75 + y_95 + y_98 - z_2998 >= 0
 c3000: y_4 + y_5 + y_6 + y_32 + y_44 + y_90 - z_2999 >= 0
 c3001: y_71 - z_3000 >= 0
 c3002: y_83 + y_84 + y_85 - z_3001 >= 0
 c3003: y_2 + y_14 + y_82 + y_83 + y_84 + y_85 - z_3002 >= 0
 c3004: y_16 + y_39 + y_50 + y_54 + y_56 + y_58 + y_66 + y_87 - z_3003 >= 0
 c3005: y_17 + y_53 + y_58 + y_91 - z_3004 >= 0
 c3006: y_2 + y_83 + y_85 - z_3005 >= 0
 c3007: y_56 + y_65 - z_3006 >= 0
 c3008: y_3 + y_15 + y_20 + y_21 + y_33 + y_34 + y_41 + y_44 + y_47 + y_48
        + y_61 + y_79 + y_80 + y_93 - z_3007 >= 0
 c3009: y_8 + y_17 + y_96 - z_3008 >= 0
 c3010: y_11 + y_26 + y_52 + y_67 + y_68 + y_69 + y_97 - z_3009 >= 0
 c3011: y_0 + y_2 + y_14 + y_27 + y_42 + y_55 + y_82 - z_3010 >= 0
 c3012: y_4 + y_6 + y_26 + y_32 + y_38 + y_44 + y_90 - z_3011 >= 0
 c3013: y_16 + y_39 + y_50 + y_54 + y_58 + y_66 + y_87 - z_3012 >= 0
 c3014: y_0 + y_2 + y_14 + y_27 + y_42 + y_55 + y_82 - z_3013 >= 0
 c3015: y_12 + y_57 + y_65 + y_72 + y_78 + y_88 - z_3014 >= 0
 c3016: y_2 + y_55 + y_83 + y_85 - z_3015 >= 0
 c3017: y_1 + y_8 + y_46 + y_73 + y_75 + y_96 - z_3016 >= 0
 c3018: y_9 + y_11 + y_19 + y_26 + y_38 + y_67 + y_68 + y_69 - z_3017 >= 0
 c3019: y_1 + y_31 + y_37 + y_73 + y_89 + y_99 - z_3018 >= 0
 c3020: y_45 - z_3019 >= 0
 c3021: y_3 + y_19 + y_21 + y_30 + y_33 + y_38 + y_43 + y_48 + y_52 + y_59
        - z_3020 >= 0
 c3022: y_8 + y_17 + y_34 + y_96 - z_3021 >= 0
 c3023: y_13 + y_28 + y_60 + y_76 + y_81 - z_3022 >= 0
 c3024: y_3 + y_5 + y_19 + y_33 + y_34 + y_38 + y_44 + y_48 + y_61 + y_79
        - z_3023 >= 0
 c3025: y_17 + y_53 + y_91 + y_96 - z_3024 >= 0
 c3026: y_5 + y_6 + y_34 + y_90 - z_3025 >= 0
 c3027: y_1 + y_31 + y_37 + y_73 + y_89 + y_99 - z_3026 >= 0
 c3028: y_12 + y_22 + y_57 + y_88 - z_3027 >= 0
 c3029: y_13 + y_28 + y_60 + y_76 + y_78 + y_81 - z_3028 >= 0
 c3030: y_16 + y_40 + y_54 + y_55 + y_66 + y_87 + y_92 - z_3029 >= 0
 c3031: y_4 + y_6 + y_32 + y_90 - z_3030 >= 0
 c3032: y_25 + y_29 + y_35 + y_77 - z_3031 >= 0
 c3033: y_4 + y_6 + y_26 + y_32 + y_38 + y_44 + y_90 - z_3032 >= 0
 c3034: y_40 + y_55 + y_92 - z_3033 >= 0
 c3035: y_3 + y_19 + y_33 + y_38 + y_44 + y_48 + y_79 - z_3034 >= 0
 c3036: y_8 + y_17 + y_96 - z_3035 >= 0
 c3037: y_16 + y_39 + y_53 + y_54 + y_58 + y_63 + y_66 + y_87 + y_91 - z_3036
         >= 0
 c3038: y_4 + y_9 + y_26 + y_32 + y_38 + y_44 + y_90 - z_3037 >= 0
 c3039: y_3 + y_4 + y_5 + y_6 + y_33 + y_34 + y_38 + y_44 + y_90 - z_3038 >= 0
 c3040: y_29 - z_3039 >= 0
 c3041: y_11 + y_19 + y_26 + y_38 + y_43 + y_52 + y_59 + y_67 + y_68 + y_69
        - z_3040 >= 0
 c3042: y_25 + y_29 + y_35 + y_77 - z_3041 >= 0
 c3043: y_5 + y_8 + y_15 + y_20 + y_34 + y_61 + y_75 + y_79 + y_80 + y_93
        - z_3042 >= 0
 c3044: y_4 + y_5 + y_6 + y_34 + y_44 + y_90 - z_3043 >= 0
 c3045: y_40 + y_83 + y_85 + y_92 - z_3044 >= 0
 c3046: y_2 + y_40 + y_83 + y_85 - z_3045 >= 0
 c3047: y_16 + y_39 + y_40 + y_54 + y_66 + y_87 + y_92 - z_3046 >= 0
 c3048: y_30 + y_43 + y_52 + y_59 + y_94 - z_3047 >= 0
 c3049: y_7 + y_23 + y_51 + y_98 - z_3048 >= 0
 c3050: y_10 + y_13 + y_57 + y_60 + y_72 + y_76 + y_78 + y_81 - z_3049 >= 0
 c3051: y_1 + y_23 + y_46 + y_49 + y_73 + y_75 + y_98 + y_99 - z_3050 >= 0
 c3052: y_0 + y_27 + y_42 + y_55 + y_63 + y_64 - z_3051 >= 0
 c3053: y_13 + y_28 + y_60 + y_76 - z_3052 >= 0
 c3054: y_45 - z_3053 >= 0
 c3055: y_16 + y_39 + y_40 + y_54 + y_55 + y_63 + y_64 + y_66 + y_87 - z_3054
         >= 0
 c3056: y_15 + y_18 + y_20 + y_36 + y_41 + y_46 + y_47 + y_61 + y_75 + y_79
        + y_80 + y_93 + y_95 - z_3055 >= 0
 c3057: y_13 + y_28 + y_60 + y_76 + y_78 + y_81 - z_3056 >= 0
 c3058: y_37 + y_45 + y_73 + y_96 - z_3057 >= 0
 c3059: y_0 + y_2 + y_27 + y_42 + y_55 + y_64 - z_3058 >= 0
 c3060: y_4 + y_9 + y_26 + y_32 + y_38 + y_67 + y_69 - z_3059 >= 0
 c3061: y_29 - z_3060 >= 0
 c3062: y_23 + y_49 + y_74 + y_98 - z_3061 >= 0
 c3063: y_30 + y_43 + y_94 - z_3062 >= 0
 c3064: y_2 + y_14 + y_82 + y_83 + y_84 + y_85 - z_3063 >= 0
 c3065: y_83 + y_84 + y_85 - z_3064 >= 0
 c3066: y_3 + y_19 + y_26 + y_33 + y_38 + y_44 + y_48 + y_69 - z_3065 >= 0
 c3067: y_2 + y_83 + y_85 - z_3066 >= 0
 c3068: y_24 + y_52 + y_59 + y_70 + y_86 - z_3067 >= 0
 c3069: y_13 + y_28 + y_60 + y_76 - z_3068 >= 0
 c3070: y_15 + y_20 + y_21 + y_36 + y_41 + y_47 + y_48 + y_61 + y_75 + y_79
        + y_80 + y_93 + y_95 - z_3069 >= 0
 c3071: y_29 - z_3070 >= 0
 c3072: y_16 + y_17 + y_39 + y_53 + y_54 + y_58 + y_63 + y_64 + y_91 - z_3071
         >= 0
 c3073: y_4 + y_9 + y_12 + y_32 + y_71 + y_88 - z_3072 >= 0
 c3074: y_24 + y_70 + y_86 - z_3073 >= 0
 c3075: y_2 + y_40 + y_42 + y_55 + y_64 - z_3074 >= 0
 c3076: y_25 + y_35 + y_40 + y_50 + y_66 + y_77 + y_87 + y_92 - z_3075 >= 0
 c3077: y_22 + y_57 + y_65 + y_88 - z_3076 >= 0
 c3078: y_9 + y_26 + y_32 + y_71 - z_3077 >= 0
 c3079: y_29 - z_3078 >= 0
 c3080: y_16 + y_39 + y_42 + y_53 + y_54 + y_55 + y_63 + y_64 - z_3079 >= 0
 c3081: y_24 + y_52 + y_59 + y_70 + y_86 - z_3080 >= 0
 c3082: y_24 + y_52 + y_59 + y_70 + y_86 - z_3081 >= 0
 c3083: y_10 + y_13 + y_57 + y_60 + y_72 + y_76 + y_78 + y_81 - z_3082 >= 0
 c3084: y_2 + y_14 + y_27 + y_82 + y_83 - z_3083 >= 0
 c3085: y_4 + y_12 + y_22 + y_32 + y_88 - z_3084 >= 0
 c3086: y_9 + y_71 - z_3085 >= 0
 c3087: y_5 + y_8 + y_15 + y_20 + y_33 + y_34 + y_61 + y_79 + y_80 + y_93
        - z_3086 >= 0
 c3088: y_37 + y_45 - z_3087 >= 0
 c3089: y_30 + y_43 + y_52 + y_59 + y_94 - z_3088 >= 0
 c3090: y_25 + y_35 + y_77 + y_92 - z_3089 >= 0
 c3091: y_13 + y_57 + y_60 + y_65 + y_72 + y_76 - z_3090 >= 0
 c3092: y_4 + y_9 + y_12 + y_32 + y_71 + y_88 - z_3091 >= 0
 c3093: y_16 + y_39 + y_50 + y_54 + y_56 + y_58 + y_66 + y_87 - z_3092 >= 0
 c3094: y_11 + y_24 + y_43 + y_52 + y_59 + y_68 + y_70 + y_86 - z_3093 >= 0
 c3095: y_3 + y_19 + y_21 + y_33 + y_38 + y_41 + y_44 + y_48 + y_79 - z_3094
         >= 0
 c3096: y_4 + y_6 + y_12 + y_22 + y_32 + y_88 - z_3095 >= 0
 c3097: y_0 + y_27 + y_39 + y_42 + y_55 + y_63 + y_64 - z_3096 >= 0
 c3098: y_3 + y_19 + y_21 + y_33 + y_36 + y_41 + y_47 + y_48 + y_79 - z_3097
         >= 0
 c3099: y_16 + y_39 + y_50 + y_54 + y_56 + y_58 + y_66 - z_3098 >= 0
 c3100: y_11 + y_26 + y_67 + y_68 + y_69 + y_97 - z_3099 >= 0
 c3101: y_40 + y_83 + y_85 + y_92 - z_3100 >= 0
 c3102: y_22 + y_57 + y_65 + y_72 - z_3101 >= 0
 c3103: y_2 + y_27 + y_42 + y_55 + y_83 - z_3102 >= 0
 c3104: y_2 + y_83 + y_84 + y_85 - z_3103 >= 0
 c3105: y_4 + y_9 + y_12 + y_32 + y_88 - z_3104 >= 0
 c3106: y_12 + y_71 + y_88 - z_3105 >= 0
 c3107: y_16 + y_39 + y_40 + y_42 + y_54 + y_55 + y_63 + y_64 - z_3106 >= 0
 c3108: y_2 + y_14 + y_27 + y_42 + y_82 - z_3107 >= 0
 c3109: y_25 + y_29 + y_35 + y_77 - z_3108 >= 0
 c3110: y_11 + y_24 + y_30 + y_43 + y_52 + y_59 + y_68 + y_70 + y_94 - z_3109
         >= 0
 c3111: y_0 + y_27 + y_42 + y_64 - z_3110 >= 0
 c3112: y_4 + y_6 + y_32 + y_44 + y_90 - z_3111 >= 0
 c3113: y_1 + y_37 + y_73 + y_96 - z_3112 >= 0
 c3114: y_50 + y_56 + y_58 - z_3113 >= 0
 c3115: y_71 - z_3114 >= 0
 c3116: y_11 + y_26 + y_52 + y_67 + y_68 + y_69 + y_97 - z_3115 >= 0
 c3117: y_16 + y_39 + y_53 + y_54 + y_55 + y_58 + y_63 + y_64 + y_91 - z_3116
         >= 0
 c3118: y_71 - z_3117 >= 0
 c3119: y_15 + y_18 + y_46 + y_49 + y_74 + y_95 - z_3118 >= 0
 c3120: y_8 + y_15 + y_20 + y_46 + y_49 + y_61 + y_74 + y_75 + y_80 + y_93
        + y_95 - z_3119 >= 0
 c3121: y_3 + y_5 + y_15 + y_20 + y_33 + y_34 + y_44 + y_48 + y_61 + y_79 + y_80
        + y_93 - z_3120 >= 0
 c3122: y_57 + y_65 + y_72 - z_3121 >= 0
 c3123: y_2 + y_14 + y_82 + y_83 - z_3122 >= 0
 c3124: y_5 + y_6 + y_34 + y_90 - z_3123 >= 0
 c3125: y_4 + y_9 + y_19 + y_26 + y_32 + y_38 + y_44 + y_67 + y_69 - z_3124 >= 
        0
 c3126: y_25 + y_29 + y_35 + y_77 - z_3125 >= 0
 c3127: y_11 + y_26 + y_52 + y_59 + y_67 + y_68 + y_69 + y_97 - z_3126 >= 0
 c3128: y_18 + y_46 + y_49 + y_74 + y_95 - z_3127 >= 0
 c3129: y_25 + y_29 + y_35 + y_50 + y_77 - z_3128 >= 0
 c3130: y_4 + y_6 + y_22 + y_32 + y_90 - z_3129 >= 0
 c3131: y_16 + y_39 + y_53 + y_54 + y_58 + y_63 + y_64 + y_91 - z_3130 >= 0
 c3132: y_22 + y_57 + y_65 + y_72 + y_88 - z_3131 >= 0
 c3133: y_40 + y_42 + y_55 + y_63 + y_64 - z_3132 >= 0
 c3134: y_0 + y_27 + y_42 + y_55 + y_63 + y_64 - z_3133 >= 0
 c3135: y_12 + y_22 + y_32 + y_88 - z_3134 >= 0
 c3136: y_4 + y_9 + y_26 + y_32 + y_38 + y_44 + y_67 + y_69 - z_3135 >= 0
 c3137: y_4 + y_9 + y_12 + y_32 + y_71 + y_88 - z_3136 >= 0
 c3138: y_2 + y_40 + y_83 + y_85 + y_92 - z_3137 >= 0
 c3139: y_16 + y_39 + y_40 + y_54 + y_55 + y_63 + y_64 + y_66 + y_87 - z_3138
         >= 0
 c3140: y_23 + y_46 + y_49 + y_74 + y_95 + y_98 - z_3139 >= 0
 c3141: y_2 + y_14 + y_82 + y_83 + y_84 + y_85 - z_3140 >= 0
 c3142: y_83 + y_84 + y_85 - z_3141 >= 0
 c3143: y_37 + y_45 - z_3142 >= 0
 c3144: y_71 - z_3143 >= 0
 c3145: y_16 + y_39 + y_40 + y_53 + y_54 + y_55 + y_63 + y_64 + y_66 - z_3144
         >= 0
 c3146: y_2 + y_14 + y_27 + y_42 + y_82 - z_3145 >= 0
 c3147: y_16 + y_40 + y_54 + y_66 + y_87 + y_92 - z_3146 >= 0
 c3148: y_17 + y_39 + y_53 + y_58 + y_63 + y_91 - z_3147 >= 0
 c3149: y_58 + y_91 - z_3148 >= 0
 c3150: y_37 + y_45 + y_73 + y_96 - z_3149 >= 0
 c3151: y_83 + y_85 - z_3150 >= 0
 c3152: y_30 + y_43 + y_59 + y_94 - z_3151 >= 0
 c3153: y_25 + y_29 + y_35 + y_77 + y_87 + y_92 - z_3152 >= 0
 c3154: y_10 + y_57 + y_60 + y_72 + y_76 + y_78 + y_81 + y_88 - z_3153 >= 0
 c3155: y_3 + y_19 + y_21 + y_33 + y_36 + y_38 + y_41 + y_43 + y_47 + y_48
        + y_79 - z_3154 >= 0
 c3156: y_12 + y_22 + y_57 + y_65 + y_72 + y_78 + y_88 - z_3155 >= 0
 c3157: y_10 + y_13 + y_28 + y_60 + y_76 + y_78 + y_81 - z_3156 >= 0
 c3158: y_21 + y_30 + y_36 + y_41 + y_43 + y_47 + y_94 - z_3157 >= 0
 c3159: y_0 + y_16 + y_39 + y_42 + y_53 + y_54 + y_55 + y_63 + y_64 - z_3158
         >= 0
 c3160: y_6 + y_22 - z_3159 >= 0
 c3161: y_16 + y_39 + y_53 + y_54 + y_55 + y_58 + y_63 + y_64 + y_66 + y_91
        - z_3160 >= 0
 c3162: y_16 + y_39 + y_42 + y_53 + y_54 + y_55 + y_63 + y_64 - z_3161 >= 0
 c3163: y_16 + y_39 + y_50 + y_54 + y_56 + y_66 + y_87 - z_3162 >= 0
 c3164: y_23 + y_98 - z_3163 >= 0
 c3165: y_8 + y_17 + y_75 + y_80 + y_96 - z_3164 >= 0
 c3166: y_17 + y_39 + y_53 + y_58 + y_63 + y_91 - z_3165 >= 0
 c3167: y_1 + y_23 + y_46 + y_49 + y_74 + y_98 - z_3166 >= 0
 c3168: y_16 + y_50 + y_56 + y_66 - z_3167 >= 0
 c3169: y_9 + y_71 - z_3168 >= 0
 c3170: y_16 + y_39 + y_53 + y_54 + y_58 + y_66 + y_91 - z_3169 >= 0
 c3171: y_3 + y_5 + y_15 + y_20 + y_33 + y_34 + y_44 + y_48 + y_61 + y_79 + y_80
        + y_93 - z_3170 >= 0
 c3172: y_17 + y_39 + y_53 + y_58 + y_63 + y_64 + y_91 - z_3171 >= 0
 c3173: y_83 + y_85 - z_3172 >= 0
 c3174: y_5 + y_6 + y_34 + y_44 + y_90 - z_3173 >= 0
 c3175: y_3 + y_19 + y_21 + y_33 + y_36 + y_38 + y_41 + y_44 + y_47 + y_48
        + y_79 - z_3174 >= 0
 c3176: y_83 + y_84 + y_85 - z_3175 >= 0
 c3177: y_9 + y_11 + y_26 + y_38 + y_67 + y_68 + y_69 - z_3176 >= 0
 c3178: y_3 + y_5 + y_19 + y_33 + y_34 + y_38 + y_44 + y_48 + y_61 - z_3177 >= 
        0
 c3179: y_2 + y_14 + y_82 + y_83 + y_84 + y_85 - z_3178 >= 0
 c3180: y_8 + y_17 + y_96 - z_3179 >= 0
 c3181: y_0 + y_27 + y_42 + y_55 + y_64 - z_3180 >= 0
 c3182: y_9 + y_71 - z_3181 >= 0
 c3183: y_4 + y_6 + y_9 + y_26 + y_32 + y_90 - z_3182 >= 0
 c3184: y_2 + y_27 + y_42 + y_55 + y_83 - z_3183 >= 0
 c3185: y_12 + y_22 + y_57 + y_88 - z_3184 >= 0
 c3186: y_5 + y_8 + y_17 + y_34 + y_75 + y_80 + y_96 - z_3185 >= 0
 c3187: y_10 + y_57 + y_60 + y_72 + y_76 + y_78 + y_81 - z_3186 >= 0
 c3188: y_24 + y_52 + y_59 + y_70 + y_86 - z_3187 >= 0
 c3189: y_4 + y_6 + y_12 + y_32 + y_88 + y_90 - z_3188 >= 0
 c3190: y_5 + y_8 + y_17 + y_34 + y_80 + y_93 - z_3189 >= 0
 c3191: y_4 + y_6 + y_32 + y_90 - z_3190 >= 0
 c3192: y_17 + y_39 + y_53 + y_58 + y_63 + y_91 - z_3191 >= 0
 c3193: y_13 - z_3192 >= 0
 c3194: y_13 + y_57 + y_60 + y_65 + y_72 + y_76 + y_78 + y_81 - z_3193 >= 0
 c3195: y_11 + y_19 + y_30 + y_43 + y_52 + y_59 + y_68 + y_69 - z_3194 >= 0
 c3196: y_85 + y_92 - z_3195 >= 0
 c3197: y_11 + y_19 + y_30 + y_43 + y_52 + y_59 + y_67 + y_68 + y_69 - z_3196
         >= 0
 c3198: y_17 + y_39 + y_53 + y_58 + y_63 + y_91 - z_3197 >= 0
 c3199: y_6 + y_58 - z_3198 >= 0
 c3200: y_8 + y_17 + y_96 - z_3199 >= 0
 c3201: y_0 + y_27 + y_42 + y_55 + y_64 - z_3200 >= 0
 c3202: y_11 + y_30 + y_43 + y_52 + y_59 + y_94 - z_3201 >= 0
 c3203: y_16 + y_39 + y_50 + y_54 + y_56 + y_58 + y_66 + y_87 - z_3202 >= 0
 c3204: y_1 + y_7 + y_23 + y_31 + y_37 + y_51 + y_73 + y_89 + y_98 + y_99
        - z_3203 >= 0
 c3205: y_0 + y_27 + y_42 + y_55 + y_63 + y_64 - z_3204 >= 0
 c3206: y_25 + y_29 + y_35 + y_50 + y_56 + y_77 - z_3205 >= 0
 c3207: y_2 + y_82 + y_83 + y_84 + y_85 - z_3206 >= 0
 c3208: y_25 + y_35 + y_40 + y_66 + y_77 + y_87 + y_92 - z_3207 >= 0
 c3209: y_11 + y_52 + y_59 + y_67 + y_68 + y_69 + y_97 - z_3208 >= 0
 c3210: y_22 + y_57 + y_65 + y_72 - z_3209 >= 0
 c3211: y_25 + y_35 + y_40 + y_77 + y_92 - z_3210 >= 0
 c3212: y_3 + y_19 + y_21 + y_33 + y_36 + y_38 + y_41 + y_43 + y_47 + y_48
        + y_79 - z_3211 >= 0
 c3213: y_7 + y_23 + y_31 + y_51 + y_62 + y_89 + y_98 + y_99 - z_3212 >= 0
 c3214: y_12 + y_22 + y_57 + y_65 + y_72 + y_88 - z_3213 >= 0
 c3215: y_21 + y_30 + y_36 + y_41 + y_43 + y_47 + y_94 - z_3214 >= 0
 c3216: y_2 + y_14 + y_82 + y_83 + y_84 + y_85 - z_3215 >= 0
 c3217: y_57 + y_65 + y_72 - z_3216 >= 0
 c3218: y_11 + y_24 + y_52 + y_67 + y_68 + y_69 + y_70 + y_86 + y_97 - z_3217
         >= 0
 c3219: y_15 + y_18 + y_21 + y_36 + y_41 + y_47 + y_48 + y_79 + y_95 - z_3218
         >= 0
 c3220: y_16 + y_39 + y_40 + y_54 + y_63 + y_66 + y_87 - z_3219 >= 0
 c3221: - z_3220 >= 0
 c3222: y_50 + y_56 + y_65 - z_3221 >= 0
 c3223: y_13 + y_28 + y_60 - z_3222 >= 0
 c3224: y_22 + y_50 + y_56 + y_65 - z_3223 >= 0
 c3225: y_73 + y_96 - z_3224 >= 0
 c3226: y_17 + y_39 + y_53 + y_58 + y_63 + y_91 - z_3225 >= 0
 c3227: y_23 + y_46 + y_49 + y_74 + y_95 + y_98 - z_3226 >= 0
 c3228: y_4 + y_6 + y_26 + y_32 + y_38 + y_44 + y_90 - z_3227 >= 0
 c3229: y_45 + y_96 - z_3228 >= 0
 c3230: y_2 + y_14 + y_82 + y_83 + y_85 - z_3229 >= 0
 c3231: y_15 + y_18 + y_20 + y_21 + y_36 + y_41 + y_46 + y_47 + y_61 + y_79
        + y_80 + y_93 + y_95 - z_3230 >= 0
 c3232: y_3 + y_19 + y_21 + y_33 + y_38 + y_44 + y_48 + y_79 - z_3231 >= 0
 c3233: y_10 + y_12 + y_88 - z_3232 >= 0
 c3234: y_17 + y_53 + y_58 + y_91 - z_3233 >= 0
 c3235: y_22 + y_57 + y_65 + y_72 - z_3234 >= 0
 c3236: y_96 - z_3235 >= 0
 c3237: y_57 + y_65 + y_72 - z_3236 >= 0
 c3238: y_0 + y_27 + y_42 + y_63 + y_64 - z_3237 >= 0
 c3239: y_13 + y_57 + y_60 + y_65 + y_72 + y_76 + y_78 - z_3238 >= 0
 c3240: y_23 + y_49 + y_74 + y_98 - z_3239 >= 0
 c3241: y_0 + y_27 + y_42 + y_55 + y_64 - z_3240 >= 0
 c3242: y_5 + y_6 + y_90 - z_3241 >= 0
 c3243: y_3 + y_9 + y_11 + y_19 + y_26 + y_38 + y_44 + y_67 + y_68 + y_69
        - z_3242 >= 0
 c3244: y_13 + y_28 + y_60 + y_76 + y_81 - z_3243 >= 0
 c3245: - z_3244 >= 0
 c3246: y_3 + y_11 + y_19 + y_33 + y_38 + y_43 + y_52 + y_59 + y_67 + y_68
        + y_69 - z_3245 >= 0
 c3247: y_45 - z_3246 >= 0
 c3248: y_15 + y_18 + y_46 + y_49 + y_74 + y_95 - z_3247 >= 0
 c3249: y_2 + y_14 + y_82 + y_83 - z_3248 >= 0
 c3250: y_50 + y_56 + y_66 + y_87 - z_3249 >= 0
 c3251: y_50 + y_56 - z_3250 >= 0
 c3252: y_1 + y_37 + y_73 + y_96 + y_99 - z_3251 >= 0
 c3253: y_5 + y_34 + y_90 - z_3252 >= 0
 c3254: y_9 + y_11 + y_19 + y_26 + y_38 + y_67 + y_68 + y_69 - z_3253 >= 0
 c3255: y_1 + y_23 + y_46 + y_49 + y_74 + y_98 + y_99 - z_3254 >= 0
 c3256: y_17 + y_96 - z_3255 >= 0
 c3257: y_13 + y_60 + y_72 + y_76 - z_3256 >= 0
 c3258: y_12 + y_71 + y_88 - z_3257 >= 0
 c3259: y_2 + y_40 + y_42 + y_55 + y_83 + y_85 - z_3258 >= 0
 c3260: y_25 + y_29 + y_35 + y_50 + y_77 - z_3259 >= 0
 c3261: y_3 + y_11 + y_19 + y_26 + y_38 + y_44 + y_67 + y_68 + y_69 - z_3260
         >= 0
 c3262: y_2 + y_14 + y_82 + y_83 + y_84 + y_85 - z_3261 >= 0
 c3263: y_4 + y_6 + y_22 + y_32 + y_90 - z_3262 >= 0
 c3264: y_10 + y_57 + y_60 + y_72 + y_76 + y_78 + y_81 - z_3263 >= 0
 c3265: y_17 + y_53 + y_96 - z_3264 >= 0
 c3266: y_25 + y_29 + y_35 + y_50 + y_56 + y_77 - z_3265 >= 0
 c3267: y_0 + y_2 + y_27 + y_42 + y_55 - z_3266 >= 0
 c3268: y_0 + y_27 + y_42 + y_55 + y_64 - z_3267 >= 0
 c3269: y_83 + y_84 + y_85 - z_3268 >= 0
 c3270: y_9 + y_71 + y_97 - z_3269 >= 0
 c3271: y_37 + y_45 + y_73 + y_89 - z_3270 >= 0
 c3272: y_13 + y_60 + y_65 + y_72 + y_76 - z_3271 >= 0
 c3273: y_0 + y_27 + y_42 + y_55 + y_63 + y_64 - z_3272 >= 0
 c3274: y_5 + y_8 + y_17 + y_34 - z_3273 >= 0
 c3275: y_25 + y_29 + y_35 + y_77 - z_3274 >= 0
 c3276: y_1 + y_8 + y_73 + y_75 + y_80 + y_96 - z_3275 >= 0
 c3277: y_96 - z_3276 >= 0
 c3278: y_2 + y_83 + y_85 - z_3277 >= 0
 c3279: y_24 + y_52 + y_59 + y_70 + y_86 - z_3278 >= 0
 c3280: y_3 + y_19 + y_33 + y_38 + y_44 + y_48 - z_3279 >= 0
 c3281: y_15 + y_20 + y_21 + y_33 + y_34 + y_41 + y_47 + y_48 + y_61 + y_75
        + y_79 + y_80 + y_93 + y_95 - z_3280 >= 0
 c3282: y_0 + y_27 + y_42 + y_55 + y_64 - z_3281 >= 0
 c3283: y_9 + y_26 + y_67 + y_68 + y_69 + y_97 - z_3282 >= 0
 c3284: y_23 + y_46 + y_49 + y_74 + y_95 - z_3283 >= 0
 c3285: y_1 + y_8 + y_73 + y_75 + y_96 - z_3284 >= 0
 c3286: y_5 + y_8 + y_17 + y_20 + y_34 + y_80 + y_93 - z_3285 >= 0
 c3287: y_3 + y_15 + y_19 + y_20 + y_21 + y_33 + y_38 + y_41 + y_44 + y_48
        + y_61 + y_79 + y_93 - z_3286 >= 0
 c3288: y_2 + y_40 + y_42 + y_55 + y_83 + y_92 - z_3287 >= 0
 c3289: y_10 + y_12 + y_57 + y_72 + y_78 + y_88 - z_3288 >= 0
 c3290: y_96 - z_3289 >= 0
 c3291: y_4 + y_6 + y_32 + y_90 - z_3290 >= 0
 c3292: y_65 - z_3291 >= 0
 c3293: y_10 + y_13 + y_28 + y_60 + y_72 + y_76 + y_78 + y_81 - z_3292 >= 0
 c3294: y_13 + y_65 + y_72 - z_3293 >= 0
 c3295: y_9 + y_26 + y_71 - z_3294 >= 0
 c3296: y_37 + y_45 + y_96 - z_3295 >= 0
 c3297: y_3 + y_5 + y_19 + y_33 + y_34 + y_38 + y_44 + y_48 + y_61 + y_79
        - z_3296 >= 0
 c3298: y_0 + y_27 + y_45 - z_3297 >= 0
 c3299: y_3 + y_5 + y_6 + y_33 + y_34 + y_44 + y_90 - z_3298 >= 0
 c3300: y_29 + y_56 - z_3299 >= 0
 c3301: y_18 + y_21 + y_30 + y_36 + y_41 + y_43 + y_47 + y_48 + y_94 - z_3300
         >= 0
 c3302: y_1 + y_8 + y_46 + y_73 + y_75 + y_96 - z_3301 >= 0
 c3303: y_17 + y_53 + y_96 - z_3302 >= 0
 c3304: y_7 + y_31 + y_37 + y_51 + y_62 + y_89 + y_99 - z_3303 >= 0
 c3305: y_1 + y_31 + y_37 + y_73 + y_89 + y_99 - z_3304 >= 0
 c3306: y_50 + y_56 + y_65 - z_3305 >= 0
 c3307: y_3 + y_19 + y_26 + y_33 + y_38 + y_44 + y_67 + y_69 - z_3306 >= 0
 c3308: y_22 - z_3307 >= 0
 c3309: y_37 + y_45 + y_73 + y_96 - z_3308 >= 0
 c3310: y_15 + y_18 + y_21 + y_36 + y_41 + y_47 + y_95 - z_3309 >= 0
 c3311: y_12 + y_22 + y_57 + y_88 - z_3310 >= 0
 c3312: y_5 + y_8 + y_17 + y_34 + y_80 - z_3311 >= 0
 c3313: y_9 + y_71 - z_3312 >= 0
 c3314: y_9 + y_12 + y_71 - z_3313 >= 0
 c3315: y_4 + y_12 + y_22 + y_32 + y_88 - z_3314 >= 0
 c3316: y_17 + y_53 + y_91 - z_3315 >= 0
 c3317: y_22 - z_3316 >= 0
 c3318: y_65 - z_3317 >= 0
 c3319: y_0 + y_2 + y_14 + y_27 + y_42 + y_55 + y_82 - z_3318 >= 0
 c3320: y_31 + y_37 + y_89 + y_99 - z_3319 >= 0
 c3321: y_10 + y_12 + y_88 - z_3320 >= 0
 c3322: y_14 + y_27 + y_82 - z_3321 >= 0
 c3323: y_12 + y_88 - z_3322 >= 0
 c3324: y_23 + y_46 + y_49 + y_74 + y_98 - z_3323 >= 0
 c3325: y_10 + y_60 + y_72 + y_76 + y_78 + y_81 - z_3324 >= 0
 c3326: y_2 + y_14 + y_27 + y_42 + y_82 - z_3325 >= 0
 c3327: y_17 + y_53 + y_58 + y_91 - z_3326 >= 0
 c3328: y_1 + y_31 + y_37 + y_73 + y_89 + y_99 - z_3327 >= 0
 c3329: y_24 + y_52 + y_59 + y_70 + y_86 - z_3328 >= 0
 c3330: y_22 + y_57 + y_65 + y_72 - z_3329 >= 0
 c3331: y_3 + y_15 + y_18 + y_20 + y_21 + y_33 + y_36 + y_41 + y_47 + y_48
        + y_61 + y_79 - z_3330 >= 0
 c3332: y_1 + y_23 + y_31 + y_73 + y_89 + y_98 + y_99 - z_3331 >= 0
 c3333: y_13 + y_60 + y_65 + y_72 + y_76 - z_3332 >= 0
 c3334: y_2 + y_14 + y_82 + y_83 + y_84 + y_85 - z_3333 >= 0
 c3335: y_18 + y_21 + y_36 + y_41 + y_47 + y_48 + y_79 + y_94 - z_3334 >= 0
 c3336: y_0 + y_27 + y_42 + y_64 - z_3335 >= 0
 c3337: y_3 + y_19 + y_21 + y_33 + y_38 + y_41 + y_43 + y_48 - z_3336 >= 0
 c3338: y_0 + y_27 + y_42 + y_55 + y_63 + y_64 - z_3337 >= 0
 c3339: y_4 + y_9 + y_12 + y_32 + y_88 - z_3338 >= 0
 c3340: y_22 + y_50 + y_56 + y_65 - z_3339 >= 0
 c3341: y_0 + y_16 + y_39 + y_42 + y_54 + y_55 + y_63 + y_64 - z_3340 >= 0
 c3342: y_16 + y_39 + y_50 + y_53 + y_54 + y_58 + y_66 + y_91 - z_3341 >= 0
 c3343: y_0 + y_27 + y_42 + y_55 + y_64 - z_3342 >= 0
 c3344: y_11 + y_24 + y_52 + y_59 + y_68 + y_70 + y_86 - z_3343 >= 0
 c3345: y_22 + y_50 + y_56 - z_3344 >= 0
 c3346: y_11 + y_24 + y_43 + y_52 + y_59 + y_67 + y_68 + y_69 + y_70 - z_3345
         >= 0
 c3347: y_24 + y_30 + y_43 + y_52 + y_59 + y_70 + y_94 - z_3346 >= 0
 c3348: y_16 + y_17 + y_39 + y_53 + y_54 + y_55 + y_58 + y_63 + y_64 + y_91
        - z_3347 >= 0
 c3349: y_9 + y_26 + y_67 + y_68 + y_69 + y_97 - z_3348 >= 0
 c3350: y_17 + y_53 + y_58 + y_91 - z_3349 >= 0
 c3351: y_16 + y_39 + y_53 + y_54 + y_58 + y_63 + y_66 + y_91 - z_3350 >= 0
 c3352: y_7 + y_23 + y_31 + y_51 + y_62 + y_89 + y_98 + y_99 - z_3351 >= 0
 c3353: y_3 + y_11 + y_19 + y_26 + y_38 + y_67 + y_68 + y_69 - z_3352 >= 0
 c3354: y_4 + y_6 + y_22 + y_32 + y_90 - z_3353 >= 0
 c3355: y_3 + y_9 + y_11 + y_19 + y_26 + y_38 + y_44 + y_67 + y_69 - z_3354 >= 
        0
 c3356: y_23 + y_46 + y_49 + y_74 + y_95 - z_3355 >= 0
 c3357: y_10 + y_60 + y_76 + y_78 + y_81 - z_3356 >= 0
 c3358: y_3 + y_19 + y_21 + y_33 + y_38 + y_41 + y_43 + y_48 - z_3357 >= 0
 c3359: y_16 + y_39 + y_53 + y_54 + y_58 + y_63 + y_64 + y_91 - z_3358 >= 0
 c3360: y_40 + y_85 + y_92 - z_3359 >= 0
 c3361: y_1 + y_23 + y_46 + y_49 + y_74 + y_95 - z_3360 >= 0
 c3362: y_7 + y_23 + y_31 + y_37 + y_51 + y_62 + y_89 + y_98 + y_99 - z_3361
         >= 0
 c3363: y_37 + y_45 + y_96 - z_3362 >= 0
 c3364: y_30 + y_43 + y_59 + y_94 - z_3363 >= 0
 c3365: y_3 + y_11 + y_19 + y_26 + y_33 + y_38 + y_43 + y_44 + y_48 + y_67
        + y_69 - z_3364 >= 0
 c3366: y_15 + y_18 + y_20 + y_21 + y_36 + y_41 + y_47 + y_48 + y_61 + y_79
        + y_93 + y_95 - z_3365 >= 0
 c3367: y_12 + y_22 + y_57 + y_88 - z_3366 >= 0
 c3368: y_0 + y_27 + y_42 + y_55 + y_63 + y_64 - z_3367 >= 0
 c3369: y_13 + y_28 + y_60 + y_72 + y_76 + y_78 + y_81 - z_3368 >= 0
 c3370: y_0 + y_27 + y_42 + y_55 + y_63 + y_64 - z_3369 >= 0
 c3371: y_0 - z_3370 >= 0
 c3372: y_3 + y_19 + y_21 + y_33 + y_36 + y_38 + y_41 + y_43 + y_47 + y_48
        + y_79 - z_3371 >= 0
 c3373: y_8 + y_17 + y_73 + y_75 + y_96 - z_3372 >= 0
 c3374: y_16 + y_39 + y_42 + y_53 + y_54 + y_55 + y_63 + y_64 + y_91 - z_3373
         >= 0
 c3375: y_71 - z_3374 >= 0
 c3376: y_3 + y_5 + y_20 + y_33 + y_34 + y_44 + y_48 + y_61 + y_79 + y_80 + y_93
        - z_3375 >= 0
 c3377: y_22 - z_3376 >= 0
 c3378: y_16 + y_25 + y_40 + y_50 + y_54 + y_56 + y_66 + y_77 + y_87 - z_3377
         >= 0
 c3379: y_7 + y_31 + y_37 + y_51 + y_62 + y_89 + y_99 - z_3378 >= 0
 c3380: y_57 + y_60 + y_65 + y_72 + y_76 + y_78 - z_3379 >= 0
 c3381: y_5 + y_8 + y_17 + y_34 + y_75 + y_80 + y_93 - z_3380 >= 0
 c3382: y_11 + y_26 + y_52 + y_67 + y_68 + y_69 + y_97 - z_3381 >= 0
 c3383: y_24 + y_52 + y_59 + y_70 + y_86 - z_3382 >= 0
 c3384: y_10 + y_13 + y_57 + y_60 + y_72 + y_76 + y_78 + y_81 - z_3383 >= 0
 c3385: y_24 + y_52 + y_59 + y_70 + y_86 - z_3384 >= 0
 c3386: y_15 + y_18 + y_20 + y_36 + y_41 + y_46 + y_47 + y_61 + y_74 + y_79
        + y_80 + y_93 + y_95 - z_3385 >= 0
 c3387: y_3 + y_15 + y_18 + y_21 + y_33 + y_36 + y_41 + y_47 + y_48 + y_79
        - z_3386 >= 0
 c3388: y_40 + y_85 + y_92 - z_3387 >= 0
 c3389: y_53 + y_58 + y_91 - z_3388 >= 0
 c3390: y_5 + y_6 + y_34 + y_58 + y_90 + y_91 - z_3389 >= 0
 c3391: y_7 + y_23 + y_31 + y_51 + y_62 + y_89 + y_98 + y_99 - z_3390 >= 0
 c3392: y_57 + y_65 + y_72 - z_3391 >= 0
 c3393: y_3 + y_19 + y_21 + y_33 + y_38 + y_43 + y_44 + y_48 - z_3392 >= 0
 c3394: y_50 + y_56 + y_65 - z_3393 >= 0
 c3395: y_8 + y_17 + y_96 - z_3394 >= 0
 c3396: y_16 + y_50 + y_54 + y_56 + y_66 + y_87 - z_3395 >= 0
 c3397: y_4 + y_9 + y_26 + y_32 + y_38 + y_44 + y_67 + y_69 - z_3396 >= 0
 c3398: y_10 + y_78 + y_81 - z_3397 >= 0
 c3399: y_25 + y_29 + y_35 + y_40 + y_50 + y_66 + y_77 + y_87 + y_92 - z_3398
         >= 0
 c3400: y_5 + y_6 + y_34 + y_44 + y_90 - z_3399 >= 0
 c3401: y_24 + y_52 + y_59 + y_70 + y_86 - z_3400 >= 0
 c3402: y_6 + y_58 + y_91 - z_3401 >= 0
 c3403: y_2 + y_14 + y_27 + y_42 + y_55 + y_82 + y_83 - z_3402 >= 0
 c3404: y_16 + y_39 + y_53 + y_54 + y_58 + y_63 + y_66 + y_91 - z_3403 >= 0
 c3405: y_40 + y_87 + y_92 - z_3404 >= 0
 c3406: y_45 - z_3405 >= 0
 c3407: y_10 + y_13 + y_60 + y_76 + y_78 + y_81 - z_3406 >= 0
 c3408: y_0 + y_16 + y_39 + y_42 + y_53 + y_54 + y_55 + y_63 + y_64 - z_3407
         >= 0
 c3409: y_2 + y_14 + y_82 + y_83 + y_84 + y_85 - z_3408 >= 0
 c3410: y_5 + y_8 + y_17 + y_34 + y_96 - z_3409 >= 0
 c3411: y_40 + y_85 + y_92 - z_3410 >= 0
 c3412: y_7 + y_23 + y_31 + y_51 + y_62 + y_98 - z_3411 >= 0
 c3413: y_1 + y_23 + y_31 + y_46 + y_49 + y_73 + y_89 + y_98 + y_99 - z_3412
         >= 0
 c3414: y_12 + y_22 + y_57 + y_65 + y_72 + y_88 - z_3413 >= 0
 c3415: y_37 + y_45 - z_3414 >= 0
 c3416: y_83 + y_84 + y_85 - z_3415 >= 0
 c3417: y_17 + y_39 + y_53 + y_58 + y_63 + y_64 + y_91 - z_3416 >= 0
 c3418: y_5 + y_17 + y_34 + y_58 + y_91 - z_3417 >= 0
 c3419: y_40 + y_87 + y_92 - z_3418 >= 0
 c3420: y_0 + y_27 + y_42 - z_3419 >= 0
 c3421: y_11 + y_19 + y_30 + y_43 + y_52 + y_59 + y_67 + y_68 + y_69 - z_3420
         >= 0
 c3422: y_2 + y_14 + y_42 + y_82 + y_83 + y_85 - z_3421 >= 0
 c3423: y_9 + y_71 + y_97 - z_3422 >= 0
 c3424: y_18 + y_36 + y_47 + y_74 + y_95 - z_3423 >= 0
 c3425: y_2 + y_40 + y_83 + y_85 + y_92 - z_3424 >= 0
 c3426: y_17 + y_53 + y_58 + y_91 - z_3425 >= 0
 c3427: y_4 + y_6 + y_22 + y_32 + y_88 + y_90 - z_3426 >= 0
 c3428: y_25 + y_29 + y_35 + y_77 + y_87 - z_3427 >= 0
 c3429: y_3 + y_19 + y_33 + y_38 + y_44 + y_48 - z_3428 >= 0
 c3430: y_22 + y_50 + y_56 + y_65 - z_3429 >= 0
 c3431: y_56 + y_58 - z_3430 >= 0
 c3432: y_65 - z_3431 >= 0
 c3433: y_1 + y_23 + y_31 + y_73 + y_89 + y_98 + y_99 - z_3432 >= 0
 c3434: y_17 + y_39 + y_53 + y_58 + y_63 + y_91 - z_3433 >= 0
 c3435: y_37 + y_45 - z_3434 >= 0
 c3436: y_2 + y_83 + y_85 - z_3435 >= 0
 c3437: y_3 + y_5 + y_20 + y_33 + y_34 + y_44 + y_48 + y_61 + y_79 + y_93
        - z_3436 >= 0
 c3438: y_4 + y_6 + y_22 + y_32 + y_90 - z_3437 >= 0
 c3439: y_3 + y_19 + y_21 + y_33 + y_36 + y_38 + y_41 + y_43 + y_47 + y_48
        + y_79 - z_3438 >= 0
 c3440: y_25 + y_29 + y_35 + y_50 + y_56 + y_77 - z_3439 >= 0
 c3441: y_83 + y_84 + y_85 - z_3440 >= 0
 c3442: y_16 + y_39 + y_40 + y_54 + y_55 + y_63 + y_64 + y_66 + y_87 - z_3441
         >= 0
 c3443: y_25 + y_29 + y_50 + y_56 + y_66 + y_77 + y_87 - z_3442 >= 0
 c3444: y_3 + y_19 + y_21 + y_33 + y_38 + y_41 + y_44 + y_48 + y_79 - z_3443
         >= 0
 c3445: y_31 + y_37 + y_89 + y_99 - z_3444 >= 0
 c3446: y_12 + y_71 + y_88 - z_3445 >= 0
 c3447: y_12 + y_71 + y_88 - z_3446 >= 0
 c3448: y_15 + y_18 + y_21 + y_36 + y_41 + y_47 + y_79 + y_95 - z_3447 >= 0
 c3449: y_13 + y_57 + y_60 + y_65 + y_72 - z_3448 >= 0
 c3450: y_25 + y_29 + y_50 + y_56 + y_65 + y_77 - z_3449 >= 0
 c3451: y_16 + y_40 + y_42 + y_54 + y_55 + y_64 - z_3450 >= 0
 c3452: y_57 + y_65 + y_72 - z_3451 >= 0
 c3453: y_45 - z_3452 >= 0
 c3454: y_16 + y_39 + y_53 + y_54 + y_58 + y_63 + y_66 + y_91 - z_3453 >= 0
 c3455: y_25 + y_29 + y_35 + y_77 - z_3454 >= 0
 c3456: y_6 + y_58 + y_91 - z_3455 >= 0
 c3457: y_10 + y_13 + y_28 + y_60 + y_76 + y_78 + y_81 - z_3456 >= 0
 c3458: y_17 + y_96 - z_3457 >= 0
 c3459: - z_3458 >= 0
 c3460: y_22 + y_50 + y_56 + y_65 - z_3459 >= 0
 c3461: y_0 + y_27 + y_42 + y_55 + y_64 - z_3460 >= 0
 c3462: y_46 + y_49 + y_74 + y_95 - z_3461 >= 0
 c3463: y_2 + y_83 + y_85 - z_3462 >= 0
 c3464: y_2 + y_83 + y_84 + y_85 - z_3463 >= 0
 c3465: y_22 + y_57 + y_65 + y_72 - z_3464 >= 0
 c3466: y_13 - z_3465 >= 0
 c3467: y_5 + y_17 + y_58 + y_91 - z_3466 >= 0
 c3468: y_4 + y_9 + y_12 + y_32 + y_88 - z_3467 >= 0
 c3469: y_11 + y_24 + y_43 + y_52 + y_59 + y_67 + y_68 + y_69 + y_70 + y_86
        + y_97 - z_3468 >= 0
 c3470: y_0 + y_45 + y_96 - z_3469 >= 0
 c3471: y_0 + y_2 + y_27 + y_42 + y_55 - z_3470 >= 0
 c3472: y_7 + y_23 + y_31 + y_51 + y_62 + y_89 + y_98 - z_3471 >= 0
 c3473: y_5 + y_33 + y_34 + y_44 + y_61 + y_90 - z_3472 >= 0
 c3474: y_5 + y_8 + y_15 + y_20 + y_34 + y_61 + y_75 + y_79 + y_80 + y_93
        - z_3473 >= 0
 c3475: y_1 + y_23 + y_46 + y_49 + y_74 + y_75 + y_95 - z_3474 >= 0
 c3476: y_45 - z_3475 >= 0
 c3477: y_4 + y_6 + y_26 + y_32 + y_38 + y_44 + y_90 - z_3476 >= 0
 c3478: y_25 + y_29 + y_50 + y_56 + y_77 - z_3477 >= 0
 c3479: y_0 + y_27 + y_39 + y_42 + y_55 + y_63 + y_64 - z_3478 >= 0
 c3480: y_13 - z_3479 >= 0
 c3481: y_17 + y_53 + y_58 + y_63 + y_91 - z_3480 >= 0
 c3482: y_13 + y_28 + y_60 + y_72 + y_76 + y_78 + y_81 - z_3481 >= 0
 c3483: y_10 + y_78 - z_3482 >= 0
 c3484: y_25 + y_35 + y_40 + y_66 + y_77 + y_87 + y_92 - z_3483 >= 0
 c3485: y_12 + y_32 + y_71 + y_88 - z_3484 >= 0
 c3486: y_25 + y_35 + y_40 + y_77 + y_92 - z_3485 >= 0
 c3487: y_17 + y_96 - z_3486 >= 0
 c3488: y_10 + y_60 + y_76 + y_78 + y_81 - z_3487 >= 0
 c3489: y_4 + y_6 + y_9 + y_32 + y_90 - z_3488 >= 0
 c3490: y_7 + y_23 + y_31 + y_51 + y_62 + y_89 + y_98 + y_99 - z_3489 >= 0
 c3491: y_15 + y_18 + y_21 + y_36 + y_41 + y_47 + y_48 + y_79 + y_94 - z_3490
         >= 0
 c3492: y_3 + y_5 + y_20 + y_33 + y_34 + y_44 + y_48 + y_61 + y_79 + y_80 + y_93
        - z_3491 >= 0
 c3493: y_15 + y_18 + y_20 + y_21 + y_36 + y_41 + y_46 + y_47 + y_61 + y_74
        + y_79 + y_80 + y_93 + y_95 - z_3492 >= 0
 c3494: y_0 + y_2 + y_27 + y_42 + y_55 + y_64 - z_3493 >= 0
 c3495: y_13 + y_60 + y_72 + y_76 - z_3494 >= 0
 c3496: y_3 + y_19 + y_21 + y_33 + y_38 + y_41 + y_44 + y_47 + y_48 + y_61
        + y_79 - z_3495 >= 0
 c3497: y_17 + y_39 + y_53 + y_58 + y_63 + y_91 - z_3496 >= 0
 c3498: y_37 + y_45 - z_3497 >= 0
 c3499: y_45 + y_96 - z_3498 >= 0
 c3500: y_23 + y_49 + y_74 + y_98 - z_3499 >= 0
 c3501: y_10 + y_12 + y_88 - z_3500 >= 0
 c3502: y_11 + y_67 + y_68 + y_69 + y_97 - z_3501 >= 0
 c3503: y_83 + y_84 + y_85 - z_3502 >= 0
 c3504: y_2 + y_14 + y_82 + y_83 - z_3503 >= 0
 c3505: y_15 + y_18 + y_20 + y_36 + y_41 + y_46 + y_47 + y_49 + y_74 + y_79
        + y_80 + y_93 + y_95 - z_3504 >= 0
 c3506: y_24 + y_30 + y_43 + y_52 + y_59 + y_70 + y_86 - z_3505 >= 0
 c3507: y_96 - z_3506 >= 0
 c3508: y_16 + y_39 + y_53 + y_54 + y_55 + y_63 + y_64 + y_66 - z_3507 >= 0
 c3509: y_5 + y_6 + y_34 + y_90 - z_3508 >= 0
 c3510: y_8 + y_34 + y_75 + y_80 + y_93 + y_96 - z_3509 >= 0
 c3511: y_35 + y_92 - z_3510 >= 0
 c3512: y_16 + y_50 + y_54 + y_56 + y_66 + y_87 - z_3511 >= 0
 c3513: y_53 + y_58 + y_91 - z_3512 >= 0
 c3514: y_0 + y_2 + y_27 + y_42 + y_55 + y_64 - z_3513 >= 0
 c3515: y_37 + y_45 - z_3514 >= 0
 c3516: y_21 + y_30 + y_36 + y_43 + y_94 - z_3515 >= 0
 c3517: y_14 + y_27 - z_3516 >= 0
 c3518: y_23 + y_49 + y_74 + y_98 - z_3517 >= 0
 c3519: y_3 + y_5 + y_19 + y_20 + y_33 + y_34 + y_38 + y_44 + y_48 + y_61 + y_79
        + y_93 - z_3518 >= 0
 c3520: y_24 + y_30 + y_43 + y_52 + y_59 + y_70 + y_94 - z_3519 >= 0
 c3521: y_16 + y_39 + y_53 + y_54 + y_58 + y_63 + y_66 + y_87 - z_3520 >= 0
 c3522: y_0 + y_27 + y_42 - z_3521 >= 0
 c3523: y_37 + y_45 + y_96 - z_3522 >= 0
 c3524: y_0 + y_27 + y_39 + y_42 + y_55 + y_63 + y_64 - z_3523 >= 0
 c3525: y_12 + y_57 + y_88 - z_3524 >= 0
 c3526: y_11 + y_68 + y_86 + y_97 - z_3525 >= 0
 c3527: y_6 + y_90 - z_3526 >= 0
 c3528: y_11 + y_24 + y_52 + y_59 + y_68 + y_70 + y_86 - z_3527 >= 0
 c3529: y_7 + y_23 + y_31 + y_51 + y_62 + y_89 + y_98 + y_99 - z_3528 >= 0
 c3530: y_11 + y_19 + y_30 + y_43 + y_52 + y_59 + y_94 - z_3529 >= 0
 c3531: y_5 + y_17 + y_34 + y_58 + y_91 - z_3530 >= 0
 c3532: y_45 - z_3531 >= 0
 c3533: y_37 + y_45 + y_73 - z_3532 >= 0
 c3534: y_16 + y_39 + y_50 + y_54 + y_56 + y_58 + y_66 + y_87 - z_3533 >= 0
 c3535: y_3 + y_5 + y_19 + y_33 + y_34 + y_38 + y_44 + y_48 + y_61 - z_3534 >= 
        0
 c3536: y_30 + y_43 + y_59 + y_94 - z_3535 >= 0
 c3537: y_2 + y_14 + y_82 + y_83 + y_84 - z_3536 >= 0
 c3538: y_3 + y_15 + y_18 + y_21 + y_33 + y_36 + y_41 + y_47 + y_48 + y_61
        + y_79 - z_3537 >= 0
 c3539: y_2 + y_40 + y_55 + y_83 + y_85 + y_92 - z_3538 >= 0
 c3540: y_30 + y_43 + y_52 + y_59 + y_94 - z_3539 >= 0
 c3541: y_16 + y_39 + y_40 + y_50 + y_54 + y_56 + y_66 + y_87 - z_3540 >= 0
 c3542: y_23 + y_46 + y_49 + y_74 + y_98 - z_3541 >= 0
 c3543: y_1 + y_8 + y_46 + y_49 + y_73 + y_75 - z_3542 >= 0
 c3544: y_37 + y_45 + y_73 - z_3543 >= 0
 c3545: y_40 + y_87 + y_92 - z_3544 >= 0
 c3546: y_16 + y_50 + y_54 + y_56 + y_66 + y_87 - z_3545 >= 0
 c3547: y_16 + y_17 + y_39 + y_53 + y_54 + y_55 + y_58 + y_63 + y_64 + y_91
        - z_3546 >= 0
 c3548: y_45 + y_96 - z_3547 >= 0
 c3549: y_10 + y_12 + y_78 + y_88 - z_3548 >= 0
 c3550: y_0 + y_27 + y_42 - z_3549 >= 0
 c3551: y_10 + y_13 + y_28 + y_60 + y_76 + y_78 + y_81 - z_3550 >= 0
 c3552: y_25 + y_29 + y_35 + y_77 - z_3551 >= 0
 c3553: y_3 + y_19 + y_21 + y_33 + y_38 + y_41 + y_43 + y_48 - z_3552 >= 0
 c3554: y_2 + y_83 + y_84 + y_85 - z_3553 >= 0
 c3555: y_10 + y_13 + y_28 + y_60 + y_76 + y_78 + y_81 - z_3554 >= 0
 c3556: y_71 - z_3555 >= 0
 c3557: y_3 + y_19 + y_33 + y_38 + y_44 + y_48 + y_61 + y_79 - z_3556 >= 0
 c3558: y_25 + y_29 + y_35 + y_50 + y_77 + y_87 + y_92 - z_3557 >= 0
 c3559: y_53 + y_58 + y_91 - z_3558 >= 0
 c3560: y_40 + y_42 + y_54 + y_55 + y_92 - z_3559 >= 0
 c3561: y_16 + y_39 + y_50 + y_54 + y_66 + y_87 - z_3560 >= 0
 c3562: y_16 + y_50 + y_54 + y_56 + y_66 + y_87 - z_3561 >= 0
 c3563: y_16 + y_39 + y_53 + y_54 + y_55 + y_63 + y_64 + y_66 - z_3562 >= 0
 c3564: y_1 + y_31 + y_37 + y_73 + y_89 + y_99 - z_3563 >= 0
 c3565: y_8 + y_20 + y_46 + y_75 + y_80 + y_93 - z_3564 >= 0
 c3566: y_9 + y_11 + y_26 + y_67 + y_68 + y_69 + y_97 - z_3565 >= 0
 c3567: y_45 + y_96 - z_3566 >= 0
 c3568: y_40 + y_54 + y_87 + y_92 - z_3567 >= 0
 c3569: y_5 + y_6 + y_34 + y_44 + y_90 - z_3568 >= 0
 c3570: y_4 + y_6 + y_12 + y_22 + y_32 + y_88 - z_3569 >= 0
 c3571: y_16 + y_39 + y_40 + y_42 + y_54 + y_55 + y_63 + y_64 - z_3570 >= 0
 c3572: y_10 + y_13 + y_28 + y_60 + y_76 + y_78 + y_81 - z_3571 >= 0
 c3573: y_45 - z_3572 >= 0
 c3574: y_4 + y_9 + y_12 + y_32 + y_88 - z_3573 >= 0
 c3575: y_24 + y_52 + y_59 + y_70 + y_86 - z_3574 >= 0
 c3576: y_8 + y_17 + y_73 + y_96 - z_3575 >= 0
 c3577: y_13 + y_57 + y_65 + y_72 - z_3576 >= 0
 c3578: y_7 + y_23 + y_31 + y_51 + y_62 + y_89 + y_98 + y_99 - z_3577 >= 0
 c3579: y_8 + y_15 + y_20 + y_33 + y_34 + y_41 + y_48 + y_61 + y_75 + y_79
        + y_80 + y_93 + y_95 - z_3578 >= 0
 c3580: y_16 + y_25 + y_40 + y_54 + y_66 + y_77 + y_87 + y_92 - z_3579 >= 0
 c3581: y_8 + y_15 + y_20 + y_33 + y_34 + y_41 + y_48 + y_61 + y_75 + y_79
        + y_80 + y_93 + y_95 - z_3580 >= 0
 c3582: y_0 + y_27 + y_42 + y_55 + y_64 - z_3581 >= 0
 c3583: y_4 + y_5 + y_6 + y_32 + y_44 + y_90 - z_3582 >= 0
 c3584: y_8 + y_15 + y_20 + y_34 + y_46 + y_61 + y_75 + y_79 + y_80 + y_93
        + y_95 - z_3583 >= 0
 c3585: y_11 + y_19 + y_43 + y_52 + y_59 + y_67 + y_68 + y_69 - z_3584 >= 0
 c3586: y_30 + y_43 + y_52 + y_59 + y_94 - z_3585 >= 0
 c3587: y_10 + y_13 + y_57 + y_60 + y_72 + y_76 + y_78 + y_81 - z_3586 >= 0
 c3588: y_13 + y_28 + y_60 + y_76 + y_78 + y_81 - z_3587 >= 0
 c3589: y_0 + y_2 + y_27 + y_42 + y_55 + y_64 - z_3588 >= 0
 c3590: y_15 + y_18 + y_20 + y_46 + y_49 + y_74 + y_75 + y_79 + y_80 + y_93
        + y_95 - z_3589 >= 0
 c3591: y_12 + y_22 + y_57 + y_65 + y_72 + y_88 - z_3590 >= 0
 c3592: y_53 + y_58 + y_91 - z_3591 >= 0
 c3593: y_53 + y_58 + y_91 - z_3592 >= 0
 c3594: y_29 - z_3593 >= 0
 c3595: y_24 + y_30 + y_43 + y_52 + y_59 + y_70 + y_94 - z_3594 >= 0
 c3596: y_9 + y_11 + y_19 + y_26 + y_38 + y_67 + y_68 + y_69 - z_3595 >= 0
 c3597: y_85 + y_92 - z_3596 >= 0
 c3598: y_10 + y_13 + y_28 + y_60 + y_72 + y_76 + y_78 + y_81 - z_3597 >= 0
 c3599: y_5 + y_8 + y_20 + y_34 + y_61 + y_75 + y_80 + y_93 - z_3598 >= 0
 c3600: y_31 + y_37 + y_73 + y_89 + y_99 - z_3599 >= 0
 c3601: y_25 + y_29 + y_35 + y_50 + y_56 + y_66 + y_77 + y_87 - z_3600 >= 0
 c3602: y_8 + y_17 + y_96 - z_3601 >= 0
 c3603: y_3 + y_5 + y_19 + y_33 + y_34 + y_38 + y_44 + y_48 + y_61 + y_79
        - z_3602 >= 0
 c3604: y_16 + y_40 + y_54 + y_55 + y_66 + y_87 + y_92 - z_3603 >= 0
 c3605: y_2 + y_14 + y_27 + y_82 - z_3604 >= 0
 c3606: y_10 + y_13 + y_57 + y_60 + y_72 + y_76 + y_78 + y_81 - z_3605 >= 0
 c3607: y_5 + y_8 + y_17 + y_34 - z_3606 >= 0
 c3608: y_25 + y_35 + y_40 + y_77 + y_87 + y_92 - z_3607 >= 0
 c3609: y_28 - z_3608 >= 0
 c3610: y_10 + y_13 + y_57 + y_60 + y_72 + y_76 + y_78 + y_81 - z_3609 >= 0
 c3611: y_10 + y_78 - z_3610 >= 0
 c3612: y_1 + y_31 + y_37 + y_73 + y_89 + y_99 - z_3611 >= 0
 c3613: y_21 + y_30 + y_36 + y_43 + y_47 + y_94 - z_3612 >= 0
 c3614: y_7 + y_23 + y_31 + y_51 + y_62 + y_89 + y_98 + y_99 - z_3613 >= 0
 c3615: y_1 + y_8 + y_15 + y_20 + y_46 + y_49 + y_75 + y_80 + y_93 + y_95
        - z_3614 >= 0
 c3616: y_25 + y_40 + y_54 + y_66 + y_77 + y_87 + y_92 - z_3615 >= 0
 c3617: y_2 + y_14 + y_27 + y_42 + y_82 - z_3616 >= 0
 c3618: y_0 + y_27 + y_39 + y_42 + y_55 + y_63 + y_64 - z_3617 >= 0
 c3619: y_71 - z_3618 >= 0
 c3620: y_25 + y_29 + y_35 + y_77 - z_3619 >= 0
 c3621: y_1 + y_73 + y_96 - z_3620 >= 0
 c3622: y_12 + y_22 + y_57 + y_88 - z_3621 >= 0
 c3623: y_3 + y_19 + y_21 + y_30 + y_33 + y_38 + y_43 + y_48 + y_52 + y_59
        - z_3622 >= 0
 c3624: y_16 + y_50 + y_54 + y_56 + y_58 + y_66 - z_3623 >= 0
 c3625: y_37 + y_45 + y_73 + y_96 - z_3624 >= 0
 c3626: y_15 + y_18 + y_20 + y_21 + y_36 + y_41 + y_47 + y_48 + y_61 + y_79
        + y_80 + y_93 + y_95 - z_3625 >= 0
 c3627: y_0 + y_27 + y_42 - z_3626 >= 0
 c3628: y_16 + y_39 + y_40 + y_54 + y_63 + y_66 + y_87 - z_3627 >= 0
 c3629: y_4 + y_6 + y_32 + y_90 - z_3628 >= 0
 c3630: y_13 + y_28 + y_60 - z_3629 >= 0
 c3631: y_3 + y_19 + y_21 + y_33 + y_38 + y_41 + y_44 + y_48 + y_79 - z_3630
         >= 0
 c3632: y_12 + y_22 + y_57 + y_72 + y_78 + y_88 - z_3631 >= 0
 c3633: y_11 + y_24 + y_30 + y_43 + y_52 + y_59 + y_68 + y_70 + y_86 - z_3632
         >= 0
 c3634: y_40 + y_66 + y_87 + y_92 - z_3633 >= 0
 c3635: y_50 + y_56 + y_65 - z_3634 >= 0
 c3636: y_10 + y_13 + y_57 + y_60 + y_72 + y_76 + y_78 + y_81 - z_3635 >= 0
 c3637: y_0 + y_14 + y_27 + y_42 - z_3636 >= 0
 c3638: y_16 + y_40 + y_50 + y_54 + y_66 + y_87 - z_3637 >= 0
 c3639: y_13 + y_60 + y_72 + y_76 - z_3638 >= 0
 c3640: y_25 + y_29 + y_35 + y_77 - z_3639 >= 0
 c3641: y_23 + y_49 + y_74 + y_98 - z_3640 >= 0
 c3642: y_37 + y_45 + y_73 + y_89 - z_3641 >= 0
 c3643: y_4 + y_6 + y_32 + y_90 - z_3642 >= 0
 c3644: y_31 + y_37 + y_89 + y_99 - z_3643 >= 0
 c3645: y_10 + y_13 + y_28 + y_60 + y_76 + y_78 + y_81 - z_3644 >= 0
 c3646: y_0 + y_39 + y_42 + y_53 + y_55 + y_63 + y_64 - z_3645 >= 0
 c3647: y_7 + y_23 + y_31 + y_51 + y_62 + y_89 + y_98 + y_99 - z_3646 >= 0
 c3648: y_40 + y_92 - z_3647 >= 0
 c3649: y_0 + y_27 + y_42 + y_55 + y_63 + y_64 - z_3648 >= 0
 c3650: y_13 + y_57 + y_60 + y_65 + y_72 + y_76 + y_78 - z_3649 >= 0
 c3651: y_16 + y_39 + y_53 + y_54 + y_58 + y_63 + y_64 + y_66 + y_91 - z_3650
         >= 0
 c3652: y_5 + y_6 + y_90 - z_3651 >= 0
 c3653: y_35 + y_92 - z_3652 >= 0
 c3654: y_1 + y_23 + y_31 + y_46 + y_49 + y_73 + y_98 + y_99 - z_3653 >= 0
 c3655: y_10 + y_12 + y_57 + y_72 + y_76 + y_78 + y_81 + y_88 - z_3654 >= 0
 c3656: y_1 + y_7 + y_23 + y_31 + y_37 + y_51 + y_62 + y_89 + y_98 + y_99
        - z_3655 >= 0
 c3657: y_3 + y_11 + y_19 + y_33 + y_38 + y_43 + y_44 + y_48 + y_67 + y_69
        - z_3656 >= 0
 c3658: y_5 + y_8 + y_20 + y_34 + y_61 + y_80 + y_93 - z_3657 >= 0
 c3659: y_4 + y_6 + y_32 + y_90 - z_3658 >= 0
 c3660: y_22 - z_3659 >= 0
 c3661: y_25 + y_35 + y_40 + y_66 + y_77 + y_87 + y_92 - z_3660 >= 0
 c3662: y_17 + y_96 - z_3661 >= 0
 c3663: y_12 + y_71 - z_3662 >= 0
 c3664: y_15 + y_20 + y_46 + y_49 + y_61 + y_74 + y_75 + y_79 + y_80 + y_93
        + y_95 - z_3663 >= 0
 c3665: y_1 + y_31 + y_37 + y_73 + y_89 + y_99 - z_3664 >= 0
 c3666: y_12 + y_71 + y_88 - z_3665 >= 0
 c3667: y_9 + y_12 + y_71 + y_88 - z_3666 >= 0
 c3668: y_31 + y_37 + y_89 - z_3667 >= 0
 c3669: y_8 + y_15 + y_20 + y_34 + y_41 + y_48 + y_61 + y_75 + y_79 + y_80
        + y_93 + y_95 - z_3668 >= 0
 c3670: y_5 + y_8 + y_17 + y_34 + y_75 + y_80 + y_96 - z_3669 >= 0
 c3671: y_71 - z_3670 >= 0
 c3672: y_16 + y_50 + y_54 + y_56 + y_58 + y_66 - z_3671 >= 0
 c3673: - z_3672 >= 0
 c3674: y_37 + y_45 - z_3673 >= 0
 c3675: y_16 + y_39 + y_50 + y_54 + y_56 + y_58 + y_66 + y_91 - z_3674 >= 0
 c3676: y_2 + y_14 + y_82 + y_83 + y_84 + y_85 - z_3675 >= 0
 c3677: y_5 + y_15 + y_20 + y_33 + y_34 + y_44 + y_48 + y_61 + y_79 + y_80
        + y_93 - z_3676 >= 0
 c3678: y_17 + y_53 + y_63 + y_91 - z_3677 >= 0
 c3679: y_57 + y_60 + y_65 + y_72 + y_76 + y_78 + y_88 - z_3678 >= 0
 c3680: y_18 + y_21 + y_30 + y_36 + y_41 + y_47 + y_94 - z_3679 >= 0
 c3681: y_12 + y_71 - z_3680 >= 0
 c3682: y_25 + y_29 + y_35 + y_50 + y_56 + y_77 - z_3681 >= 0
 c3683: y_0 + y_27 - z_3682 >= 0
 c3684: y_0 + y_27 + y_42 - z_3683 >= 0
 c3685: y_4 + y_9 + y_12 + y_32 + y_88 - z_3684 >= 0
 c3686: y_10 + y_13 + y_57 + y_60 + y_72 + y_76 + y_78 + y_81 - z_3685 >= 0
 c3687: y_45 - z_3686 >= 0
 c3688: y_16 + y_39 + y_50 + y_54 + y_56 + y_66 + y_87 - z_3687 >= 0
 c3689: y_17 + y_53 + y_58 + y_91 - z_3688 >= 0
 c3690: y_2 + y_83 + y_85 - z_3689 >= 0
 c3691: y_1 + y_7 + y_23 + y_31 + y_37 + y_51 + y_73 + y_89 + y_98 + y_99
        - z_3690 >= 0
 c3692: y_12 + y_22 + y_57 + y_65 + y_72 + y_88 - z_3691 >= 0
 c3693: y_15 + y_18 + y_21 + y_36 + y_41 + y_47 + y_74 + y_79 + y_95 - z_3692
         >= 0
 c3694: y_1 + y_37 + y_73 + y_96 - z_3693 >= 0
 c3695: y_13 + y_57 + y_60 + y_65 + y_72 + y_76 + y_78 + y_81 - z_3694 >= 0
 c3696: y_16 + y_40 + y_54 + y_66 + y_87 + y_92 - z_3695 >= 0
 c3697: y_25 + y_35 + y_40 + y_77 + y_87 + y_92 - z_3696 >= 0
 c3698: y_4 + y_6 + y_32 + y_44 + y_90 - z_3697 >= 0
 c3699: y_16 + y_25 + y_50 + y_54 + y_56 + y_66 + y_77 + y_87 - z_3698 >= 0
 c3700: y_11 + y_67 + y_68 + y_69 + y_97 - z_3699 >= 0
 c3701: y_40 + y_87 + y_92 - z_3700 >= 0
 c3702: y_37 + y_45 - z_3701 >= 0
 c3703: y_17 + y_53 + y_63 + y_96 - z_3702 >= 0
 c3704: y_0 + y_2 + y_14 + y_27 + y_42 + y_82 - z_3703 >= 0
 c3705: y_11 + y_52 + y_68 + y_86 + y_97 - z_3704 >= 0
 c3706: y_15 + y_18 + y_21 + y_33 + y_36 + y_41 + y_47 + y_48 + y_61 + y_79
        + y_95 - z_3705 >= 0
 c3707: y_8 + y_20 + y_34 + y_75 + y_80 + y_93 + y_96 - z_3706 >= 0
 c3708: y_13 + y_57 + y_60 + y_65 + y_72 + y_76 - z_3707 >= 0
 c3709: y_25 + y_35 + y_40 + y_77 + y_87 + y_92 - z_3708 >= 0
 c3710: y_1 + y_23 + y_31 + y_37 + y_73 + y_89 + y_98 + y_99 - z_3709 >= 0
 c3711: y_4 + y_6 + y_12 + y_32 + y_90 - z_3710 >= 0
 c3712: y_11 + y_24 + y_52 + y_68 + y_70 + y_86 + y_97 - z_3711 >= 0
 c3713: y_16 + y_39 + y_53 + y_54 + y_58 + y_63 + y_66 + y_91 - z_3712 >= 0
 c3714: y_25 + y_29 + y_35 + y_50 + y_56 + y_77 - z_3713 >= 0
 c3715: y_17 + y_53 + y_58 + y_91 - z_3714 >= 0
 c3716: y_2 + y_14 + y_27 + y_42 + y_55 + y_82 + y_83 - z_3715 >= 0
 c3717: y_8 + y_15 + y_20 + y_46 + y_49 + y_61 + y_75 + y_79 + y_80 + y_93
        + y_95 - z_3716 >= 0
 c3718: y_0 + y_2 + y_14 + y_27 + y_42 + y_55 + y_82 - z_3717 >= 0
 c3719: y_3 + y_19 + y_21 + y_33 + y_36 + y_38 + y_41 + y_43 + y_47 + y_48
        + y_79 - z_3718 >= 0
 c3720: y_16 + y_39 + y_53 + y_54 + y_58 + y_63 + y_66 + y_91 - z_3719 >= 0
 c3721: y_25 + y_35 + y_40 + y_92 - z_3720 >= 0
 c3722: y_22 + y_57 + y_65 + y_72 + y_88 - z_3721 >= 0
 c3723: y_0 + y_17 + y_53 + y_63 + y_64 - z_3722 >= 0
 c3724: y_58 - z_3723 >= 0
 c3725: y_16 + y_39 + y_50 + y_54 + y_56 + y_58 + y_66 + y_87 - z_3724 >= 0
 c3726: y_11 + y_19 + y_26 + y_38 + y_43 + y_52 + y_59 + y_67 + y_68 + y_69
        - z_3725 >= 0
 c3727: y_2 + y_40 + y_42 + y_55 + y_83 - z_3726 >= 0
 c3728: y_16 + y_17 + y_39 + y_53 + y_54 + y_58 + y_63 + y_64 + y_91 - z_3727
         >= 0
 c3729: y_25 + y_29 + y_35 + y_77 + y_87 + y_92 - z_3728 >= 0
 c3730: y_25 + y_29 + y_35 + y_50 + y_77 + y_87 + y_92 - z_3729 >= 0
 c3731: y_16 + y_17 + y_39 + y_53 + y_58 + y_63 + y_91 - z_3730 >= 0
 c3732: y_65 - z_3731 >= 0
 c3733: y_22 + y_57 + y_65 + y_72 - z_3732 >= 0
 c3734: y_5 + y_6 + y_34 + y_44 + y_90 - z_3733 >= 0
 c3735: y_13 + y_28 + y_60 + y_76 + y_81 - z_3734 >= 0
 c3736: y_37 + y_89 - z_3735 >= 0
 c3737: y_10 + y_57 + y_60 + y_72 + y_76 + y_78 + y_81 - z_3736 >= 0
 c3738: y_11 + y_24 + y_52 + y_68 + y_70 + y_86 + y_97 - z_3737 >= 0
 c3739: y_0 + y_17 + y_53 + y_63 + y_64 - z_3738 >= 0
 c3740: y_12 + y_22 + y_57 + y_65 + y_72 + y_88 - z_3739 >= 0
 c3741: y_0 + y_27 + y_42 + y_53 + y_55 + y_63 + y_64 - z_3740 >= 0
 c3742: y_9 + y_71 - z_3741 >= 0
 c3743: y_8 + y_20 + y_34 + y_61 + y_75 + y_80 + y_93 - z_3742 >= 0
 c3744: y_2 + y_14 + y_82 + y_83 + y_84 - z_3743 >= 0
 c3745: y_96 - z_3744 >= 0
 c3746: y_12 + y_22 + y_57 + y_65 + y_88 - z_3745 >= 0
 c3747: y_37 + y_45 - z_3746 >= 0
 c3748: y_16 + y_50 + y_54 + y_56 + y_66 + y_87 - z_3747 >= 0
 c3749: y_7 + y_23 + y_31 + y_51 + y_98 + y_99 - z_3748 >= 0
 c3750: y_1 + y_7 + y_23 + y_31 + y_51 + y_89 + y_98 + y_99 - z_3749 >= 0
 c3751: y_7 + y_31 + y_37 + y_51 + y_62 + y_89 + y_99 - z_3750 >= 0
 c3752: y_25 + y_35 + y_40 + y_77 + y_87 + y_92 - z_3751 >= 0
 c3753: y_9 + y_11 + y_26 + y_67 + y_68 + y_69 + y_97 - z_3752 >= 0
 c3754: y_1 + y_7 + y_31 + y_37 + y_51 + y_62 + y_89 + y_98 + y_99 - z_3753 >= 
        0
 c3755: y_13 + y_60 + y_72 + y_76 + y_78 + y_81 - z_3754 >= 0
 c3756: y_24 + y_43 + y_52 + y_59 + y_70 + y_86 - z_3755 >= 0
 c3757: y_25 + y_29 + y_35 + y_50 + y_56 + y_66 + y_77 + y_87 - z_3756 >= 0
 c3758: y_25 + y_29 + y_35 + y_50 + y_56 + y_66 + y_77 + y_87 - z_3757 >= 0
 c3759: y_0 + y_45 - z_3758 >= 0
 c3760: y_3 + y_19 + y_33 + y_38 + y_44 + y_90 - z_3759 >= 0
 c3761: y_9 + y_26 + y_71 + y_97 - z_3760 >= 0
 c3762: y_13 + y_28 + y_60 + y_76 + y_81 - z_3761 >= 0
 c3763: y_4 + y_9 + y_26 + y_32 + y_90 - z_3762 >= 0
 c3764: - z_3763 >= 0
 c3765: y_25 + y_29 + y_35 + y_50 + y_56 + y_77 + y_87 - z_3764 >= 0
 c3766: y_45 - z_3765 >= 0
 c3767: y_37 + y_45 - z_3766 >= 0
 c3768: y_25 + y_29 + y_35 + y_77 + y_92 - z_3767 >= 0
 c3769: y_4 + y_6 + y_22 + y_32 + y_90 - z_3768 >= 0
 c3770: y_0 + y_27 - z_3769 >= 0
 c3771: y_18 + y_46 + y_49 + y_74 + y_95 - z_3770 >= 0
 c3772: y_25 + y_29 + y_50 + y_56 + y_77 - z_3771 >= 0
 c3773: y_11 + y_24 + y_30 + y_43 + y_52 + y_59 + y_70 + y_86 - z_3772 >= 0
 c3774: y_21 + y_30 + y_36 + y_43 + y_94 - z_3773 >= 0
 c3775: y_5 + y_34 + y_44 + y_61 + y_90 + y_93 - z_3774 >= 0
 c3776: y_17 + y_53 + y_91 + y_96 - z_3775 >= 0
 c3777: y_3 + y_11 + y_19 + y_26 + y_33 + y_38 + y_44 + y_67 + y_69 - z_3776
         >= 0
 c3778: y_17 + y_53 + y_58 + y_91 - z_3777 >= 0
 c3779: y_3 + y_19 + y_21 + y_30 + y_33 + y_38 + y_43 + y_48 + y_59 - z_3778
         >= 0
 c3780: y_8 + y_15 + y_20 + y_34 + y_41 + y_46 + y_61 + y_75 + y_79 + y_80
        + y_93 + y_95 - z_3779 >= 0
 c3781: y_45 - z_3780 >= 0
 c3782: y_3 + y_19 + y_21 + y_30 + y_43 + y_52 + y_59 + y_94 - z_3781 >= 0
 c3783: y_11 + y_24 + y_43 + y_52 + y_59 + y_67 + y_68 + y_69 + y_70 - z_3782
         >= 0
 c3784: y_0 + y_27 + y_45 - z_3783 >= 0
 c3785: y_3 + y_19 + y_21 + y_33 + y_38 + y_44 + y_48 + y_79 - z_3784 >= 0
 c3786: y_7 + y_23 + y_31 + y_51 + y_62 + y_89 + y_98 + y_99 - z_3785 >= 0
 c3787: y_0 + y_16 + y_39 + y_42 + y_53 + y_54 + y_55 + y_63 + y_64 - z_3786
         >= 0
 c3788: y_11 + y_24 + y_43 + y_52 + y_59 + y_67 + y_68 + y_69 + y_70 + y_97
        - z_3787 >= 0
 c3789: y_4 + y_6 + y_12 + y_22 + y_32 + y_88 - z_3788 >= 0
 c3790: y_1 + y_31 + y_37 + y_73 + y_89 + y_96 + y_99 - z_3789 >= 0
 c3791: y_12 + y_71 + y_88 - z_3790 >= 0
 c3792: y_12 + y_22 + y_57 + y_65 + y_72 + y_88 - z_3791 >= 0
 c3793: y_3 + y_11 + y_19 + y_30 + y_38 + y_43 + y_52 + y_59 + y_67 + y_68
        + y_69 - z_3792 >= 0
 c3794: y_0 + y_64 + y_96 - z_3793 >= 0
 c3795: y_16 + y_39 + y_53 + y_54 + y_55 + y_63 + y_64 + y_66 - z_3794 >= 0
 c3796: y_4 + y_6 + y_26 + y_32 + y_38 + y_44 + y_90 - z_3795 >= 0
 c3797: y_45 + y_96 - z_3796 >= 0
 c3798: y_18 + y_36 + y_41 + y_47 + y_74 + y_95 - z_3797 >= 0
 c3799: y_6 + y_58 + y_90 - z_3798 >= 0
 c3800: y_3 + y_15 + y_20 + y_21 + y_33 + y_34 + y_41 + y_44 + y_48 + y_61
        + y_79 + y_80 + y_93 - z_3799 >= 0
 c3801: y_12 + y_22 + y_57 + y_72 + y_88 - z_3800 >= 0
 c3802: y_23 + y_46 + y_49 + y_74 + y_98 - z_3801 >= 0
 c3803: y_1 + y_8 + y_23 + y_46 + y_49 + y_73 + y_75 + y_95 - z_3802 >= 0
 c3804: y_23 + y_49 + y_74 + y_98 - z_3803 >= 0
 c3805: y_4 + y_6 + y_9 + y_26 + y_32 + y_38 + y_44 + y_90 - z_3804 >= 0
 c3806: y_0 + y_16 + y_39 + y_42 + y_54 + y_55 + y_63 + y_64 - z_3805 >= 0
 c3807: y_13 + y_28 + y_60 + y_76 - z_3806 >= 0
 c3808: y_16 + y_39 + y_53 + y_54 + y_58 + y_63 + y_64 + y_66 + y_87 - z_3807
         >= 0
 c3809: y_0 + y_27 + y_42 + y_55 + y_64 - z_3808 >= 0
 c3810: y_0 + y_96 - z_3809 >= 0
 c3811: y_40 + y_83 + y_85 + y_92 - z_3810 >= 0
 c3812: y_9 + y_26 + y_32 + y_67 + y_69 + y_71 - z_3811 >= 0
 c3813: y_8 + y_73 + y_75 + y_80 + y_96 - z_3812 >= 0
 c3814: y_25 + y_35 + y_40 + y_77 + y_87 + y_92 - z_3813 >= 0
 c3815: y_13 + y_28 + y_60 + y_76 + y_81 - z_3814 >= 0
 c3816: y_0 + y_27 + y_42 + y_55 + y_64 - z_3815 >= 0
 c3817: y_4 + y_5 + y_6 + y_34 + y_44 + y_90 - z_3816 >= 0
 c3818: y_65 - z_3817 >= 0
 c3819: y_25 + y_29 + y_35 + y_50 + y_56 + y_77 - z_3818 >= 0
 c3820: y_9 + y_11 + y_26 + y_67 + y_68 + y_69 + y_97 - z_3819 >= 0
 c3821: y_1 + y_23 + y_46 + y_49 + y_74 + y_75 + y_95 - z_3820 >= 0
 c3822: y_7 + y_31 + y_37 + y_51 + y_62 + y_89 + y_99 - z_3821 >= 0
 c3823: y_37 + y_45 + y_73 + y_96 - z_3822 >= 0
 c3824: y_9 + y_11 + y_26 + y_67 + y_68 + y_69 + y_97 - z_3823 >= 0
 c3825: y_11 + y_24 + y_52 + y_59 + y_68 + y_70 + y_86 - z_3824 >= 0
 c3826: y_3 + y_11 + y_19 + y_30 + y_38 + y_43 + y_52 + y_59 + y_67 + y_68
        + y_69 - z_3825 >= 0
 c3827: y_27 - z_3826 >= 0
 c3828: y_5 + y_20 + y_33 + y_34 + y_44 + y_61 + y_90 + y_93 - z_3827 >= 0
 c3829: y_13 + y_28 + y_60 + y_76 + y_81 - z_3828 >= 0
 c3830: y_40 + y_55 + y_92 - z_3829 >= 0
 c3831: y_9 + y_26 + y_67 + y_71 - z_3830 >= 0
 c3832: y_5 + y_17 + y_53 + y_58 + y_91 - z_3831 >= 0
 c3833: y_11 + y_19 + y_30 + y_38 + y_43 + y_52 + y_59 + y_67 + y_68 + y_69
        - z_3832 >= 0
 c3834: y_8 + y_17 + y_34 + y_75 + y_80 + y_96 - z_3833 >= 0
 c3835: y_31 + y_37 + y_89 + y_99 - z_3834 >= 0
 c3836: y_3 + y_4 + y_19 + y_26 + y_32 + y_33 + y_38 + y_44 + y_90 - z_3835 >= 
        0
 c3837: y_16 + y_39 + y_50 + y_53 + y_54 + y_58 + y_63 + y_66 + y_87 - z_3836
         >= 0
 c3838: y_6 + y_58 + y_91 - z_3837 >= 0
 c3839: y_45 - z_3838 >= 0
 c3840: y_13 + y_28 + y_60 + y_76 - z_3839 >= 0
 c3841: y_56 + y_58 - z_3840 >= 0
 c3842: y_0 + y_27 + y_42 + y_64 - z_3841 >= 0
 c3843: y_16 + y_39 + y_40 + y_42 + y_54 + y_55 + y_63 + y_64 - z_3842 >= 0
 c3844: y_11 + y_52 + y_67 + y_68 + y_69 + y_97 - z_3843 >= 0
 c3845: y_3 + y_19 + y_21 + y_33 + y_36 + y_38 + y_41 + y_43 + y_47 + y_48
        + y_79 + y_94 - z_3844 >= 0
 c3846: y_0 + y_27 - z_3845 >= 0
 c3847: y_5 + y_6 + y_58 + y_90 + y_91 - z_3846 >= 0
 c3848: y_37 + y_45 + y_73 + y_89 - z_3847 >= 0
 c3849: y_4 + y_6 + y_32 + y_44 + y_90 - z_3848 >= 0
 c3850: y_22 + y_57 + y_65 - z_3849 >= 0
 c3851: y_4 + y_6 + y_26 + y_32 + y_38 + y_44 + y_90 - z_3850 >= 0
 c3852: y_7 + y_31 + y_51 + y_62 + y_89 + y_99 - z_3851 >= 0
 c3853: y_0 + y_27 + y_42 - z_3852 >= 0
 c3854: y_3 + y_19 + y_21 + y_33 + y_36 + y_38 + y_41 + y_43 + y_47 + y_48
        + y_79 + y_94 - z_3853 >= 0
 c3855: y_45 - z_3854 >= 0
 c3856: y_0 + y_27 + y_42 + y_64 - z_3855 >= 0
 c3857: y_1 + y_37 + y_73 + y_96 + y_99 - z_3856 >= 0
 c3858: y_45 - z_3857 >= 0
 c3859: y_84 + y_85 - z_3858 >= 0
 c3860: y_22 + y_56 + y_65 - z_3859 >= 0
 c3861: y_0 + y_2 + y_27 + y_42 + y_55 + y_64 - z_3860 >= 0
 c3862: y_0 + y_16 + y_39 + y_42 + y_53 + y_54 + y_55 + y_63 + y_64 - z_3861
         >= 0
 c3863: y_1 + y_73 + y_96 - z_3862 >= 0
 c3864: y_10 + y_13 + y_28 + y_60 + y_76 + y_78 + y_81 - z_3863 >= 0
 c3865: y_12 + y_22 + y_57 + y_65 + y_72 + y_88 - z_3864 >= 0
 c3866: y_5 + y_6 + y_90 - z_3865 >= 0
 c3867: y_0 + y_27 + y_42 - z_3866 >= 0
 c3868: y_3 + y_15 + y_19 + y_21 + y_33 + y_36 + y_41 + y_47 + y_48 + y_79
        - z_3867 >= 0
 c3869: y_1 + y_37 + y_73 + y_89 + y_96 + y_99 - z_3868 >= 0
 c3870: y_1 + y_23 + y_46 + y_49 + y_73 + y_75 - z_3869 >= 0
 c3871: y_4 + y_9 + y_26 + y_32 - z_3870 >= 0
 c3872: - z_3871 >= 0
 c3873: y_57 + y_65 + y_72 - z_3872 >= 0
 c3874: y_16 + y_39 + y_40 + y_50 + y_54 + y_66 + y_87 - z_3873 >= 0
 c3875: y_24 + y_30 + y_43 + y_52 + y_59 + y_70 + y_94 - z_3874 >= 0
 c3876: y_25 + y_29 + y_35 + y_77 + y_87 - z_3875 >= 0
 c3877: y_22 + y_57 + y_65 + y_72 + y_88 - z_3876 >= 0
 c3878: y_29 + y_77 - z_3877 >= 0
 c3879: y_0 + y_27 + y_42 - z_3878 >= 0
 c3880: y_13 + y_57 + y_60 + y_72 + y_76 + y_78 + y_81 - z_3879 >= 0
 c3881: y_17 + y_96 - z_3880 >= 0
 c3882: y_8 + y_73 + y_75 + y_80 + y_96 - z_3881 >= 0
 c3883: y_83 + y_84 + y_85 - z_3882 >= 0
 c3884: y_8 + y_15 + y_20 + y_41 + y_46 + y_61 + y_75 + y_79 + y_80 + y_93
        + y_95 - z_3883 >= 0
 c3885: y_0 + y_27 + y_42 + y_55 + y_63 + y_64 - z_3884 >= 0
 c3886: y_46 + y_49 + y_74 + y_95 - z_3885 >= 0
 c3887: y_7 + y_23 + y_31 + y_51 + y_62 + y_89 + y_98 + y_99 - z_3886 >= 0
 c3888: y_2 + y_14 + y_82 + y_83 + y_84 + y_85 - z_3887 >= 0
 c3889: y_9 + y_26 + y_71 - z_3888 >= 0
 c3890: y_22 + y_50 + y_56 + y_65 - z_3889 >= 0
 c3891: y_15 + y_18 + y_36 + y_41 + y_47 + y_74 + y_95 - z_3890 >= 0
 c3892: y_3 + y_19 + y_21 + y_33 + y_38 + y_41 + y_44 + y_48 + y_79 - z_3891
         >= 0
 c3893: y_3 + y_11 + y_19 + y_26 + y_38 + y_44 + y_67 + y_68 + y_69 - z_3892
         >= 0
 c3894: y_2 + y_40 + y_55 + y_83 + y_85 - z_3893 >= 0
 c3895: y_24 + y_30 + y_43 + y_52 + y_59 + y_70 - z_3894 >= 0
 c3896: y_3 + y_19 + y_21 + y_30 + y_33 + y_36 + y_41 + y_43 + y_47 + y_48
        + y_94 - z_3895 >= 0
 c3897: y_18 + y_74 + y_95 - z_3896 >= 0
 c3898: y_5 + y_17 + y_34 + y_91 - z_3897 >= 0
 c3899: y_10 + y_13 + y_28 + y_60 + y_76 + y_78 + y_81 - z_3898 >= 0
 c3900: y_3 + y_15 + y_19 + y_20 + y_21 + y_33 + y_36 + y_41 + y_47 + y_48
        + y_61 + y_79 - z_3899 >= 0
 c3901: y_25 + y_29 + y_35 + y_77 - z_3900 >= 0
 c3902: y_0 + y_27 + y_42 + y_55 + y_64 - z_3901 >= 0
 c3903: y_11 + y_68 + y_86 + y_97 - z_3902 >= 0
 c3904: y_25 + y_29 + y_35 + y_50 + y_56 + y_77 - z_3903 >= 0
 c3905: y_3 + y_15 + y_19 + y_21 + y_33 + y_36 + y_38 + y_41 + y_44 + y_47
        + y_48 + y_61 + y_79 - z_3904 >= 0
 c3906: y_15 + y_18 + y_21 + y_36 + y_41 + y_47 + y_48 + y_79 + y_94 - z_3905
         >= 0
 c3907: y_1 + y_73 + y_75 + y_96 + y_99 - z_3906 >= 0
 c3908: y_92 - z_3907 >= 0
 c3909: y_5 + y_6 + y_58 + y_90 + y_91 - z_3908 >= 0
 c3910: y_4 + y_9 + y_26 + y_32 + y_67 + y_69 - z_3909 >= 0
 c3911: y_5 + y_6 + y_58 + y_90 + y_91 - z_3910 >= 0
 c3912: y_25 + y_29 + y_35 + y_77 - z_3911 >= 0
 c3913: y_25 + y_29 + y_35 + y_50 + y_77 + y_87 - z_3912 >= 0
 c3914: y_17 + y_53 + y_91 + y_96 - z_3913 >= 0
 c3915: y_13 - z_3914 >= 0
 c3916: y_3 + y_5 + y_33 + y_34 + y_44 + y_90 - z_3915 >= 0
 c3917: y_10 + y_13 + y_57 + y_60 + y_72 + y_76 + y_78 + y_81 - z_3916 >= 0
 c3918: y_2 + y_14 + y_82 + y_83 + y_84 + y_85 - z_3917 >= 0
 c3919: y_0 + y_27 - z_3918 >= 0
 c3920: y_12 + y_22 + y_57 + y_65 + y_72 + y_88 - z_3919 >= 0
 c3921: y_4 + y_9 + y_26 + y_32 + y_38 + y_67 + y_69 - z_3920 >= 0
 c3922: y_30 + y_43 + y_59 + y_94 - z_3921 >= 0
 c3923: y_18 + y_21 + y_36 + y_41 + y_47 + y_94 - z_3922 >= 0
 c3924: y_7 + y_31 + y_51 + y_62 + y_89 + y_99 - z_3923 >= 0
 c3925: y_25 + y_29 + y_35 + y_50 + y_56 + y_66 + y_77 + y_87 - z_3924 >= 0
 c3926: y_15 + y_18 + y_21 + y_36 + y_41 + y_47 + y_95 - z_3925 >= 0
 c3927: y_92 - z_3926 >= 0
 c3928: y_10 + y_13 + y_60 + y_76 + y_78 + y_81 - z_3927 >= 0
 c3929: y_9 + y_26 + y_67 + y_68 + y_69 + y_97 - z_3928 >= 0
 c3930: y_0 + y_27 + y_39 + y_42 + y_55 + y_63 + y_64 - z_3929 >= 0
 c3931: y_40 + y_54 + y_66 + y_87 + y_92 - z_3930 >= 0
 c3932: y_7 + y_31 + y_37 + y_89 + y_99 - z_3931 >= 0
 c3933: y_18 + y_21 + y_30 + y_36 + y_41 + y_47 + y_48 + y_94 - z_3932 >= 0
 c3934: y_0 + y_27 + y_42 + y_55 + y_64 - z_3933 >= 0
 c3935: y_65 - z_3934 >= 0
 c3936: y_17 + y_53 + y_63 + y_91 + y_96 - z_3935 >= 0
 c3937: y_23 + y_46 + y_49 + y_74 + y_98 - z_3936 >= 0
 c3938: y_25 + y_29 + y_35 + y_50 + y_56 + y_77 + y_87 - z_3937 >= 0
 c3939: y_0 + y_27 + y_45 - z_3938 >= 0
 c3940: y_12 + y_71 + y_88 - z_3939 >= 0
 c3941: y_17 + y_53 + y_58 + y_91 - z_3940 >= 0
 c3942: y_22 + y_56 + y_65 - z_3941 >= 0
 c3943: y_16 + y_39 + y_53 + y_54 + y_58 + y_63 + y_66 + y_91 - z_3942 >= 0
 c3944: y_5 + y_8 + y_20 + y_34 + y_61 + y_80 + y_93 - z_3943 >= 0
 c3945: y_10 + y_78 + y_81 - z_3944 >= 0
 c3946: y_67 + y_68 + y_97 - z_3945 >= 0
 c3947: y_25 + y_29 + y_35 + y_77 - z_3946 >= 0
 c3948: y_15 + y_20 + y_21 + y_36 + y_41 + y_47 + y_48 + y_61 + y_79 + y_80
        + y_93 + y_95 - z_3947 >= 0
 c3949: y_0 + y_27 + y_42 - z_3948 >= 0
 c3950: y_12 + y_57 + y_65 + y_72 + y_78 + y_88 - z_3949 >= 0
 c3951: y_15 + y_18 + y_20 + y_21 + y_36 + y_41 + y_47 + y_48 + y_61 + y_79
        + y_80 + y_93 + y_95 - z_3950 >= 0
 c3952: y_2 + y_40 + y_42 + y_55 + y_64 - z_3951 >= 0
 c3953: y_2 + y_27 + y_42 + y_55 + y_64 - z_3952 >= 0
 c3954: y_3 + y_5 + y_19 + y_33 + y_38 + y_44 + y_48 + y_61 + y_79 - z_3953 >= 
        0
 c3955: y_0 + y_16 + y_39 + y_42 + y_53 + y_55 + y_63 + y_64 - z_3954 >= 0
 c3956: y_10 + y_12 + y_57 + y_72 + y_78 + y_88 - z_3955 >= 0
 c3957: y_0 + y_27 + y_45 - z_3956 >= 0
 c3958: y_17 + y_53 + y_58 + y_63 + y_91 - z_3957 >= 0
 c3959: y_2 + y_83 + y_85 - z_3958 >= 0
 c3960: y_11 + y_24 + y_30 + y_43 + y_52 + y_59 + y_67 + y_68 + y_69 + y_70
        - z_3959 >= 0
 c3961: y_29 + y_50 + y_56 + y_65 - z_3960 >= 0
 c3962: y_15 + y_18 + y_20 + y_46 + y_49 + y_74 + y_75 + y_79 + y_80 + y_93
        + y_95 - z_3961 >= 0
 c3963: y_13 + y_60 + y_76 - z_3962 >= 0
 c3964: y_40 + y_87 + y_92 - z_3963 >= 0
 c3965: y_15 + y_18 + y_20 + y_21 + y_36 + y_41 + y_47 + y_48 + y_61 + y_79
        + y_80 + y_93 + y_95 - z_3964 >= 0
 c3966: y_18 + y_21 + y_36 + y_41 + y_47 + y_94 - z_3965 >= 0
 c3967: y_40 + y_54 + y_55 + y_87 + y_92 - z_3966 >= 0
 c3968: y_4 + y_9 + y_12 + y_26 + y_32 + y_88 - z_3967 >= 0
 c3969: y_5 + y_6 + y_34 + y_90 - z_3968 >= 0
 c3970: y_13 + y_57 + y_65 + y_72 - z_3969 >= 0
 c3971: y_0 + y_14 + y_27 - z_3970 >= 0
 c3972: y_15 + y_18 + y_21 + y_36 + y_41 + y_47 + y_48 + y_79 + y_95 - z_3971
         >= 0
 c3973: y_2 + y_40 + y_83 + y_85 + y_92 - z_3972 >= 0
 c3974: y_5 + y_6 + y_33 + y_34 + y_44 + y_90 - z_3973 >= 0
 c3975: y_4 + y_6 + y_9 + y_26 + y_32 + y_90 - z_3974 >= 0
 c3976: y_5 + y_20 + y_34 + y_61 + y_80 + y_93 - z_3975 >= 0
 c3977: y_40 + y_83 + y_85 + y_92 - z_3976 >= 0
 c3978: y_15 + y_18 + y_36 + y_41 + y_47 + y_74 + y_95 - z_3977 >= 0
 c3979: y_13 + y_57 + y_60 + y_65 + y_72 + y_76 + y_78 - z_3978 >= 0
 c3980: y_9 + y_11 + y_26 + y_67 + y_68 + y_69 + y_97 - z_3979 >= 0
 c3981: y_9 + y_12 + y_71 - z_3980 >= 0
 c3982: y_1 + y_8 + y_15 + y_20 + y_46 + y_49 + y_75 + y_80 + y_93 + y_95
        - z_3981 >= 0
 c3983: y_1 + y_23 + y_46 + y_49 + y_74 + y_75 + y_95 - z_3982 >= 0
 c3984: y_56 + y_65 - z_3983 >= 0
 c3985: y_5 + y_6 + y_34 + y_44 + y_90 - z_3984 >= 0
 c3986: y_6 + y_22 - z_3985 >= 0
 c3987: y_7 + y_31 + y_37 + y_51 + y_89 + y_99 - z_3986 >= 0
 c3988: y_3 + y_19 + y_26 + y_33 + y_38 + y_44 + y_48 - z_3987 >= 0
 c3989: y_31 + y_37 + y_45 + y_73 + y_89 + y_99 - z_3988 >= 0
 c3990: y_29 + y_50 + y_56 + y_65 - z_3989 >= 0
 c3991: y_3 + y_19 + y_21 + y_30 + y_43 + y_48 + y_52 + y_59 + y_94 - z_3990
         >= 0
 c3992: y_83 + y_85 - z_3991 >= 0
 c3993: y_27 - z_3992 >= 0
 c3994: y_2 + y_14 + y_82 + y_83 + y_84 - z_3993 >= 0
 c3995: y_25 + y_29 + y_35 + y_40 + y_77 + y_87 + y_92 - z_3994 >= 0
 c3996: y_1 + y_37 + y_73 + y_96 - z_3995 >= 0
 c3997: y_17 + y_39 + y_53 + y_58 + y_63 + y_91 - z_3996 >= 0
 c3998: y_16 + y_50 + y_54 + y_56 + y_58 + y_66 - z_3997 >= 0
 c3999: y_3 + y_19 + y_21 + y_33 + y_38 + y_41 + y_43 + y_48 + y_79 - z_3998
         >= 0
 c4000: y_5 + y_15 + y_20 + y_33 + y_34 + y_41 + y_48 + y_61 + y_79 + y_80
        + y_93 - z_3999 >= 0
 c4001: y_3 + y_15 + y_19 + y_20 + y_21 + y_33 + y_36 + y_38 + y_41 + y_44
        + y_47 + y_48 + y_61 + y_79 + y_93 - z_4000 >= 0
 c4002: y_12 + y_22 + y_57 + y_72 + y_88 - z_4001 >= 0
 c4003: y_17 + y_39 + y_53 + y_58 + y_63 + y_91 - z_4002 >= 0
 c4004: y_9 + y_12 + y_71 + y_88 - z_4003 >= 0
 c4005: y_4 + y_9 + y_12 + y_32 + y_71 + y_88 - z_4004 >= 0
 c4006: y_17 + y_39 + y_53 + y_58 + y_63 + y_64 + y_91 - z_4005 >= 0
 c4007: y_4 + y_6 + y_32 + y_90 - z_4006 >= 0
 c4008: y_16 + y_39 + y_50 + y_54 + y_56 + y_58 + y_66 + y_91 - z_4007 >= 0
 c4009: y_0 + y_45 - z_4008 >= 0
 c4010: y_17 + y_53 + y_58 + y_91 - z_4009 >= 0
 c4011: y_16 + y_39 + y_53 + y_54 + y_58 + y_63 + y_66 + y_91 - z_4010 >= 0
 c4012: y_10 + y_13 + y_57 + y_60 + y_72 + y_76 + y_78 + y_81 - z_4011 >= 0
 c4013: y_37 + y_45 + y_73 + y_96 - z_4012 >= 0
 c4014: y_25 + y_29 + y_35 + y_40 + y_50 + y_56 + y_66 + y_77 + y_87 - z_4013
         >= 0
 c4015: y_25 + y_29 + y_35 + y_77 - z_4014 >= 0
 c4016: y_7 + y_23 + y_31 + y_51 + y_62 + y_89 + y_98 + y_99 - z_4015 >= 0
 c4017: y_83 + y_85 - z_4016 >= 0
 c4018: y_4 + y_12 + y_22 + y_32 + y_88 - z_4017 >= 0
 c4019: y_16 + y_39 + y_50 + y_54 + y_56 + y_58 + y_66 - z_4018 >= 0
 c4020: y_37 + y_45 + y_89 - z_4019 >= 0
 c4021: y_73 + y_96 - z_4020 >= 0
 c4022: y_13 + y_57 + y_60 + y_72 + y_76 + y_78 + y_81 - z_4021 >= 0
 c4023: y_9 + y_26 + y_67 + y_69 + y_71 + y_97 - z_4022 >= 0
 c4024: y_18 + y_36 + y_41 + y_47 + y_74 + y_95 - z_4023 >= 0
 c4025: y_13 + y_28 + y_60 + y_76 - z_4024 >= 0
 c4026: y_3 + y_5 + y_15 + y_20 + y_33 + y_34 + y_41 + y_44 + y_48 + y_61 + y_79
        + y_80 + y_93 - z_4025 >= 0
 c4027: y_4 + y_5 + y_6 + y_32 + y_44 + y_90 - z_4026 >= 0
 c4028: y_2 + y_14 + y_82 + y_83 - z_4027 >= 0
 c4029: y_4 + y_9 + y_12 + y_32 + y_88 - z_4028 >= 0
 c4030: y_3 + y_5 + y_19 + y_33 + y_34 + y_38 + y_44 + y_90 - z_4029 >= 0
 c4031: y_16 + y_39 + y_50 + y_54 + y_56 + y_58 + y_66 + y_87 - z_4030 >= 0
 c4032: y_16 + y_39 + y_53 + y_54 + y_58 + y_63 + y_66 + y_91 - z_4031 >= 0
 c4033: y_3 + y_19 + y_21 + y_33 + y_38 + y_44 + y_48 + y_79 - z_4032 >= 0
 c4034: y_1 + y_23 + y_31 + y_46 + y_49 + y_73 + y_89 + y_98 + y_99 - z_4033
         >= 0
 c4035: y_9 + y_11 + y_26 + y_67 + y_68 + y_69 + y_97 - z_4034 >= 0
 c4036: y_15 + y_18 + y_20 + y_36 + y_41 + y_46 + y_47 + y_49 + y_61 + y_74
        + y_79 + y_80 + y_93 + y_95 - z_4035 >= 0
 c4037: y_3 + y_5 + y_19 + y_33 + y_38 + y_44 + y_48 + y_90 - z_4036 >= 0
 c4038: y_12 + y_71 + y_88 - z_4037 >= 0
 c4039: y_4 + y_6 + y_32 + y_44 + y_90 - z_4038 >= 0
 c4040: y_6 + y_58 + y_90 + y_91 - z_4039 >= 0
 c4041: y_15 + y_18 + y_46 + y_49 + y_74 + y_95 - z_4040 >= 0
 c4042: y_30 + y_43 + y_52 + y_59 + y_70 + y_94 - z_4041 >= 0
 c4043: y_25 + y_29 + y_35 + y_50 + y_56 + y_66 + y_77 + y_87 - z_4042 >= 0
 c4044: y_9 + y_11 + y_19 + y_26 + y_38 + y_67 + y_68 + y_69 - z_4043 >= 0
 c4045: y_17 + y_53 + y_96 - z_4044 >= 0
 c4046: y_50 + y_56 + y_65 - z_4045 >= 0
 c4047: y_7 + y_23 + y_31 + y_51 + y_62 + y_89 + y_98 + y_99 - z_4046 >= 0
 c4048: y_16 + y_25 + y_40 + y_50 + y_54 + y_56 + y_66 + y_77 + y_87 - z_4047
         >= 0
 c4049: y_0 + y_16 + y_39 + y_42 + y_53 + y_54 + y_55 + y_63 + y_64 - z_4048
         >= 0
 c4050: y_11 + y_52 + y_67 + y_68 + y_69 + y_97 - z_4049 >= 0
 c4051: y_9 + y_26 + y_67 + y_71 - z_4050 >= 0
 c4052: y_17 + y_39 + y_53 + y_58 + y_63 + y_64 + y_91 - z_4051 >= 0
 c4053: y_3 + y_19 + y_26 + y_33 + y_38 + y_44 + y_48 - z_4052 >= 0
 c4054: y_37 + y_45 - z_4053 >= 0
 c4055: y_6 + y_22 + y_32 + y_88 - z_4054 >= 0
 c4056: y_11 + y_24 + y_43 + y_52 + y_59 + y_68 + y_70 + y_86 - z_4055 >= 0
 c4057: y_22 + y_57 + y_65 - z_4056 >= 0
 c4058: y_1 + y_7 + y_23 + y_31 + y_37 + y_51 + y_73 + y_89 + y_98 + y_99
        - z_4057 >= 0
 c4059: y_25 + y_29 + y_35 + y_50 + y_77 + y_87 - z_4058 >= 0
 c4060: y_25 + y_29 + y_35 + y_50 + y_54 + y_56 + y_66 + y_77 + y_87 - z_4059
         >= 0
 c4061: y_46 + y_49 + y_74 + y_95 - z_4060 >= 0
 c4062: y_4 + y_6 + y_32 + y_90 - z_4061 >= 0
 c4063: y_7 + y_23 + y_31 + y_51 + y_62 + y_89 + y_98 + y_99 - z_4062 >= 0
 c4064: y_17 + y_96 - z_4063 >= 0
 c4065: y_3 + y_19 + y_33 + y_38 + y_44 + y_48 - z_4064 >= 0
 c4066: y_6 + y_22 + y_90 - z_4065 >= 0
 c4067: y_29 + y_77 - z_4066 >= 0
 c4068: y_1 + y_37 + y_45 + y_73 + y_89 + y_96 + y_99 - z_4067 >= 0
 c4069: y_1 + y_23 + y_31 + y_46 + y_73 + y_89 + y_98 + y_99 - z_4068 >= 0
 c4070: y_29 - z_4069 >= 0
 c4071: y_4 + y_12 + y_22 + y_32 + y_88 - z_4070 >= 0
 c4072: y_45 - z_4071 >= 0
 c4073: y_1 + y_23 + y_31 + y_46 + y_49 + y_74 + y_98 + y_99 - z_4072 >= 0
 c4074: y_22 + y_50 + y_56 + y_65 - z_4073 >= 0
 c4075: y_7 + y_31 + y_51 + y_62 + y_89 + y_99 - z_4074 >= 0
 c4076: y_5 + y_6 + y_33 + y_34 + y_44 + y_90 - z_4075 >= 0
 c4077: y_1 + y_23 + y_31 + y_37 + y_73 + y_89 + y_98 + y_99 - z_4076 >= 0
 c4078: y_9 + y_11 + y_26 + y_67 + y_68 + y_69 + y_97 - z_4077 >= 0
 c4079: y_1 + y_23 + y_46 + y_49 + y_73 + y_75 + y_98 + y_99 - z_4078 >= 0
 c4080: - z_4079 >= 0
 c4081: y_8 + y_17 + y_34 + y_75 + y_80 + y_93 + y_96 - z_4080 >= 0
 c4082: y_25 + y_29 + y_35 + y_77 - z_4081 >= 0
 c4083: y_16 + y_39 + y_42 + y_53 + y_54 + y_55 + y_63 + y_64 - z_4082 >= 0
 c4084: y_17 + y_53 + y_63 + y_64 + y_91 - z_4083 >= 0
 c4085: y_13 + y_28 + y_60 + y_76 - z_4084 >= 0
 c4086: y_16 + y_39 + y_53 + y_54 + y_58 + y_63 + y_66 + y_91 - z_4085 >= 0
 c4087: y_5 + y_6 + y_34 + y_90 - z_4086 >= 0
 c4088: y_2 + y_14 + y_27 + y_42 + y_55 + y_82 + y_83 - z_4087 >= 0
 c4089: y_50 + y_56 - z_4088 >= 0
 c4090: y_58 + y_91 - z_4089 >= 0
 c4091: y_11 + y_24 + y_30 + y_43 + y_52 + y_59 + y_68 + y_70 + y_86 - z_4090
         >= 0
 c4092: y_24 + y_52 + y_59 + y_70 + y_86 - z_4091 >= 0
 c4093: y_40 + y_54 + y_66 + y_87 + y_92 - z_4092 >= 0
 c4094: y_17 + y_39 + y_53 + y_58 + y_63 + y_64 + y_91 - z_4093 >= 0
 c4095: y_24 + y_52 + y_59 + y_70 + y_86 - z_4094 >= 0
 c4096: y_5 + y_8 + y_20 + y_34 + y_61 + y_80 + y_93 - z_4095 >= 0
 c4097: y_18 + y_49 + y_74 + y_95 - z_4096 >= 0
 c4098: y_16 + y_39 + y_40 + y_54 + y_55 + y_63 + y_64 + y_66 + y_87 - z_4097
         >= 0
 c4099: y_22 - z_4098 >= 0
 c4100: y_0 + y_17 + y_53 + y_63 + y_64 - z_4099 >= 0
 c4101: y_22 + y_50 + y_56 - z_4100 >= 0
 c4102: y_1 + y_7 + y_23 + y_31 + y_49 + y_51 + y_89 + y_98 + y_99 - z_4101 >= 
        0
 c4103: y_37 + y_45 + y_73 + y_89 - z_4102 >= 0
 c4104: y_12 + y_57 + y_72 + y_88 - z_4103 >= 0
 c4105: y_37 + y_45 - z_4104 >= 0
 c4106: y_85 + y_92 - z_4105 >= 0
 c4107: y_8 + y_15 + y_20 + y_34 + y_46 + y_61 + y_75 + y_79 + y_80 + y_93
        + y_95 - z_4106 >= 0
 c4108: y_2 + y_14 + y_27 + y_42 + y_82 - z_4107 >= 0
 c4109: y_37 + y_45 - z_4108 >= 0
 c4110: y_92 - z_4109 >= 0
 c4111: y_16 + y_50 + y_54 + y_56 + y_66 + y_87 - z_4110 >= 0
 c4112: y_40 + y_87 + y_92 - z_4111 >= 0
 c4113: y_12 + y_22 + y_57 + y_65 + y_72 + y_88 - z_4112 >= 0
 c4114: y_4 + y_5 + y_6 + y_32 + y_44 + y_90 - z_4113 >= 0
 c4115: y_40 + y_87 + y_92 - z_4114 >= 0
 c4116: y_10 + y_13 + y_28 + y_60 + y_76 + y_78 + y_81 - z_4115 >= 0
 c4117: y_15 + y_18 + y_20 + y_21 + y_33 + y_36 + y_41 + y_47 + y_48 + y_61
        + y_79 + y_93 + y_95 - z_4116 >= 0
 c4118: y_10 - z_4117 >= 0
 c4119: y_25 + y_29 + y_35 + y_50 + y_56 + y_66 + y_77 + y_87 - z_4118 >= 0
 c4120: y_17 + y_39 + y_53 + y_58 + y_63 + y_64 + y_91 - z_4119 >= 0
 c4121: y_0 + y_27 + y_42 + y_55 + y_63 + y_64 - z_4120 >= 0
 c4122: y_50 + y_56 + y_58 - z_4121 >= 0
 c4123: y_12 + y_22 + y_32 + y_88 - z_4122 >= 0
 c4124: y_16 + y_40 + y_50 + y_54 + y_66 + y_87 + y_92 - z_4123 >= 0
 c4125: y_10 - z_4124 >= 0
 c4126: y_4 + y_9 + y_12 + y_26 + y_32 - z_4125 >= 0
 c4127: y_15 + y_18 + y_20 + y_46 + y_49 + y_74 + y_75 + y_80 + y_95 - z_4126
         >= 0
 c4128: y_8 + y_15 + y_20 + y_46 + y_49 + y_61 + y_75 + y_80 + y_93 + y_95
        - z_4127 >= 0
 c4129: y_30 + y_43 + y_52 + y_59 + y_94 - z_4128 >= 0
 c4130: y_18 + y_21 + y_36 + y_41 + y_47 + y_48 + y_94 - z_4129 >= 0
 c4131: y_12 + y_71 + y_88 - z_4130 >= 0
 c4132: y_9 + y_71 - z_4131 >= 0
 c4133: y_13 - z_4132 >= 0
 c4134: y_7 + y_31 + y_37 + y_51 + y_89 + y_99 - z_4133 >= 0
 c4135: y_4 + y_9 + y_26 + y_32 + y_38 + y_44 + y_67 + y_69 - z_4134 >= 0
 c4136: y_13 - z_4135 >= 0
 c4137: y_9 + y_26 + y_67 + y_68 + y_69 + y_97 - z_4136 >= 0
 c4138: y_22 + y_50 + y_56 + y_65 - z_4137 >= 0
 c4139: y_13 + y_28 + y_60 + y_76 - z_4138 >= 0
 c4140: y_25 + y_29 + y_35 + y_50 + y_56 + y_77 + y_87 - z_4139 >= 0
 c4141: y_3 + y_19 + y_33 + y_38 + y_44 + y_48 - z_4140 >= 0
 c4142: y_46 + y_49 + y_74 + y_95 - z_4141 >= 0
 c4143: y_16 + y_39 + y_40 + y_50 + y_54 + y_66 + y_87 - z_4142 >= 0
 c4144: y_1 + y_23 + y_46 + y_49 + y_73 + y_75 + y_98 + y_99 - z_4143 >= 0
 c4145: y_13 + y_65 + y_72 - z_4144 >= 0
 c4146: y_0 + y_27 + y_39 + y_42 + y_53 + y_55 + y_63 + y_64 - z_4145 >= 0
 c4147: y_8 + y_15 + y_20 + y_41 + y_46 + y_61 + y_75 + y_79 + y_80 + y_93
        + y_95 - z_4146 >= 0
 c4148: y_7 + y_31 + y_37 + y_51 + y_89 + y_99 - z_4147 >= 0
 c4149: y_7 + y_23 + y_31 + y_51 + y_62 + y_89 + y_98 + y_99 - z_4148 >= 0
 c4150: y_25 + y_35 + y_40 + y_50 + y_66 + y_77 + y_87 + y_92 - z_4149 >= 0
 c4151: y_15 + y_20 + y_21 + y_33 + y_34 + y_36 + y_41 + y_47 + y_48 + y_61
        + y_79 + y_80 + y_93 + y_95 - z_4150 >= 0
 c4152: y_4 + y_9 + y_26 + y_32 + y_71 - z_4151 >= 0
 c4153: y_5 + y_6 + y_34 + y_58 + y_90 + y_91 - z_4152 >= 0
 c4154: y_45 + y_96 - z_4153 >= 0
 c4155: y_16 + y_39 + y_50 + y_53 + y_54 + y_58 + y_66 + y_91 - z_4154 >= 0
 c4156: y_1 + y_23 + y_46 + y_49 + y_74 + y_95 + y_98 - z_4155 >= 0
 c4157: y_10 + y_12 + y_88 - z_4156 >= 0
 c4158: y_37 + y_45 + y_73 + y_96 - z_4157 >= 0
 c4159: y_5 + y_8 + y_17 + y_34 + y_91 - z_4158 >= 0
 c4160: y_3 + y_15 + y_18 + y_20 + y_21 + y_33 + y_36 + y_41 + y_47 + y_48
        + y_61 + y_79 + y_93 + y_95 - z_4159 >= 0
 c4161: y_40 + y_54 + y_55 + y_87 + y_92 - z_4160 >= 0
 c4162: y_12 + y_22 + y_57 + y_65 + y_72 + y_88 - z_4161 >= 0
 c4163: y_10 + y_13 + y_60 + y_76 + y_78 + y_81 - z_4162 >= 0
 c4164: y_11 + y_24 + y_52 + y_59 + y_68 + y_70 + y_86 - z_4163 >= 0
 c4165: y_9 + y_67 + y_71 + y_97 - z_4164 >= 0
 c4166: y_9 + y_71 - z_4165 >= 0
 c4167: y_50 + y_56 + y_66 + y_87 - z_4166 >= 0
 c4168: y_24 + y_30 + y_43 + y_52 + y_59 + y_70 + y_86 - z_4167 >= 0
 c4169: y_23 + y_46 + y_49 + y_74 + y_98 - z_4168 >= 0
 c4170: y_16 + y_39 + y_50 + y_54 + y_56 + y_58 + y_66 + y_87 - z_4169 >= 0
 c4171: y_22 + y_57 + y_65 + y_72 - z_4170 >= 0
 c4172: y_12 + y_22 + y_57 + y_65 + y_72 + y_88 - z_4171 >= 0
 c4173: y_25 + y_35 + y_77 + y_92 - z_4172 >= 0
 c4174: y_2 + y_14 + y_82 + y_83 - z_4173 >= 0
 c4175: y_16 + y_17 + y_39 + y_53 + y_54 + y_58 + y_63 + y_64 + y_91 - z_4174
         >= 0
 c4176: y_10 + y_12 + y_78 + y_88 - z_4175 >= 0
 c4177: y_16 + y_39 + y_40 + y_50 + y_54 + y_66 + y_87 - z_4176 >= 0
 c4178: y_5 + y_8 + y_17 + y_34 + y_96 - z_4177 >= 0
 c4179: y_3 + y_5 + y_20 + y_33 + y_34 + y_38 + y_44 + y_48 + y_61 + y_79 + y_93
        - z_4178 >= 0
 c4180: y_17 + y_53 + y_58 + y_91 - z_4179 >= 0
 c4181: y_4 + y_5 + y_6 + y_32 + y_44 + y_90 - z_4180 >= 0
 c4182: y_7 + y_31 + y_37 + y_51 + y_62 + y_89 + y_99 - z_4181 >= 0
 c4183: y_40 + y_83 + y_85 + y_92 - z_4182 >= 0
 c4184: y_17 + y_96 - z_4183 >= 0
 c4185: y_10 + y_12 + y_57 + y_78 + y_88 - z_4184 >= 0
 c4186: y_0 + y_27 + y_42 + y_55 + y_64 - z_4185 >= 0
 c4187: y_25 + y_29 + y_35 + y_77 + y_87 + y_92 - z_4186 >= 0
 c4188: y_16 + y_40 + y_54 + y_66 + y_87 + y_92 - z_4187 >= 0
 c4189: y_9 + y_26 + y_71 + y_97 - z_4188 >= 0
 c4190: y_3 + y_5 + y_19 + y_33 + y_34 + y_38 + y_44 + y_48 + y_90 - z_4189 >= 
        0
 c4191: y_71 - z_4190 >= 0
 c4192: y_9 + y_71 - z_4191 >= 0
 c4193: y_8 + y_17 + y_75 + y_96 - z_4192 >= 0
 c4194: y_13 + y_60 + y_76 - z_4193 >= 0
 c4195: y_3 + y_19 + y_33 + y_38 + y_44 + y_48 - z_4194 >= 0
 c4196: y_5 + y_8 + y_20 + y_34 + y_61 + y_75 + y_80 + y_93 - z_4195 >= 0
 c4197: y_4 + y_6 + y_32 + y_90 - z_4196 >= 0
 c4198: y_25 + y_29 + y_35 + y_50 + y_56 + y_77 + y_87 - z_4197 >= 0
 c4199: y_16 + y_39 + y_40 + y_54 + y_66 + y_87 + y_92 - z_4198 >= 0
 c4200: y_1 + y_8 + y_73 + y_75 + y_96 - z_4199 >= 0
 c4201: y_5 + y_17 + y_34 + y_91 - z_4200 >= 0
 c4202: y_10 + y_13 + y_28 + y_60 + y_76 + y_78 + y_81 - z_4201 >= 0
 c4203: y_8 + y_20 + y_34 + y_61 + y_75 + y_80 + y_93 - z_4202 >= 0
 c4204: y_3 + y_4 + y_19 + y_26 + y_33 + y_38 + y_44 + y_90 - z_4203 >= 0
 c4205: y_3 + y_4 + y_19 + y_26 + y_32 + y_33 + y_38 + y_44 + y_90 - z_4204 >= 
        0
 c4206: y_22 + y_56 + y_65 - z_4205 >= 0
 c4207: y_12 + y_57 + y_88 - z_4206 >= 0
 c4208: y_31 + y_37 + y_73 + y_89 + y_99 - z_4207 >= 0
 c4209: y_2 + y_14 + y_82 + y_83 + y_84 - z_4208 >= 0
 c4210: y_0 + y_2 + y_27 + y_42 + y_55 + y_64 - z_4209 >= 0
 c4211: y_0 + y_27 + y_42 - z_4210 >= 0
 c4212: y_2 + y_14 + y_82 + y_83 - z_4211 >= 0
 c4213: y_0 + y_27 - z_4212 >= 0
 c4214: y_4 + y_5 + y_6 + y_32 + y_44 + y_90 - z_4213 >= 0
 c4215: y_40 + y_87 + y_92 - z_4214 >= 0
 c4216: y_22 + y_57 + y_65 + y_72 - z_4215 >= 0
 c4217: y_16 + y_39 + y_53 + y_54 + y_55 + y_58 + y_63 + y_64 + y_66 + y_91
        - z_4216 >= 0
 c4218: y_22 + y_50 + y_56 + y_65 - z_4217 >= 0
 c4219: y_9 + y_26 + y_67 + y_71 + y_97 - z_4218 >= 0
 c4220: y_0 + y_27 + y_42 - z_4219 >= 0
 c4221: y_22 + y_57 + y_65 - z_4220 >= 0
 c4222: y_16 + y_17 + y_39 + y_53 + y_55 + y_58 + y_63 + y_64 + y_91 - z_4221
         >= 0
 c4223: y_8 + y_17 + y_96 - z_4222 >= 0
 c4224: y_9 + y_11 + y_26 + y_38 + y_67 + y_68 + y_69 - z_4223 >= 0
 c4225: y_40 + y_85 + y_92 - z_4224 >= 0
 c4226: y_37 + y_45 - z_4225 >= 0
 c4227: y_15 + y_18 + y_21 + y_36 + y_41 + y_47 + y_79 - z_4226 >= 0
 c4228: y_0 + y_27 + y_42 + y_55 + y_64 - z_4227 >= 0
 c4229: y_50 + y_56 + y_65 - z_4228 >= 0
 c4230: y_13 + y_28 + y_60 + y_76 + y_81 - z_4229 >= 0
 c4231: y_22 + y_56 + y_65 - z_4230 >= 0
 c4232: - z_4231 >= 0
 c4233: y_8 + y_17 + y_34 + y_75 + y_80 + y_96 - z_4232 >= 0
 c4234: y_3 + y_19 + y_26 + y_33 + y_38 + y_44 + y_67 + y_69 - z_4233 >= 0
 c4235: y_22 + y_57 + y_65 + y_72 - z_4234 >= 0
 c4236: y_9 + y_26 + y_67 + y_71 + y_97 - z_4235 >= 0
 c4237: y_8 + y_15 + y_20 + y_34 + y_48 + y_61 + y_75 + y_79 + y_80 + y_93
        + y_95 - z_4236 >= 0
 c4238: y_10 + y_13 + y_60 + y_76 + y_78 + y_81 - z_4237 >= 0
 c4239: y_50 + y_56 + y_65 - z_4238 >= 0
 c4240: y_2 + y_83 + y_85 - z_4239 >= 0
 c4241: y_3 + y_11 + y_19 + y_30 + y_38 + y_43 + y_52 + y_59 + y_94 - z_4240
         >= 0
 c4242: y_1 + y_73 + y_96 - z_4241 >= 0
 c4243: y_37 + y_73 + y_96 - z_4242 >= 0
 c4244: y_10 + y_13 + y_57 + y_60 + y_72 + y_76 + y_78 + y_81 - z_4243 >= 0
 c4245: y_2 + y_82 + y_83 + y_84 + y_85 - z_4244 >= 0
 c4246: y_22 + y_57 + y_65 + y_72 - z_4245 >= 0
 c4247: y_4 + y_5 + y_6 + y_34 + y_44 + y_90 - z_4246 >= 0
 c4248: y_13 - z_4247 >= 0
 c4249: y_4 + y_6 + y_9 + y_12 + y_32 + y_90 - z_4248 >= 0
 c4250: y_17 + y_96 - z_4249 >= 0
 c4251: y_1 + y_23 + y_46 + y_49 + y_73 + y_75 + y_98 + y_99 - z_4250 >= 0
 c4252: y_10 + y_12 + y_57 + y_72 + y_76 + y_78 + y_81 + y_88 - z_4251 >= 0
 c4253: y_16 + y_25 + y_40 + y_50 + y_54 + y_66 + y_77 + y_87 + y_92 - z_4252
         >= 0
 c4254: y_15 + y_18 + y_21 + y_36 + y_41 + y_47 - z_4253 >= 0
 c4255: y_22 + y_56 + y_65 - z_4254 >= 0
 c4256: y_9 + y_26 + y_67 + y_69 + y_71 + y_97 - z_4255 >= 0
 c4257: y_11 + y_30 + y_43 + y_52 + y_59 + y_68 - z_4256 >= 0
 c4258: y_29 - z_4257 >= 0
 c4259: y_17 + y_39 + y_53 + y_58 + y_91 - z_4258 >= 0
 c4260: y_4 + y_12 + y_22 + y_32 + y_88 - z_4259 >= 0
 c4261: y_5 + y_17 + y_53 + y_58 + y_91 - z_4260 >= 0
 c4262: y_23 + y_46 + y_49 + y_74 - z_4261 >= 0
 c4263: y_24 + y_30 + y_43 + y_52 + y_59 + y_70 + y_86 - z_4262 >= 0
 c4264: y_10 + y_78 - z_4263 >= 0
 c4265: y_3 + y_15 + y_20 + y_21 + y_33 + y_34 + y_41 + y_47 + y_48 + y_61
        + y_79 + y_80 + y_93 - z_4264 >= 0
 c4266: y_2 + y_42 + y_55 + y_83 + y_85 - z_4265 >= 0
 c4267: y_18 + y_49 + y_74 + y_95 - z_4266 >= 0
 c4268: y_25 + y_50 + y_56 + y_66 + y_77 + y_87 - z_4267 >= 0
 c4269: y_11 + y_24 + y_30 + y_43 + y_52 + y_59 + y_70 - z_4268 >= 0
 c4270: y_4 + y_9 + y_26 + y_32 + y_71 - z_4269 >= 0
 c4271: y_22 + y_57 + y_65 + y_72 - z_4270 >= 0
 c4272: y_4 + y_9 + y_12 + y_32 + y_71 + y_88 - z_4271 >= 0
 c4273: y_4 + y_9 + y_12 + y_32 + y_71 + y_88 - z_4272 >= 0
 c4274: y_5 + y_8 + y_15 + y_20 + y_33 + y_34 + y_61 + y_79 + y_80 + y_93
        - z_4273 >= 0
 c4275: y_31 + y_37 + y_89 + y_99 - z_4274 >= 0
 c4276: y_4 + y_9 + y_12 + y_32 + y_71 + y_88 - z_4275 >= 0
 c4277: y_3 + y_11 + y_19 + y_30 + y_33 + y_38 + y_43 + y_48 + y_52 + y_59
        + y_69 - z_4276 >= 0
 c4278: y_58 + y_91 - z_4277 >= 0
 c4279: y_0 + y_96 - z_4278 >= 0
 c4280: y_16 + y_39 + y_40 + y_54 + y_55 + y_63 + y_64 + y_66 + y_87 - z_4279
         >= 0
 c4281: y_4 + y_6 + y_32 + y_90 - z_4280 >= 0
 c4282: y_15 + y_18 + y_21 + y_36 + y_41 + y_47 + y_48 + y_79 + y_95 - z_4281
         >= 0
 c4283: y_15 + y_18 + y_36 + y_41 + y_46 + y_47 + y_49 + y_74 + y_79 + y_95
        - z_4282 >= 0
 c4284: y_9 + y_11 + y_26 + y_67 + y_68 + y_69 + y_97 - z_4283 >= 0
 c4285: y_0 + y_2 + y_27 + y_42 + y_55 + y_64 - z_4284 >= 0
 c4286: y_13 + y_65 + y_72 - z_4285 >= 0
 c4287: y_17 + y_39 + y_53 + y_58 + y_63 + y_91 - z_4286 >= 0
 c4288: y_8 + y_20 + y_34 + y_46 + y_61 + y_75 + y_80 + y_93 + y_95 - z_4287
         >= 0
 c4289: y_2 + y_14 + y_82 + y_83 + y_84 + y_85 - z_4288 >= 0
 c4290: y_15 + y_18 + y_21 + y_36 + y_41 + y_47 + y_48 + y_79 + y_95 - z_4289
         >= 0
 c4291: y_37 + y_45 + y_96 - z_4290 >= 0
 c4292: y_25 + y_29 + y_35 + y_50 + y_56 + y_77 - z_4291 >= 0
 c4293: y_15 + y_18 + y_21 + y_36 + y_41 + y_47 + y_48 + y_79 - z_4292 >= 0
 c4294: y_16 + y_25 + y_50 + y_54 + y_56 + y_66 + y_87 - z_4293 >= 0
 c4295: y_29 + y_50 + y_56 + y_65 - z_4294 >= 0
 c4296: y_5 + y_15 + y_20 + y_33 + y_34 + y_44 + y_48 + y_61 + y_79 + y_80
        + y_93 - z_4295 >= 0
 c4297: y_1 + y_23 + y_46 + y_49 + y_74 + y_98 - z_4296 >= 0
 c4298: y_16 + y_39 + y_54 + y_58 + y_63 + y_66 + y_87 - z_4297 >= 0
 c4299: y_1 + y_31 + y_37 + y_73 + y_89 + y_96 + y_99 - z_4298 >= 0
 c4300: y_97 - z_4299 >= 0
 c4301: y_10 + y_78 + y_81 - z_4300 >= 0
 c4302: y_45 + y_96 - z_4301 >= 0
 c4303: y_17 + y_39 + y_53 + y_63 + y_64 + y_91 - z_4302 >= 0
 c4304: y_3 + y_4 + y_5 + y_6 + y_19 + y_32 + y_33 + y_38 + y_44 + y_90 - z_4303
         >= 0
 c4305: y_8 + y_15 + y_20 + y_46 + y_61 + y_75 + y_80 + y_93 + y_95 - z_4304
         >= 0
 c4306: y_17 + y_39 + y_53 + y_58 + y_91 - z_4305 >= 0
 c4307: y_18 + y_21 + y_36 + y_41 + y_47 + y_94 - z_4306 >= 0
 c4308: y_8 + y_15 + y_20 + y_46 + y_49 + y_61 + y_75 + y_79 + y_80 + y_93
        + y_95 - z_4307 >= 0
 c4309: y_2 + y_83 + y_84 + y_85 - z_4308 >= 0
 c4310: y_10 + y_12 + y_78 + y_88 - z_4309 >= 0
 c4311: y_4 + y_6 + y_32 + y_90 - z_4310 >= 0
 c4312: y_13 + y_28 + y_60 + y_76 + y_81 - z_4311 >= 0
 c4313: y_5 + y_6 + y_33 + y_34 + y_44 + y_90 - z_4312 >= 0
 c4314: y_22 + y_56 + y_65 - z_4313 >= 0
 c4315: y_22 + y_56 + y_65 - z_4314 >= 0
 c4316: y_27 - z_4315 >= 0
 c4317: y_8 + y_15 + y_20 + y_46 + y_49 + y_61 + y_74 + y_75 + y_79 + y_80
        + y_93 + y_95 - z_4316 >= 0
 c4318: y_2 + y_14 + y_27 + y_82 - z_4317 >= 0
 c4319: y_22 + y_65 - z_4318 >= 0
 c4320: y_7 + y_23 + y_31 + y_51 + y_62 + y_89 + y_98 + y_99 - z_4319 >= 0
 c4321: y_9 + y_12 + y_71 + y_88 - z_4320 >= 0
 c4322: y_6 + y_90 - z_4321 >= 0
 c4323: y_25 + y_29 + y_35 + y_77 - z_4322 >= 0
 c4324: y_6 + y_22 - z_4323 >= 0
 c4325: y_12 + y_57 + y_88 - z_4324 >= 0
 c4326: y_0 + y_17 + y_39 + y_53 + y_55 + y_63 + y_64 + y_91 - z_4325 >= 0
 c4327: y_1 + y_31 + y_37 + y_73 + y_89 + y_99 - z_4326 >= 0
 c4328: y_50 + y_56 - z_4327 >= 0
 c4329: y_3 + y_19 + y_21 + y_33 + y_38 + y_41 + y_44 + y_48 + y_61 + y_79
        - z_4328 >= 0
 c4330: y_8 + y_20 + y_34 + y_61 + y_75 + y_80 + y_93 - z_4329 >= 0
 c4331: y_9 + y_26 + y_71 - z_4330 >= 0
 c4332: y_9 + y_11 + y_26 + y_67 + y_68 + y_69 + y_97 - z_4331 >= 0
 c4333: y_25 + y_29 + y_35 + y_77 - z_4332 >= 0
 c4334: y_11 + y_68 + y_97 - z_4333 >= 0
 c4335: y_18 + y_21 + y_36 + y_41 + y_47 + y_48 + y_94 - z_4334 >= 0
 c4336: y_17 + y_53 + y_63 + y_64 + y_91 - z_4335 >= 0
 c4337: y_25 + y_29 + y_35 + y_50 + y_56 + y_77 - z_4336 >= 0
 c4338: y_7 + y_31 + y_51 + y_62 - z_4337 >= 0
 c4339: y_10 + y_12 + y_57 + y_72 + y_78 + y_88 - z_4338 >= 0
 c4340: y_22 + y_50 + y_56 + y_65 - z_4339 >= 0
 c4341: y_40 + y_92 - z_4340 >= 0
 c4342: y_17 + y_53 + y_91 + y_96 - z_4341 >= 0
 c4343: y_40 + y_83 + y_85 + y_92 - z_4342 >= 0
 c4344: y_2 + y_82 + y_83 + y_85 - z_4343 >= 0
 c4345: y_0 + y_27 + y_45 - z_4344 >= 0
 c4346: y_83 + y_84 + y_85 - z_4345 >= 0
 c4347: y_24 + y_52 + y_59 + y_70 + y_86 - z_4346 >= 0
 c4348: y_17 + y_53 + y_63 + y_64 + y_96 - z_4347 >= 0
 c4349: y_11 + y_67 + y_68 + y_69 + y_97 - z_4348 >= 0
 c4350: y_4 + y_6 + y_12 + y_22 + y_32 + y_88 - z_4349 >= 0
 c4351: y_46 + y_49 + y_74 + y_95 - z_4350 >= 0
 c4352: y_2 + y_14 + y_82 + y_83 + y_84 + y_85 - z_4351 >= 0
 c4353: y_11 + y_24 + y_52 + y_59 + y_68 + y_70 + y_86 - z_4352 >= 0
 c4354: y_10 + y_13 + y_60 + y_72 + y_76 + y_78 + y_81 - z_4353 >= 0
 c4355: y_12 + y_22 + y_57 + y_88 - z_4354 >= 0
 c4356: y_15 + y_18 + y_21 + y_36 + y_41 + y_47 + y_48 + y_79 + y_95 - z_4355
         >= 0
 c4357: y_25 + y_29 + y_35 + y_50 + y_56 + y_77 - z_4356 >= 0
 c4358: y_50 + y_56 + y_66 - z_4357 >= 0
 c4359: y_12 + y_22 + y_57 + y_65 + y_72 + y_88 - z_4358 >= 0
 c4360: y_29 + y_77 - z_4359 >= 0
 c4361: y_2 + y_27 + y_40 + y_42 + y_55 + y_64 - z_4360 >= 0
 c4362: y_11 + y_24 + y_52 + y_59 + y_67 + y_68 + y_69 + y_70 + y_86 + y_97
        - z_4361 >= 0
 c4363: y_3 + y_11 + y_19 + y_38 + y_43 + y_52 + y_59 + y_67 + y_68 + y_69
        - z_4362 >= 0
 c4364: y_22 + y_56 + y_65 - z_4363 >= 0
 c4365: y_5 + y_17 + y_34 - z_4364 >= 0
 c4366: y_16 + y_40 + y_54 + y_66 + y_87 + y_92 - z_4365 >= 0
 c4367: y_5 + y_17 + y_34 - z_4366 >= 0
 c4368: y_3 + y_4 + y_6 + y_26 + y_32 + y_38 + y_44 + y_90 - z_4367 >= 0
 c4369: y_58 + y_91 - z_4368 >= 0
 c4370: y_1 + y_37 + y_73 + y_89 + y_96 + y_99 - z_4369 >= 0
 c4371: y_0 + y_27 + y_42 + y_55 + y_64 - z_4370 >= 0
 c4372: y_16 + y_39 + y_40 + y_50 + y_54 + y_66 + y_87 - z_4371 >= 0
 c4373: y_29 - z_4372 >= 0
 c4374: y_5 + y_6 + y_34 + y_90 + y_91 - z_4373 >= 0
 c4375: y_3 + y_15 + y_19 + y_21 + y_33 + y_36 + y_41 + y_47 + y_48 + y_79
        - z_4374 >= 0
 c4376: y_16 + y_25 + y_40 + y_54 + y_66 + y_77 + y_87 + y_92 - z_4375 >= 0
 c4377: y_9 + y_11 + y_26 + y_67 + y_68 + y_69 + y_97 - z_4376 >= 0
 c4378: y_10 - z_4377 >= 0
 c4379: y_16 + y_39 + y_50 + y_54 + y_56 + y_58 + y_66 + y_91 - z_4378 >= 0
 c4380: y_25 + y_29 + y_35 + y_77 + y_87 + y_92 - z_4379 >= 0
 c4381: y_2 + y_14 + y_27 + y_42 + y_82 - z_4380 >= 0
 c4382: y_4 + y_6 + y_12 + y_22 + y_32 + y_88 + y_90 - z_4381 >= 0
 c4383: y_45 + y_96 - z_4382 >= 0
 c4384: y_12 + y_57 + y_72 + y_88 - z_4383 >= 0
 c4385: y_7 + y_31 + y_51 + y_62 + y_89 + y_98 - z_4384 >= 0
 c4386: y_11 + y_67 + y_68 + y_69 + y_97 - z_4385 >= 0
 c4387: y_4 + y_9 + y_19 + y_26 + y_32 + y_38 + y_44 + y_67 + y_69 - z_4386 >= 
        0
 c4388: y_45 - z_4387 >= 0
 c4389: y_17 + y_39 + y_53 + y_63 + y_64 + y_91 - z_4388 >= 0
 c4390: y_13 + y_28 + y_60 + y_76 + y_78 + y_81 - z_4389 >= 0
 c4391: y_3 + y_19 + y_33 + y_38 + y_44 + y_48 + y_79 - z_4390 >= 0
 c4392: y_4 + y_6 + y_12 + y_22 + y_32 + y_88 + y_90 - z_4391 >= 0
 c4393: y_50 + y_56 + y_66 - z_4392 >= 0
 c4394: y_23 + y_49 + y_74 + y_98 - z_4393 >= 0
 c4395: y_16 + y_39 + y_53 + y_54 + y_58 + y_63 + y_64 + y_66 + y_91 - z_4394
         >= 0
 c4396: y_9 + y_71 - z_4395 >= 0
 c4397: y_16 + y_39 + y_40 + y_53 + y_54 + y_55 + y_63 + y_64 + y_66 + y_87
        - z_4396 >= 0
 c4398: y_71 - z_4397 >= 0
 c4399: y_2 + y_83 + y_85 - z_4398 >= 0
 c4400: y_1 + y_7 + y_23 + y_31 + y_37 + y_51 + y_73 + y_89 + y_98 + y_99
        - z_4399 >= 0
 c4401: y_11 + y_24 + y_30 + y_43 + y_52 + y_59 + y_70 + y_86 - z_4400 >= 0
 c4402: y_16 + y_39 + y_50 + y_53 + y_54 + y_58 + y_63 + y_66 + y_91 - z_4401
         >= 0
 c4403: y_17 + y_53 + y_58 + y_91 - z_4402 >= 0
 c4404: y_0 + y_2 + y_14 + y_27 + y_42 + y_55 - z_4403 >= 0
 c4405: y_28 + y_60 + y_76 + y_81 - z_4404 >= 0
 c4406: y_22 + y_50 + y_56 - z_4405 >= 0
 c4407: y_1 + y_37 + y_73 + y_96 - z_4406 >= 0
 c4408: y_0 + y_27 + y_42 + y_55 + y_64 - z_4407 >= 0
 c4409: y_37 + y_45 - z_4408 >= 0
 c4410: y_4 + y_6 + y_9 + y_26 + y_32 + y_90 - z_4409 >= 0
 c4411: y_2 + y_14 + y_27 + y_42 + y_82 - z_4410 >= 0
 c4412: y_9 + y_26 + y_67 + y_71 - z_4411 >= 0
 c4413: y_25 + y_35 + y_40 + y_66 + y_77 + y_87 + y_92 - z_4412 >= 0
 c4414: y_9 + y_12 + y_71 + y_88 - z_4413 >= 0
 c4415: y_30 + y_43 + y_94 - z_4414 >= 0
 c4416: y_6 + y_12 + y_22 + y_88 - z_4415 >= 0
 c4417: y_7 + y_31 + y_37 + y_51 + y_62 + y_89 + y_98 + y_99 - z_4416 >= 0
 c4418: y_17 + y_53 + y_96 - z_4417 >= 0
 c4419: y_4 + y_5 + y_6 + y_33 + y_34 + y_44 + y_90 - z_4418 >= 0
 c4420: y_0 + y_27 + y_42 + y_55 + y_64 - z_4419 >= 0
 c4421: y_16 + y_39 + y_40 + y_54 + y_55 + y_63 + y_64 + y_66 + y_87 - z_4420
         >= 0
 c4422: y_17 + y_53 + y_63 + y_64 - z_4421 >= 0
 c4423: y_45 - z_4422 >= 0
 c4424: y_1 + y_23 + y_46 + y_49 + y_74 + y_98 + y_99 - z_4423 >= 0
 c4425: y_13 + y_28 + y_60 + y_76 + y_81 - z_4424 >= 0
 c4426: y_25 + y_29 + y_35 + y_77 - z_4425 >= 0
 c4427: y_4 + y_6 + y_32 + y_44 + y_90 - z_4426 >= 0
 c4428: y_46 + y_49 + y_74 + y_95 - z_4427 >= 0
 c4429: y_1 + y_8 + y_46 + y_49 + y_73 + y_75 + y_80 - z_4428 >= 0
 c4430: y_18 + y_21 + y_36 + y_41 + y_47 + y_94 - z_4429 >= 0
 c4431: y_1 + y_73 + y_96 + y_99 - z_4430 >= 0
 c4432: y_3 + y_5 + y_19 + y_33 + y_34 + y_38 + y_44 + y_48 + y_61 + y_79
        - z_4431 >= 0
 c4433: y_25 + y_29 + y_35 + y_40 + y_66 + y_77 + y_87 + y_92 - z_4432 >= 0
 c4434: y_30 + y_43 + y_52 + y_59 + y_94 - z_4433 >= 0
 c4435: y_40 + y_83 + y_85 + y_92 - z_4434 >= 0
 c4436: y_6 + y_22 + y_90 - z_4435 >= 0
 c4437: y_25 + y_29 + y_35 + y_56 + y_77 - z_4436 >= 0
 c4438: y_0 + y_27 + y_42 + y_55 - z_4437 >= 0
 c4439: y_5 + y_8 + y_20 + y_34 + y_75 + y_80 + y_93 - z_4438 >= 0
 c4440: y_3 + y_19 + y_26 + y_33 + y_38 + y_44 + y_67 + y_69 - z_4439 >= 0
 c4441: y_1 + y_8 + y_46 + y_73 + y_75 + y_80 + y_96 - z_4440 >= 0
 c4442: y_40 + y_83 + y_85 + y_92 - z_4441 >= 0
 c4443: y_4 + y_6 + y_22 + y_32 + y_90 - z_4442 >= 0
 c4444: y_28 - z_4443 >= 0
 c4445: y_4 + y_12 + y_22 + y_32 + y_88 - z_4444 >= 0
 c4446: y_28 - z_4445 >= 0
 c4447: y_12 + y_22 + y_57 + y_88 - z_4446 >= 0
 c4448: y_1 + y_8 + y_46 + y_49 + y_73 + y_75 - z_4447 >= 0
 c4449: y_15 + y_18 + y_36 + y_41 + y_47 + y_95 - z_4448 >= 0
 c4450: y_16 + y_39 + y_40 + y_42 + y_54 + y_55 + y_63 + y_64 - z_4449 >= 0
 c4451: y_13 + y_28 + y_60 + y_76 + y_78 + y_81 - z_4450 >= 0
 c4452: y_17 + y_53 + y_63 + y_91 + y_96 - z_4451 >= 0
 c4453: y_4 + y_9 + y_26 + y_32 + y_67 - z_4452 >= 0
 c4454: y_1 + y_7 + y_23 + y_31 + y_37 + y_51 + y_73 + y_89 + y_98 + y_99
        - z_4453 >= 0
 c4455: y_65 + y_72 - z_4454 >= 0
 c4456: y_18 + y_36 + y_41 + y_47 + y_74 + y_95 - z_4455 >= 0
 c4457: y_0 + y_2 + y_27 + y_42 + y_55 - z_4456 >= 0
 c4458: y_10 + y_13 + y_60 + y_76 + y_78 + y_81 - z_4457 >= 0
 c4459: y_40 + y_85 + y_92 - z_4458 >= 0
 c4460: y_24 + y_30 + y_43 + y_52 + y_59 + y_70 + y_94 - z_4459 >= 0
 c4461: y_25 + y_29 + y_50 + y_56 + y_66 + y_77 + y_87 - z_4460 >= 0
 c4462: y_37 + y_45 + y_89 - z_4461 >= 0
 c4463: y_5 + y_8 + y_20 + y_34 + y_61 + y_75 + y_80 + y_93 - z_4462 >= 0
 c4464: y_25 + y_29 + y_35 + y_50 + y_56 + y_77 - z_4463 >= 0
 c4465: y_16 + y_39 + y_40 + y_54 + y_55 + y_66 + y_87 + y_92 - z_4464 >= 0
 c4466: y_3 + y_19 + y_21 + y_33 + y_38 + y_41 + y_44 + y_48 + y_61 + y_79
        - z_4465 >= 0
 c4467: y_29 - z_4466 >= 0
 c4468: y_4 + y_6 + y_32 + y_90 - z_4467 >= 0
 c4469: y_40 + y_54 + y_66 + y_87 + y_92 - z_4468 >= 0
 c4470: y_21 + y_30 + y_36 + y_41 + y_43 + y_47 + y_48 + y_94 - z_4469 >= 0
 c4471: y_3 + y_19 + y_21 + y_30 + y_38 + y_43 + y_48 + y_59 + y_94 - z_4470
         >= 0
 c4472: y_2 + y_14 + y_82 + y_83 + y_85 - z_4471 >= 0
 c4473: y_24 + y_30 + y_43 + y_52 + y_59 + y_70 + y_94 - z_4472 >= 0
 c4474: y_21 + y_30 + y_36 + y_41 + y_43 + y_47 + y_48 + y_94 - z_4473 >= 0
 c4475: y_71 - z_4474 >= 0
 c4476: y_0 + y_45 - z_4475 >= 0
 c4477: y_1 + y_23 + y_46 + y_49 + y_74 + y_75 + y_98 - z_4476 >= 0
 c4478: y_12 + y_22 + y_57 + y_65 + y_72 + y_88 - z_4477 >= 0
 c4479: y_5 + y_8 + y_20 + y_34 + y_61 + y_75 + y_80 + y_93 - z_4478 >= 0
 c4480: y_50 + y_56 + y_65 - z_4479 >= 0
 c4481: y_1 + y_31 + y_37 + y_73 + y_89 + y_99 - z_4480 >= 0
 c4482: y_10 + y_76 + y_78 + y_81 - z_4481 >= 0
 c4483: y_0 + y_27 + y_42 + y_55 + y_64 - z_4482 >= 0
 c4484: y_0 + y_64 + y_96 - z_4483 >= 0
 c4485: y_25 + y_29 + y_35 + y_50 + y_56 + y_77 + y_87 - z_4484 >= 0
 c4486: y_3 + y_15 + y_19 + y_20 + y_21 + y_33 + y_34 + y_41 + y_44 + y_48
        + y_61 + y_79 + y_93 - z_4485 >= 0
 c4487: y_10 - z_4486 >= 0
 c4488: y_2 + y_14 + y_82 + y_83 - z_4487 >= 0
 c4489: y_22 + y_57 + y_65 + y_72 - z_4488 >= 0
 c4490: y_10 + y_12 + y_57 + y_72 + y_78 + y_88 - z_4489 >= 0
 c4491: y_23 + y_98 - z_4490 >= 0
 c4492: y_45 + y_96 - z_4491 >= 0
 c4493: y_83 + y_85 - z_4492 >= 0
 c4494: y_0 + y_27 + y_42 + y_55 + y_64 - z_4493 >= 0
 c4495: y_16 + y_39 + y_40 + y_42 + y_54 + y_55 + y_63 + y_64 - z_4494 >= 0
 c4496: y_8 + y_17 + y_75 + y_80 + y_96 - z_4495 >= 0
 c4497: y_9 + y_67 + y_68 + y_69 + y_97 - z_4496 >= 0
 c4498: y_1 + y_7 + y_23 + y_31 + y_51 + y_62 + y_89 + y_98 + y_99 - z_4497 >= 
        0
 c4499: y_97 - z_4498 >= 0
 c4500: y_4 + y_6 + y_32 + y_90 - z_4499 >= 0
 c4501: y_1 + y_23 + y_31 + y_37 + y_73 + y_89 + y_98 + y_99 - z_4500 >= 0
 c4502: y_3 + y_11 + y_19 + y_30 + y_38 + y_43 + y_52 + y_59 + y_68 + y_69
        - z_4501 >= 0
 c4503: y_10 + y_13 + y_57 + y_60 + y_72 + y_76 + y_78 + y_81 - z_4502 >= 0
 c4504: y_12 + y_71 + y_88 - z_4503 >= 0
 c4505: y_25 + y_29 + y_35 + y_50 + y_56 + y_66 + y_77 + y_87 - z_4504 >= 0
 c4506: y_0 + y_27 + y_39 + y_42 + y_54 + y_55 + y_63 + y_64 - z_4505 >= 0
 c4507: y_9 + y_26 + y_32 + y_71 - z_4506 >= 0
 c4508: y_7 + y_23 + y_51 + y_98 - z_4507 >= 0
 c4509: y_8 + y_20 + y_34 + y_75 + y_80 + y_93 - z_4508 >= 0
 c4510: y_22 - z_4509 >= 0
 c4511: y_83 + y_84 + y_85 - z_4510 >= 0
 c4512: y_28 - z_4511 >= 0
 c4513: y_1 + y_23 + y_46 + y_49 + y_74 + y_98 - z_4512 >= 0
 c4514: y_1 + y_31 + y_37 + y_73 + y_89 + y_99 - z_4513 >= 0
 c4515: y_16 + y_39 + y_40 + y_50 + y_54 + y_66 + y_87 - z_4514 >= 0
 c4516: y_12 + y_22 + y_32 + y_57 + y_88 - z_4515 >= 0
 c4517: y_12 + y_71 + y_88 - z_4516 >= 0
 c4518: y_57 + y_65 + y_72 - z_4517 >= 0
 c4519: y_16 + y_39 + y_40 + y_54 + y_55 + y_63 + y_64 + y_66 + y_87 - z_4518
         >= 0
 c4520: y_16 + y_25 + y_40 + y_54 + y_66 + y_87 + y_92 - z_4519 >= 0
 c4521: y_6 + y_58 - z_4520 >= 0
 c4522: y_5 + y_6 + y_34 + y_90 - z_4521 >= 0
 c4523: y_2 + y_14 + y_27 + y_82 - z_4522 >= 0
 c4524: y_5 + y_8 + y_17 + y_34 - z_4523 >= 0
 c4525: y_24 + y_70 + y_86 - z_4524 >= 0
 c4526: y_7 + y_51 + y_62 - z_4525 >= 0
 c4527: y_24 + y_70 + y_86 - z_4526 >= 0
 c4528: y_11 + y_68 + y_97 - z_4527 >= 0
 c4529: y_1 + y_7 + y_23 + y_31 + y_51 + y_62 + y_89 + y_98 + y_99 - z_4528 >= 
        0
 c4530: y_17 + y_53 + y_58 + y_91 - z_4529 >= 0
 c4531: y_9 + y_11 + y_26 + y_38 + y_52 + y_67 + y_68 + y_69 + y_97 - z_4530
         >= 0
 c4532: y_2 + y_14 + y_42 + y_82 + y_83 + y_85 - z_4531 >= 0
 c4533: y_13 + y_60 + y_65 + y_72 + y_76 - z_4532 >= 0
 c4534: y_15 + y_18 + y_21 + y_36 + y_41 + y_47 + y_48 + y_79 + y_94 - z_4533
         >= 0
 c4535: y_25 + y_29 + y_35 + y_77 - z_4534 >= 0
 c4536: y_11 + y_24 + y_52 + y_59 + y_68 + y_70 + y_86 + y_97 - z_4535 >= 0
 c4537: y_5 + y_6 + y_90 - z_4536 >= 0
 c4538: y_6 + y_58 + y_90 - z_4537 >= 0
 c4539: y_7 + y_23 + y_31 + y_51 + y_98 - z_4538 >= 0
 c4540: y_11 + y_24 + y_52 + y_59 + y_68 + y_70 + y_86 + y_97 - z_4539 >= 0
 c4541: y_83 + y_84 + y_85 - z_4540 >= 0
 c4542: y_7 + y_23 + y_31 + y_51 + y_62 + y_89 + y_98 + y_99 - z_4541 >= 0
 c4543: y_7 + y_31 + y_51 + y_62 + y_89 + y_99 - z_4542 >= 0
 c4544: y_1 + y_23 + y_46 + y_49 + y_74 + y_95 + y_98 - z_4543 >= 0
 c4545: y_40 + y_42 + y_54 + y_55 + y_64 - z_4544 >= 0
 c4546: y_3 + y_19 + y_21 + y_33 + y_36 + y_41 + y_43 + y_47 + y_48 + y_79
        + y_94 - z_4545 >= 0
 c4547: y_2 + y_14 + y_27 + y_82 - z_4546 >= 0
 c4548: y_10 + y_13 + y_57 + y_60 + y_72 + y_76 + y_78 + y_81 - z_4547 >= 0
 c4549: y_4 + y_6 + y_32 + y_90 - z_4548 >= 0
 c4550: y_11 + y_52 + y_59 + y_67 + y_68 + y_69 + y_97 - z_4549 >= 0
 c4551: y_25 + y_29 + y_35 + y_50 + y_56 + y_66 + y_77 + y_87 - z_4550 >= 0
 c4552: y_46 + y_49 + y_74 + y_95 - z_4551 >= 0
 c4553: y_40 + y_92 - z_4552 >= 0
 c4554: y_5 + y_6 + y_90 - z_4553 >= 0
 c4555: y_12 + y_71 - z_4554 >= 0
 c4556: y_18 + y_21 + y_36 + y_41 + y_47 + y_94 - z_4555 >= 0
 c4557: y_16 + y_50 + y_54 + y_56 + y_66 + y_87 - z_4556 >= 0
 c4558: y_0 + y_45 - z_4557 >= 0
 c4559: y_9 + y_26 + y_67 + y_69 + y_71 + y_97 - z_4558 >= 0
 c4560: y_3 + y_15 + y_19 + y_21 + y_33 + y_36 + y_41 + y_47 + y_48 + y_79
        - z_4559 >= 0
 c4561: y_1 + y_31 + y_37 + y_73 + y_89 + y_99 - z_4560 >= 0
 c4562: y_1 + y_23 + y_46 + y_49 + y_73 + y_75 + y_98 + y_99 - z_4561 >= 0
 c4563: y_7 + y_31 + y_37 + y_51 + y_62 + y_89 + y_99 - z_4562 >= 0
 c4564: y_10 + y_12 + y_88 - z_4563 >= 0
 c4565: y_65 - z_4564 >= 0
 c4566: y_11 + y_24 + y_30 + y_43 + y_52 + y_59 + y_67 + y_68 + y_69 + y_70
        - z_4565 >= 0
 c4567: y_3 + y_19 + y_21 + y_33 + y_38 + y_41 + y_43 + y_48 - z_4566 >= 0
 c4568: y_7 + y_23 + y_51 + y_98 - z_4567 >= 0
 c4569: y_0 + y_2 + y_14 + y_27 + y_42 + y_55 + y_82 - z_4568 >= 0
 c4570: y_15 + y_18 + y_21 + y_36 + y_41 + y_47 + y_74 + y_79 + y_95 - z_4569
         >= 0
 c4571: y_1 + y_23 + y_46 + y_49 + y_74 + y_98 - z_4570 >= 0
 c4572: y_2 + y_14 + y_27 + y_42 + y_82 + y_83 - z_4571 >= 0
 c4573: y_11 + y_43 + y_52 + y_59 + y_67 + y_68 + y_69 - z_4572 >= 0
 c4574: y_16 + y_39 + y_40 + y_42 + y_54 + y_55 + y_63 + y_64 - z_4573 >= 0
 c4575: y_25 + y_29 + y_35 + y_50 + y_56 + y_77 - z_4574 >= 0
 c4576: y_10 + y_12 + y_57 + y_72 + y_78 + y_88 - z_4575 >= 0
 c4577: y_1 + y_7 + y_23 + y_31 + y_51 + y_73 + y_89 + y_98 + y_99 - z_4576 >= 
        0
 c4578: y_11 + y_19 + y_43 + y_52 + y_59 + y_67 + y_68 + y_69 - z_4577 >= 0
 c4579: y_16 + y_39 + y_40 + y_54 + y_55 + y_66 + y_87 + y_92 - z_4578 >= 0
 c4580: y_13 - z_4579 >= 0
 c4581: y_6 + y_22 - z_4580 >= 0
 c4582: y_37 + y_45 + y_73 + y_96 - z_4581 >= 0
 c4583: y_3 + y_9 + y_11 + y_19 + y_26 + y_38 + y_44 + y_67 + y_68 + y_69
        - z_4582 >= 0
 c4584: y_40 + y_87 + y_92 - z_4583 >= 0
 c4585: y_10 + y_60 + y_76 + y_78 + y_81 - z_4584 >= 0
 c4586: y_11 + y_67 + y_68 + y_69 + y_97 - z_4585 >= 0
 c4587: y_24 + y_30 + y_43 + y_52 + y_59 + y_70 + y_86 - z_4586 >= 0
 c4588: y_10 + y_78 + y_81 - z_4587 >= 0
 c4589: y_1 + y_37 + y_73 + y_89 + y_96 + y_99 - z_4588 >= 0
 c4590: y_16 + y_39 + y_50 + y_54 + y_56 + y_66 + y_87 - z_4589 >= 0
 c4591: y_37 + y_45 + y_73 + y_96 - z_4590 >= 0
 c4592: y_8 + y_20 + y_34 + y_61 + y_75 + y_80 + y_93 - z_4591 >= 0
 c4593: y_8 + y_15 + y_20 + y_34 + y_41 + y_48 + y_61 + y_75 + y_79 + y_80
        + y_93 + y_95 - z_4592 >= 0
 c4594: y_16 + y_25 + y_50 + y_54 + y_56 + y_66 + y_77 + y_87 - z_4593 >= 0
 c4595: y_68 + y_97 - z_4594 >= 0
 c4596: y_12 + y_22 + y_57 + y_72 + y_88 - z_4595 >= 0
 c4597: y_13 + y_28 + y_60 + y_76 + y_81 - z_4596 >= 0
 c4598: y_10 + y_12 + y_88 - z_4597 >= 0
 c4599: y_1 + y_37 + y_73 + y_96 + y_99 - z_4598 >= 0
 c4600: y_3 + y_15 + y_20 + y_21 + y_33 + y_36 + y_41 + y_47 + y_48 + y_61
        + y_79 + y_80 + y_93 + y_95 - z_4599 >= 0
 c4601: y_45 - z_4600 >= 0
 c4602: y_25 + y_29 + y_35 + y_77 + y_92 - z_4601 >= 0
 c4603: y_5 + y_6 + y_34 + y_90 - z_4602 >= 0
 c4604: y_22 + y_57 + y_65 - z_4603 >= 0
 c4605: y_3 + y_19 + y_21 + y_30 + y_33 + y_38 + y_41 + y_43 + y_47 + y_48
        + y_94 - z_4604 >= 0
 c4606: y_16 + y_25 + y_35 + y_40 + y_50 + y_54 + y_56 + y_66 + y_77 + y_87
        + y_92 - z_4605 >= 0
 c4607: y_25 + y_29 + y_35 + y_50 + y_56 + y_66 + y_77 + y_87 - z_4606 >= 0
 c4608: y_83 + y_84 + y_85 - z_4607 >= 0
 c4609: y_0 + y_27 - z_4608 >= 0
 c4610: y_30 + y_43 + y_52 + y_59 + y_94 - z_4609 >= 0
 c4611: y_12 + y_32 + y_71 + y_88 - z_4610 >= 0
 c4612: y_22 + y_56 + y_65 - z_4611 >= 0
 c4613: y_16 + y_39 + y_53 + y_54 + y_58 + y_91 - z_4612 >= 0
 c4614: y_16 + y_39 + y_53 + y_54 + y_55 + y_58 + y_63 + y_64 + y_66 - z_4613
         >= 0
 c4615: y_13 + y_28 + y_60 + y_72 + y_76 + y_78 + y_81 - z_4614 >= 0
 c4616: y_13 + y_28 + y_60 + y_76 - z_4615 >= 0
 c4617: y_8 + y_20 + y_34 + y_75 + y_80 + y_93 + y_96 - z_4616 >= 0
 c4618: y_10 + y_13 + y_28 + y_60 + y_76 + y_78 + y_81 - z_4617 >= 0
 c4619: y_12 + y_22 + y_57 + y_88 - z_4618 >= 0
 c4620: y_4 + y_5 + y_6 + y_34 + y_44 + y_90 - z_4619 >= 0
 c4621: y_30 + y_43 + y_52 + y_59 + y_94 - z_4620 >= 0
 c4622: y_1 + y_8 + y_46 + y_73 + y_75 + y_96 + y_99 - z_4621 >= 0
 c4623: y_9 + y_26 + y_67 + y_69 - z_4622 >= 0
 c4624: y_2 + y_40 + y_83 + y_85 + y_92 - z_4623 >= 0
 c4625: y_13 + y_28 + y_60 + y_76 + y_81 - z_4624 >= 0
 c4626: y_10 + y_13 + y_57 + y_60 + y_72 + y_76 + y_78 + y_81 - z_4625 >= 0
 c4627: y_39 + y_53 + y_58 + y_91 - z_4626 >= 0
 c4628: y_25 + y_29 + y_35 + y_77 - z_4627 >= 0
 c4629: y_2 + y_40 + y_55 + y_83 + y_85 - z_4628 >= 0
 c4630: y_18 + y_21 + y_36 + y_41 + y_47 + y_48 + y_79 + y_94 - z_4629 >= 0
 c4631: y_4 + y_6 + y_32 + y_90 - z_4630 >= 0
 c4632: y_7 + y_31 + y_51 + y_62 + y_89 + y_98 + y_99 - z_4631 >= 0
 c4633: y_13 + y_28 + y_60 - z_4632 >= 0
 c4634: y_12 + y_71 + y_88 - z_4633 >= 0
 c4635: y_6 + y_90 - z_4634 >= 0
 c4636: y_9 + y_26 + y_67 + y_69 + y_97 - z_4635 >= 0
 c4637: y_3 + y_15 + y_20 + y_21 + y_33 + y_36 + y_41 + y_47 + y_48 + y_61
        + y_79 + y_80 + y_93 + y_95 - z_4636 >= 0
 c4638: y_5 + y_6 + y_34 + y_44 + y_90 - z_4637 >= 0
 c4639: y_50 + y_56 - z_4638 >= 0
 c4640: y_17 + y_53 + y_63 + y_64 + y_96 - z_4639 >= 0
 c4641: y_3 + y_19 + y_21 + y_33 + y_38 + y_43 + y_44 + y_48 - z_4640 >= 0
 c4642: y_1 + y_8 + y_23 + y_46 + y_49 + y_73 + y_75 - z_4641 >= 0
 c4643: y_22 + y_57 + y_65 + y_72 - z_4642 >= 0
 c4644: y_83 + y_85 - z_4643 >= 0
 c4645: y_50 + y_56 - z_4644 >= 0
 c4646: y_31 + y_37 + y_73 + y_89 + y_99 - z_4645 >= 0
 c4647: y_1 + y_23 + y_46 + y_49 + y_74 + y_98 - z_4646 >= 0
 c4648: y_23 + y_46 + y_49 + y_74 + y_95 + y_98 - z_4647 >= 0
 c4649: y_1 + y_31 + y_37 + y_73 + y_89 + y_99 - z_4648 >= 0
 c4650: y_22 + y_56 + y_65 - z_4649 >= 0
 c4651: y_4 + y_6 + y_12 + y_22 + y_32 + y_88 - z_4650 >= 0
 c4652: y_37 + y_45 + y_89 - z_4651 >= 0
 c4653: y_4 + y_12 + y_22 + y_32 + y_88 - z_4652 >= 0
 c4654: y_3 + y_19 + y_33 + y_38 + y_44 + y_48 + y_90 - z_4653 >= 0
 c4655: y_40 + y_87 + y_92 - z_4654 >= 0
 c4656: y_24 + y_30 + y_43 + y_52 + y_59 + y_70 + y_94 - z_4655 >= 0
 c4657: y_1 + y_7 + y_23 + y_31 + y_51 + y_62 + y_89 + y_98 + y_99 - z_4656 >= 
        0
 c4658: y_40 + y_83 + y_85 + y_92 - z_4657 >= 0
 c4659: y_9 + y_26 + y_67 + y_69 - z_4658 >= 0
 c4660: y_9 + y_26 + y_71 - z_4659 >= 0
 c4661: y_83 + y_85 - z_4660 >= 0
 c4662: y_4 + y_6 + y_32 + y_44 + y_90 - z_4661 >= 0
 c4663: y_83 + y_84 + y_85 - z_4662 >= 0
 c4664: y_15 + y_20 + y_21 + y_33 + y_36 + y_41 + y_47 + y_48 + y_61 + y_79
        + y_80 + y_93 + y_95 - z_4663 >= 0
 c4665: y_1 + y_23 + y_31 + y_49 + y_89 + y_98 + y_99 - z_4664 >= 0
 c4666: y_13 + y_28 + y_60 + y_76 + y_81 - z_4665 >= 0
 c4667: y_65 - z_4666 >= 0
 c4668: y_96 - z_4667 >= 0
 c4669: y_25 + y_29 + y_35 + y_40 + y_50 + y_66 + y_77 + y_87 + y_92 - z_4668
         >= 0
 c4670: y_22 + y_57 + y_65 + y_72 - z_4669 >= 0
 c4671: y_4 + y_12 + y_22 + y_32 + y_88 - z_4670 >= 0
 c4672: y_13 + y_60 + y_76 - z_4671 >= 0
 c4673: y_21 + y_30 + y_36 + y_47 + y_94 - z_4672 >= 0
 c4674: y_4 + y_9 + y_12 + y_32 + y_71 + y_88 - z_4673 >= 0
 c4675: y_16 + y_39 + y_40 + y_54 + y_63 + y_66 + y_87 - z_4674 >= 0
 c4676: y_9 + y_12 + y_71 + y_88 - z_4675 >= 0
 c4677: y_4 + y_6 + y_22 + y_32 - z_4676 >= 0
 c4678: y_10 + y_13 + y_60 + y_72 + y_76 + y_78 + y_81 - z_4677 >= 0
 c4679: y_5 + y_6 + y_34 + y_90 - z_4678 >= 0
 c4680: y_10 + y_72 + y_78 + y_81 - z_4679 >= 0
 c4681: y_29 + y_50 + y_56 - z_4680 >= 0
 c4682: y_3 + y_19 + y_33 + y_38 + y_44 + y_48 + y_79 - z_4681 >= 0
 c4683: y_29 + y_56 + y_65 - z_4682 >= 0
 c4684: y_21 + y_30 + y_36 + y_41 + y_43 + y_47 + y_48 + y_94 - z_4683 >= 0
 c4685: y_4 + y_6 + y_9 + y_26 + y_32 + y_44 + y_90 - z_4684 >= 0
 c4686: y_4 + y_9 + y_12 + y_32 + y_71 + y_88 - z_4685 >= 0
 c4687: y_71 - z_4686 >= 0
 c4688: y_16 + y_39 + y_53 + y_54 + y_58 + y_63 + y_66 + y_91 - z_4687 >= 0
 c4689: y_3 + y_5 + y_19 + y_33 + y_34 + y_38 + y_44 + y_48 + y_61 + y_79
        - z_4688 >= 0
 c4690: y_83 + y_85 - z_4689 >= 0
 c4691: y_7 + y_31 + y_51 + y_62 + y_89 - z_4690 >= 0
 c4692: y_16 + y_50 + y_54 + y_56 + y_58 + y_66 - z_4691 >= 0
 c4693: y_4 + y_6 + y_32 + y_44 + y_90 - z_4692 >= 0
 c4694: y_8 + y_15 + y_20 + y_34 + y_41 + y_48 + y_61 + y_75 + y_79 + y_80
        + y_93 + y_95 - z_4693 >= 0
 c4695: y_9 + y_26 + y_71 - z_4694 >= 0
 c4696: y_9 + y_71 - z_4695 >= 0
 c4697: y_0 + y_39 + y_42 + y_53 + y_55 + y_63 + y_64 - z_4696 >= 0
 c4698: y_65 - z_4697 >= 0
 c4699: y_5 + y_8 + y_17 + y_34 + y_80 + y_93 - z_4698 >= 0
 c4700: y_11 + y_24 + y_52 + y_68 + y_70 + y_86 + y_97 - z_4699 >= 0
 c4701: y_13 + y_57 + y_60 + y_65 + y_72 + y_76 + y_78 - z_4700 >= 0
 c4702: y_22 + y_57 + y_65 + y_72 - z_4701 >= 0
 c4703: y_15 + y_20 + y_46 + y_49 + y_61 + y_74 + y_75 + y_79 + y_80 + y_93
        + y_95 - z_4702 >= 0
 c4704: y_18 + y_36 + y_47 + y_74 + y_95 - z_4703 >= 0
 c4705: y_16 + y_39 + y_53 + y_54 + y_58 + y_63 + y_66 + y_91 - z_4704 >= 0
 c4706: y_45 - z_4705 >= 0
 c4707: y_4 + y_6 + y_32 + y_90 - z_4706 >= 0
 c4708: y_37 + y_45 + y_96 - z_4707 >= 0
 c4709: y_12 + y_71 + y_88 - z_4708 >= 0
 c4710: y_29 + y_50 + y_56 + y_65 - z_4709 >= 0
 c4711: y_0 + y_27 + y_45 - z_4710 >= 0
 c4712: y_1 + y_8 + y_73 + y_75 + y_96 - z_4711 >= 0
 c4713: y_83 + y_84 + y_85 - z_4712 >= 0
 c4714: y_0 + y_27 + y_42 + y_55 + y_63 + y_64 - z_4713 >= 0
 c4715: y_8 + y_15 + y_20 + y_46 + y_49 + y_74 + y_75 + y_80 + y_93 + y_95
        - z_4714 >= 0
 c4716: y_3 + y_19 + y_21 + y_30 + y_33 + y_38 + y_43 + y_48 + y_52 + y_59
        - z_4715 >= 0
 c4717: y_9 + y_71 - z_4716 >= 0
 c4718: y_9 + y_26 + y_67 + y_71 + y_97 - z_4717 >= 0
 c4719: y_5 + y_6 + y_34 + y_44 + y_90 - z_4718 >= 0
 c4720: y_25 + y_35 + y_77 + y_92 - z_4719 >= 0
 c4721: y_9 + y_71 + y_97 - z_4720 >= 0
 c4722: y_16 + y_39 + y_50 + y_54 + y_58 + y_63 + y_66 + y_87 - z_4721 >= 0
 c4723: y_9 + y_12 + y_71 + y_88 - z_4722 >= 0
 c4724: y_2 + y_14 + y_82 + y_83 + y_85 - z_4723 >= 0
 c4725: y_0 + y_2 + y_27 + y_42 + y_55 + y_64 - z_4724 >= 0
 c4726: y_3 + y_19 + y_21 + y_33 + y_38 + y_41 + y_43 + y_44 + y_48 + y_79
        - z_4725 >= 0
 c4727: y_40 + y_85 + y_92 - z_4726 >= 0
 c4728: y_5 + y_8 + y_20 + y_34 + y_61 + y_80 + y_93 - z_4727 >= 0
 c4729: y_10 + y_12 + y_57 + y_72 + y_78 + y_88 - z_4728 >= 0
 c4730: y_9 + y_11 + y_26 + y_67 + y_68 + y_69 + y_97 - z_4729 >= 0
 c4731: y_12 + y_22 + y_57 + y_72 + y_88 - z_4730 >= 0
 c4732: y_16 + y_25 + y_40 + y_50 + y_54 + y_56 + y_66 + y_87 - z_4731 >= 0
 c4733: y_37 + y_45 - z_4732 >= 0
 c4734: y_0 + y_27 + y_42 + y_55 + y_64 - z_4733 >= 0
 c4735: y_4 + y_6 + y_12 + y_22 + y_32 + y_88 + y_90 - z_4734 >= 0
 c4736: y_22 + y_50 + y_56 + y_65 - z_4735 >= 0
 c4737: y_24 + y_52 + y_59 + y_70 + y_86 - z_4736 >= 0
 c4738: y_16 + y_25 + y_40 + y_50 + y_54 + y_56 + y_66 + y_77 + y_87 + y_92
        - z_4737 >= 0
 c4739: y_6 + y_58 + y_90 + y_91 - z_4738 >= 0
 c4740: y_22 + y_56 + y_65 - z_4739 >= 0
 c4741: y_1 + y_8 + y_73 + y_96 - z_4740 >= 0
 c4742: y_9 + y_12 + y_71 - z_4741 >= 0
 c4743: y_8 + y_73 + y_96 - z_4742 >= 0
 c4744: y_11 + y_19 + y_38 + y_43 + y_52 + y_59 + y_67 + y_68 + y_69 - z_4743
         >= 0
 c4745: y_2 + y_14 + y_27 + y_82 - z_4744 >= 0
 c4746: y_25 + y_29 + y_35 + y_40 + y_50 + y_54 + y_56 + y_66 + y_77 + y_87
        - z_4745 >= 0
 c4747: y_25 + y_35 + y_40 + y_66 + y_77 + y_87 + y_92 - z_4746 >= 0
 c4748: y_4 + y_5 + y_6 + y_32 + y_44 + y_90 - z_4747 >= 0
 c4749: y_2 + y_40 + y_42 + y_55 - z_4748 >= 0
 c4750: y_83 + y_84 + y_85 - z_4749 >= 0
 c4751: y_16 + y_39 + y_53 + y_54 + y_55 + y_63 + y_64 + y_66 - z_4750 >= 0
 c4752: y_3 + y_19 + y_33 + y_38 + y_44 + y_48 - z_4751 >= 0
 c4753: y_19 + y_21 + y_30 + y_43 + y_52 + y_59 + y_94 - z_4752 >= 0
 c4754: y_31 + y_37 + y_45 + y_73 + y_89 + y_99 - z_4753 >= 0
 c4755: y_22 + y_50 + y_56 + y_65 - z_4754 >= 0
 c4756: y_10 + y_13 + y_28 + y_60 + y_76 + y_78 + y_81 - z_4755 >= 0
 c4757: y_2 + y_14 + y_82 + y_83 + y_84 + y_85 - z_4756 >= 0
 c4758: y_1 + y_8 + y_73 + y_75 + y_80 + y_96 - z_4757 >= 0
 c4759: y_1 + y_23 + y_31 + y_49 + y_73 + y_89 + y_98 + y_99 - z_4758 >= 0
 c4760: y_8 + y_15 + y_20 + y_34 + y_46 + y_61 + y_75 + y_79 + y_80 + y_93
        + y_95 - z_4759 >= 0
 c4761: y_13 + y_28 + y_60 + y_76 + y_78 + y_81 - z_4760 >= 0
 c4762: y_31 + y_37 + y_89 + y_99 - z_4761 >= 0
 c4763: y_12 + y_22 + y_57 + y_65 + y_72 + y_88 - z_4762 >= 0
 c4764: y_29 - z_4763 >= 0
 c4765: y_16 + y_39 + y_50 + y_54 + y_56 + y_66 + y_87 - z_4764 >= 0
 c4766: y_10 + y_13 + y_57 + y_60 + y_72 + y_76 + y_78 + y_81 - z_4765 >= 0
 c4767: y_16 + y_17 + y_39 + y_53 + y_54 + y_58 + y_63 + y_91 - z_4766 >= 0
 c4768: y_7 + y_31 + y_51 + y_62 + y_89 + y_99 - z_4767 >= 0
 c4769: y_19 + y_21 + y_30 + y_36 + y_43 + y_47 + y_48 + y_59 + y_94 - z_4768
         >= 0
 c4770: y_5 + y_8 + y_20 + y_34 + y_61 + y_75 + y_80 + y_93 - z_4769 >= 0
 c4771: y_4 + y_9 + y_26 + y_32 + y_67 + y_69 - z_4770 >= 0
 c4772: y_2 + y_40 + y_83 + y_85 - z_4771 >= 0
 c4773: y_0 + y_17 + y_64 + y_96 - z_4772 >= 0
 c4774: y_45 + y_96 - z_4773 >= 0
 c4775: y_6 + y_22 + y_90 - z_4774 >= 0
 c4776: y_4 + y_6 + y_32 + y_90 - z_4775 >= 0
 c4777: y_16 + y_39 + y_50 + y_54 + y_56 + y_58 + y_66 - z_4776 >= 0
 c4778: y_3 + y_11 + y_19 + y_26 + y_33 + y_38 + y_43 + y_44 + y_67 + y_69
        - z_4777 >= 0
 c4779: y_8 + y_17 + y_34 + y_96 - z_4778 >= 0
 c4780: y_2 + y_40 + y_55 + y_83 + y_85 + y_92 - z_4779 >= 0
 c4781: y_1 + y_7 + y_23 + y_31 + y_37 + y_51 + y_73 + y_89 + y_98 + y_99
        - z_4780 >= 0
 c4782: y_6 + y_90 - z_4781 >= 0
 c4783: y_12 + y_22 + y_57 + y_88 - z_4782 >= 0
 c4784: y_4 + y_6 + y_32 + y_90 - z_4783 >= 0
 c4785: y_21 + y_30 + y_43 + y_59 + y_94 - z_4784 >= 0
 c4786: y_4 + y_12 + y_32 + y_88 - z_4785 >= 0
 c4787: y_25 + y_29 + y_35 + y_77 - z_4786 >= 0
 c4788: y_16 + y_39 + y_53 + y_54 + y_58 + y_63 + y_64 + y_66 + y_87 - z_4787
         >= 0
 c4789: y_17 + y_53 + y_58 + y_91 - z_4788 >= 0
 c4790: y_7 + y_23 + y_31 + y_51 + y_62 + y_89 + y_98 + y_99 - z_4789 >= 0
 c4791: y_2 + y_14 + y_27 + y_42 + y_55 + y_82 + y_83 - z_4790 >= 0
 c4792: y_6 + y_22 + y_90 - z_4791 >= 0
 c4793: y_5 + y_8 + y_20 + y_34 + y_61 + y_75 + y_80 + y_93 - z_4792 >= 0
 c4794: y_13 + y_57 + y_60 + y_65 + y_72 + y_76 + y_78 + y_81 - z_4793 >= 0
 c4795: y_30 + y_43 + y_52 + y_59 + y_94 - z_4794 >= 0
 c4796: y_29 + y_56 + y_65 - z_4795 >= 0
 c4797: y_1 + y_37 + y_73 + y_89 + y_96 + y_99 - z_4796 >= 0
 c4798: y_25 + y_35 + y_77 + y_92 - z_4797 >= 0
 c4799: y_11 + y_24 + y_30 + y_43 + y_52 + y_59 + y_70 + y_86 - z_4798 >= 0
 c4800: y_16 + y_17 + y_39 + y_53 + y_58 + y_63 + y_91 - z_4799 >= 0
 c4801: y_1 + y_31 + y_37 + y_73 + y_89 + y_99 - z_4800 >= 0
 c4802: y_0 + y_27 + y_42 - z_4801 >= 0
 c4803: y_0 + y_96 - z_4802 >= 0
 c4804: y_0 + y_16 + y_39 + y_42 + y_53 + y_54 + y_55 + y_63 + y_64 - z_4803
         >= 0
 c4805: y_9 + y_71 - z_4804 >= 0
 c4806: y_30 + y_43 + y_52 + y_59 + y_94 - z_4805 >= 0
 c4807: y_37 + y_45 + y_73 + y_96 - z_4806 >= 0
 c4808: y_6 + y_22 - z_4807 >= 0
 c4809: y_4 + y_6 + y_32 + y_90 - z_4808 >= 0
 c4810: y_5 + y_17 + y_34 + y_91 - z_4809 >= 0
 c4811: y_15 + y_18 + y_21 + y_36 + y_41 + y_47 + y_48 + y_79 + y_95 - z_4810
         >= 0
 c4812: y_16 + y_39 + y_40 + y_42 + y_54 + y_55 + y_63 + y_64 - z_4811 >= 0
 c4813: y_16 + y_39 + y_53 + y_54 + y_55 + y_58 + y_63 + y_64 + y_66 + y_91
        - z_4812 >= 0
 c4814: y_3 + y_19 + y_33 + y_38 + y_43 + y_44 + y_48 + y_67 + y_69 - z_4813
         >= 0
 c4815: y_3 + y_19 + y_21 + y_30 + y_33 + y_38 + y_43 + y_48 + y_52 + y_59
        - z_4814 >= 0
 c4816: y_13 + y_57 + y_60 + y_65 + y_72 + y_76 + y_78 - z_4815 >= 0
 c4817: y_25 + y_35 + y_40 + y_77 + y_87 + y_92 - z_4816 >= 0
 c4818: y_16 + y_17 + y_39 + y_53 + y_58 + y_63 + y_91 - z_4817 >= 0
 c4819: y_16 + y_39 + y_40 + y_54 + y_63 + y_66 + y_87 - z_4818 >= 0
 c4820: y_73 + y_96 - z_4819 >= 0
 c4821: y_83 + y_84 + y_85 - z_4820 >= 0
 c4822: y_5 + y_8 + y_15 + y_20 + y_34 + y_61 + y_75 + y_79 + y_80 + y_93
        - z_4821 >= 0
 c4823: y_1 + y_46 + y_49 + y_74 + y_75 + y_95 - z_4822 >= 0
 c4824: y_24 + y_30 + y_52 + y_59 + y_70 + y_86 - z_4823 >= 0
 c4825: y_3 + y_5 + y_19 + y_33 + y_34 + y_38 + y_44 + y_48 + y_61 + y_90
        - z_4824 >= 0
 c4826: y_15 + y_20 + y_41 + y_46 + y_49 + y_61 + y_74 + y_75 + y_79 + y_80
        + y_93 + y_95 - z_4825 >= 0
 c4827: y_16 + y_39 + y_50 + y_54 + y_58 + y_63 + y_66 + y_87 - z_4826 >= 0
 c4828: y_10 + y_13 + y_57 + y_60 + y_72 + y_76 + y_78 + y_81 - z_4827 >= 0
 c4829: y_16 + y_17 + y_39 + y_53 + y_54 + y_58 + y_63 + y_64 + y_91 - z_4828
         >= 0
 c4830: y_24 + y_70 + y_86 - z_4829 >= 0
 c4831: y_57 + y_65 + y_72 - z_4830 >= 0
 c4832: y_11 + y_24 + y_52 + y_59 + y_68 + y_70 + y_86 + y_97 - z_4831 >= 0
 c4833: y_4 + y_6 + y_26 + y_32 + y_38 + y_44 + y_90 - z_4832 >= 0
 c4834: y_21 + y_30 + y_43 + y_52 + y_59 + y_94 - z_4833 >= 0
 c4835: y_83 + y_84 + y_85 - z_4834 >= 0
 c4836: y_8 + y_15 + y_20 + y_34 + y_41 + y_46 + y_48 + y_61 + y_75 + y_79
        + y_80 + y_93 + y_95 - z_4835 >= 0
 c4837: y_13 + y_28 + y_60 + y_76 + y_78 + y_81 - z_4836 >= 0
 c4838: y_5 + y_8 + y_15 + y_20 + y_34 + y_61 + y_75 + y_79 + y_80 + y_93
        - z_4837 >= 0
 c4839: y_37 + y_45 - z_4838 >= 0
 c4840: y_0 + y_16 + y_39 + y_42 + y_53 + y_54 + y_55 + y_63 + y_64 - z_4839
         >= 0
 c4841: y_22 + y_56 + y_57 + y_65 - z_4840 >= 0
 c4842: y_11 + y_24 + y_30 + y_43 + y_52 + y_59 + y_68 + y_70 - z_4841 >= 0
 c4843: y_16 + y_39 + y_50 + y_53 + y_54 + y_58 + y_63 + y_66 + y_87 - z_4842
         >= 0
 c4844: y_10 + y_13 + y_57 + y_60 + y_72 + y_76 + y_78 + y_81 - z_4843 >= 0
 c4845: y_40 + y_87 + y_92 - z_4844 >= 0
 c4846: y_11 + y_24 + y_30 + y_43 + y_52 + y_59 + y_70 - z_4845 >= 0
 c4847: y_50 + y_56 + y_65 - z_4846 >= 0
 c4848: y_73 + y_96 - z_4847 >= 0
 c4849: y_83 + y_85 - z_4848 >= 0
 c4850: y_5 + y_8 + y_15 + y_20 + y_34 + y_61 + y_75 + y_79 + y_80 + y_93 + y_95
        - z_4849 >= 0
 c4851: y_13 + y_28 + y_60 + y_76 + y_78 + y_81 - z_4850 >= 0
 c4852: y_25 + y_29 + y_35 + y_50 + y_54 + y_56 + y_66 + y_77 + y_87 - z_4851
         >= 0
 c4853: y_13 + y_28 + y_60 + y_76 - z_4852 >= 0
 c4854: y_2 + y_14 + y_82 + y_83 + y_84 + y_85 - z_4853 >= 0
 c4855: y_8 + y_17 + y_96 - z_4854 >= 0
 c4856: y_25 + y_29 + y_35 + y_77 - z_4855 >= 0
 c4857: y_37 + y_45 - z_4856 >= 0
 c4858: y_45 - z_4857 >= 0
 c4859: y_2 + y_83 + y_84 + y_85 - z_4858 >= 0
 c4860: y_8 + y_73 + y_96 - z_4859 >= 0
 c4861: y_11 + y_30 + y_43 + y_52 + y_59 + y_68 + y_94 - z_4860 >= 0
 c4862: y_5 + y_17 + y_34 + y_53 + y_58 + y_91 - z_4861 >= 0
 c4863: y_12 + y_57 + y_88 - z_4862 >= 0
 c4864: y_24 + y_30 + y_43 + y_52 + y_59 + y_70 + y_94 - z_4863 >= 0
 c4865: y_3 + y_5 + y_15 + y_20 + y_33 + y_34 + y_41 + y_44 + y_48 + y_61 + y_79
        + y_80 + y_93 - z_4864 >= 0
 c4866: y_17 + y_53 + y_91 + y_96 - z_4865 >= 0
 c4867: y_2 + y_27 + y_42 + y_55 + y_83 - z_4866 >= 0
 c4868: y_92 - z_4867 >= 0
 c4869: y_4 + y_9 + y_26 + y_32 + y_38 + y_44 + y_90 - z_4868 >= 0
 c4870: y_24 + y_30 + y_43 + y_52 + y_59 + y_70 + y_86 - z_4869 >= 0
 c4871: y_4 + y_6 + y_9 + y_26 + y_32 + y_90 - z_4870 >= 0
 c4872: y_10 + y_13 + y_60 + y_76 + y_78 + y_81 - z_4871 >= 0
 c4873: y_30 + y_43 + y_52 + y_59 + y_94 - z_4872 >= 0
 c4874: y_40 + y_54 + y_66 + y_87 + y_92 - z_4873 >= 0
 c4875: y_71 - z_4874 >= 0
 c4876: y_2 + y_40 + y_42 + y_55 - z_4875 >= 0
 c4877: y_22 + y_57 + y_65 - z_4876 >= 0
 c4878: y_0 + y_27 + y_42 + y_53 + y_55 + y_63 + y_64 - z_4877 >= 0
 c4879: y_23 + y_46 + y_49 + y_74 + y_98 - z_4878 >= 0
 c4880: y_56 + y_65 - z_4879 >= 0
 c4881: y_92 - z_4880 >= 0
 c4882: y_17 + y_96 - z_4881 >= 0
 c4883: y_4 + y_12 + y_22 + y_32 + y_88 - z_4882 >= 0
 c4884: y_17 + y_53 + y_58 + y_91 - z_4883 >= 0
 c4885: y_11 + y_67 + y_68 + y_69 + y_97 - z_4884 >= 0
 c4886: y_16 + y_50 + y_54 + y_56 + y_58 + y_66 - z_4885 >= 0
 c4887: y_4 + y_6 + y_22 + y_32 + y_90 - z_4886 >= 0
 c4888: y_5 + y_6 + y_34 + y_58 + y_90 + y_91 - z_4887 >= 0
 c4889: y_25 + y_29 + y_50 + y_56 + y_77 - z_4888 >= 0
 c4890: y_17 + y_39 + y_53 + y_58 + y_63 + y_64 + y_91 - z_4889 >= 0
 c4891: y_17 + y_39 + y_53 + y_58 + y_91 - z_4890 >= 0
 c4892: y_1 + y_46 + y_49 + y_74 + y_75 + y_80 + y_95 - z_4891 >= 0
 c4893: y_0 + y_27 + y_42 + y_55 + y_63 + y_64 - z_4892 >= 0
 c4894: y_4 + y_6 + y_32 + y_90 - z_4893 >= 0
 c4895: y_5 + y_6 + y_34 + y_44 + y_90 - z_4894 >= 0
 c4896: y_40 + y_87 + y_92 - z_4895 >= 0
 c4897: y_16 + y_17 + y_39 + y_53 + y_54 + y_58 + y_63 + y_64 + y_91 - z_4896
         >= 0
 c4898: y_1 + y_23 + y_46 + y_49 + y_74 + y_75 + y_95 + y_98 - z_4897 >= 0
 c4899: y_0 + y_2 + y_27 + y_42 + y_55 + y_64 - z_4898 >= 0
 c4900: y_3 + y_21 + y_33 + y_36 + y_41 + y_47 + y_48 + y_79 + y_94 - z_4899
         >= 0
 c4901: y_11 + y_24 + y_52 + y_59 + y_68 + y_70 + y_86 + y_97 - z_4900 >= 0
 c4902: y_12 + y_22 + y_57 + y_72 + y_88 - z_4901 >= 0
 c4903: y_3 + y_4 + y_5 + y_19 + y_33 + y_38 + y_44 + y_90 - z_4902 >= 0
 c4904: y_1 + y_31 + y_37 + y_73 + y_89 + y_99 - z_4903 >= 0
 c4905: y_45 + y_96 - z_4904 >= 0
 c4906: y_12 + y_22 + y_57 + y_88 - z_4905 >= 0
 c4907: y_11 + y_24 + y_52 + y_59 + y_68 + y_70 + y_86 + y_97 - z_4906 >= 0
 c4908: y_3 + y_11 + y_19 + y_30 + y_38 + y_43 + y_52 + y_59 + y_68 + y_69
        - z_4907 >= 0
 c4909: y_4 + y_6 + y_32 + y_90 - z_4908 >= 0
 c4910: y_3 + y_5 + y_19 + y_33 + y_38 + y_44 + y_48 + y_61 + y_79 - z_4909 >= 
        0
 c4911: y_13 + y_28 + y_60 + y_76 + y_81 - z_4910 >= 0
 c4912: y_1 + y_31 + y_37 + y_73 + y_89 + y_99 - z_4911 >= 0
 c4913: y_5 + y_6 + y_34 + y_90 - z_4912 >= 0
 c4914: y_16 + y_39 + y_54 + y_58 + y_63 + y_66 + y_87 - z_4913 >= 0
 c4915: y_7 + y_23 + y_31 + y_51 + y_62 + y_98 - z_4914 >= 0
 c4916: y_11 + y_24 + y_30 + y_43 + y_52 + y_59 + y_70 + y_94 - z_4915 >= 0
 c4917: y_0 + y_27 + y_42 + y_55 + y_64 - z_4916 >= 0
 c4918: y_57 + y_65 + y_72 - z_4917 >= 0
 c4919: y_10 + y_13 + y_60 + y_72 + y_76 + y_78 + y_81 - z_4918 >= 0
 c4920: y_7 + y_31 + y_51 + y_62 + y_89 + y_98 + y_99 - z_4919 >= 0
 c4921: y_40 + y_55 + y_92 - z_4920 >= 0
 c4922: y_3 + y_11 + y_19 + y_26 + y_33 + y_38 + y_43 + y_44 + y_67 + y_68
        + y_69 - z_4921 >= 0
 c4923: y_9 + y_12 + y_71 - z_4922 >= 0
 c4924: y_16 + y_39 + y_53 + y_54 + y_58 + y_63 + y_64 + y_66 + y_91 - z_4923
         >= 0
 c4925: y_28 - z_4924 >= 0
 c4926: y_13 + y_28 + y_60 + y_76 + y_78 + y_81 - z_4925 >= 0
 c4927: y_24 + y_52 + y_59 + y_70 + y_86 - z_4926 >= 0
 c4928: y_45 + y_96 - z_4927 >= 0
 c4929: y_17 + y_53 + y_58 + y_91 - z_4928 >= 0
 c4930: y_0 + y_27 + y_42 + y_55 + y_64 - z_4929 >= 0
 c4931: y_25 + y_29 + y_35 + y_77 - z_4930 >= 0
 c4932: y_22 + y_50 + y_56 + y_65 - z_4931 >= 0
 c4933: y_3 + y_5 + y_33 + y_34 + y_38 + y_44 + y_90 - z_4932 >= 0
 c4934: y_6 + y_58 + y_91 - z_4933 >= 0
 c4935: y_0 + y_27 + y_42 + y_55 + y_64 - z_4934 >= 0
 c4936: y_4 + y_6 + y_32 + y_44 + y_90 - z_4935 >= 0
 c4937: y_5 + y_17 + y_34 + y_91 - z_4936 >= 0
 c4938: y_3 + y_4 + y_5 + y_6 + y_19 + y_32 + y_33 + y_38 + y_44 + y_90 - z_4937
         >= 0
 c4939: y_24 + y_52 + y_59 + y_70 + y_86 - z_4938 >= 0
 c4940: y_13 + y_28 + y_60 + y_76 + y_78 + y_81 - z_4939 >= 0
 c4941: y_2 + y_14 + y_82 + y_83 + y_84 + y_85 - z_4940 >= 0
 c4942: y_13 + y_28 + y_60 + y_76 - z_4941 >= 0
 c4943: y_13 + y_28 + y_60 + y_76 + y_81 - z_4942 >= 0
 c4944: y_5 + y_8 + y_17 + y_34 + y_80 - z_4943 >= 0
 c4945: y_53 + y_58 + y_91 - z_4944 >= 0
 c4946: y_24 + y_52 + y_59 + y_70 + y_86 - z_4945 >= 0
 c4947: y_6 + y_58 + y_91 - z_4946 >= 0
 c4948: y_3 + y_11 + y_19 + y_30 + y_38 + y_43 + y_52 + y_59 + y_67 + y_68
        + y_69 - z_4947 >= 0
 c4949: y_9 + y_11 + y_26 + y_67 + y_68 + y_69 + y_97 - z_4948 >= 0
 c4950: y_19 + y_21 + y_30 + y_43 + y_48 + y_52 + y_59 + y_94 - z_4949 >= 0
 c4951: y_9 + y_26 + y_67 + y_71 - z_4950 >= 0
 c4952: y_5 + y_15 + y_20 + y_33 + y_34 + y_44 + y_48 + y_61 + y_79 + y_80
        + y_93 - z_4951 >= 0
 c4953: y_11 + y_19 + y_38 + y_43 + y_52 + y_59 + y_67 + y_68 + y_69 - z_4952
         >= 0
 c4954: y_22 + y_50 + y_56 + y_65 - z_4953 >= 0
 c4955: y_0 + y_27 + y_42 + y_55 + y_63 + y_64 - z_4954 >= 0
 c4956: y_3 + y_19 + y_21 + y_33 + y_38 + y_41 + y_44 + y_48 + y_79 - z_4955
         >= 0
 c4957: y_5 + y_6 + y_34 + y_90 + y_91 - z_4956 >= 0
 c4958: y_45 + y_96 - z_4957 >= 0
 c4959: y_16 + y_17 + y_39 + y_53 + y_58 + y_63 + y_91 - z_4958 >= 0
 c4960: y_13 + y_60 + y_72 + y_76 + y_81 - z_4959 >= 0
 c4961: y_2 + y_14 + y_27 + y_42 + y_55 + y_82 + y_83 - z_4960 >= 0
 c4962: y_10 + y_12 + y_57 + y_72 + y_78 + y_88 - z_4961 >= 0
 c4963: y_16 + y_39 + y_40 + y_54 + y_55 + y_63 + y_64 + y_66 + y_87 - z_4962
         >= 0
 c4964: y_9 + y_11 + y_26 + y_38 + y_67 + y_68 + y_69 + y_97 - z_4963 >= 0
 c4965: y_27 - z_4964 >= 0
 c4966: y_25 + y_35 + y_40 + y_77 + y_87 + y_92 - z_4965 >= 0
 c4967: y_13 + y_28 + y_60 + y_76 + y_78 + y_81 - z_4966 >= 0
 c4968: y_2 + y_40 + y_42 + y_55 + y_83 - z_4967 >= 0
 c4969: y_2 + y_14 + y_82 + y_83 + y_84 + y_85 - z_4968 >= 0
 c4970: y_5 + y_8 + y_15 + y_20 + y_33 + y_34 + y_48 + y_61 + y_79 + y_80 + y_93
        - z_4969 >= 0
 c4971: y_15 + y_18 + y_20 + y_21 + y_36 + y_41 + y_46 + y_47 + y_48 + y_61
        + y_79 + y_80 + y_93 + y_95 - z_4970 >= 0
 c4972: y_25 + y_29 + y_35 + y_77 - z_4971 >= 0
 c4973: y_22 + y_56 - z_4972 >= 0
 c4974: y_18 + y_36 + y_49 + y_74 + y_95 - z_4973 >= 0
 c4975: y_1 + y_73 + y_75 + y_96 + y_99 - z_4974 >= 0
 c4976: y_9 + y_26 + y_67 + y_69 + y_71 + y_97 - z_4975 >= 0
 c4977: y_2 + y_14 + y_82 + y_83 + y_84 + y_85 - z_4976 >= 0
 c4978: y_37 + y_45 - z_4977 >= 0
 c4979: y_25 + y_29 + y_35 + y_50 + y_56 + y_77 - z_4978 >= 0
 c4980: y_6 + y_22 + y_90 - z_4979 >= 0
 c4981: y_18 + y_36 + y_41 + y_47 + y_74 + y_95 - z_4980 >= 0
 c4982: y_5 + y_17 + y_34 + y_91 - z_4981 >= 0
 c4983: y_10 + y_12 + y_57 + y_72 + y_78 + y_88 - z_4982 >= 0
 c4984: y_85 - z_4983 >= 0
 c4985: y_50 + y_56 + y_66 - z_4984 >= 0
 c4986: y_23 + y_49 + y_74 + y_98 - z_4985 >= 0
 c4987: y_10 + y_13 + y_57 + y_60 + y_72 + y_76 + y_78 + y_81 - z_4986 >= 0
 c4988: y_45 - z_4987 >= 0
 c4989: y_5 + y_17 + y_34 + y_91 - z_4988 >= 0
 c4990: y_16 + y_39 + y_53 + y_54 + y_58 + y_66 + y_91 - z_4989 >= 0
 c4991: y_4 + y_6 + y_26 + y_32 + y_38 + y_44 + y_90 - z_4990 >= 0
 c4992: y_2 + y_14 + y_27 + y_82 - z_4991 >= 0
 c4993: y_1 + y_23 + y_46 + y_49 + y_74 + y_98 - z_4992 >= 0
 c4994: y_2 + y_14 + y_82 + y_83 + y_85 - z_4993 >= 0
 c4995: y_10 + y_78 + y_81 - z_4994 >= 0
 c4996: y_17 + y_53 + y_91 - z_4995 >= 0
 c4997: y_13 + y_65 + y_72 - z_4996 >= 0
 c4998: y_12 + y_57 + y_72 + y_88 - z_4997 >= 0
 c4999: y_15 + y_18 + y_21 + y_36 + y_41 + y_47 + y_48 + y_79 + y_95 - z_4998
         >= 0
 c5000: y_21 + y_30 + y_36 + y_41 + y_43 + y_47 + y_48 + y_94 - z_4999 >= 0
 c5001: 26 z_0 + 9 z_1 + 41 z_2 + 100 z_3 + 36 z_4 + 54 z_5 + 45 z_6 + 58 z_7
        + 59 z_8 + 31 z_9 + 4 z_10 + 100 z_11 + 17 z_12 + 24 z_13 + 74 z_14
        + 30 z_15 + 86 z_16 + 81 z_17 + 85 z_18 + 90 z_19 + 80 z_20 + 83 z_21
        + 29 z_22 + 27 z_23 + 10 z_24 + 53 z_25 + 81 z_26 + 68 z_27 + 66 z_28
        + 90 z_29 + 81 z_30 + 91 z_31 + 51 z_32 + 74 z_33 + 90 z_34 + 38 z_35
        + 79 z_36 + 86 z_37 + 95 z_38 + 37 z_39 + 17 z_40 + 50 z_41 + 89 z_42
        + 33 z_43 + 25 z_44 + 14 z_45 + 62 z_46 + 10 z_47 + 47 z_48 + 98 z_49
        + 100 z_50 + 26 z_51 + 33 z_52 + 80 z_53 + 4 z_54 + 42 z_55 + 33 z_56
        + 85 z_57 + 9 z_58 + 98 z_59 + 26 z_60 + 41 z_61 + 40 z_62 + 76 z_63
        + 66 z_64 + 81 z_65 + 13 z_66 + 45 z_67 + 66 z_68 + 59 z_69 + 33 z_70
        + 82 z_71 + 8 z_72 + 73 z_73 + 66 z_74 + 32 z_75 + 87 z_76 + 80 z_77
        + 94 z_78 + 33 z_79 + 77 z_80 + 93 z_81 + 10 z_82 + 9 z_83 + 72 z_84
        + 65 z_85 + 2 z_86 + 56 z_87 + z_88 + 10 z_89 + 5 z_90 + 27 z_91
        + 3 z_92 + 44 z_93 + 54 z_94 + 68 z_95 + 24 z_96 + 19 z_97 + 64 z_98
        + 42 z_99 + 77 z_100 + 97 z_101 + 23 z_102 + 85 z_103 + 21 z_104
        + 41 z_105 + 68 z_106 + 7 z_107 + 20 z_108 + 61 z_109 + 91 z_110
        + 48 z_111 + 5 z_112 + 52 z_113 + 9 z_114 + 29 z_115 + 17 z_116
        + 10 z_117 + 84 z_118 + 17 z_119 + 72 z_120 + 89 z_121 + 95 z_122
        + 74 z_123 + 84 z_124 + 49 z_125 + 93 z_126 + 60 z_127 + 67 z_128
        + 57 z_129 + z_130 + 43 z_131 + 5 z_132 + 75 z_133 + 79 z_134 + 25 z_135
        + 15 z_136 + 99 z_137 + 84 z_138 + 34 z_139 + 59 z_140 + 26 z_141
        + 34 z_142 + 64 z_143 + 78 z_144 + 42 z_145 + 44 z_146 + 46 z_147
        + 51 z_148 + 27 z_149 + 14 z_150 + 22 z_151 + 67 z_152 + 9 z_153
        + 47 z_154 + 3 z_155 + 9 z_156 + 92 z_157 + 62 z_158 + 75 z_159
        + 48 z_160 + 62 z_161 + 69 z_162 + 4 z_163 + 36 z_164 + 100 z_165
        + 28 z_166 + 51 z_167 + 98 z_168 + 11 z_169 + 36 z_170 + 8 z_171
        + 89 z_172 + 69 z_173 + 23 z_174 + 66 z_175 + 62 z_176 + 66 z_177
        + 63 z_178 + 13 z_179 + 45 z_180 + 76 z_181 + 86 z_182 + 63 z_183
        + 36 z_184 + 85 z_185 + 65 z_186 + 44 z_187 + 76 z_188 + 26 z_189
        + 70 z_190 + 75 z_191 + 87 z_192 + 91 z_193 + 78 z_194 + 75 z_195
        + 90 z_196 + 5 z_197 + 77 z_198 + 39 z_199 + 68 z_200 + 64 z_201
        + 46 z_202 + 56 z_203 + 85 z_204 + 21 z_205 + 73 z_206 + 46 z_207
        + 86 z_208 + 87 z_209 + 58 z_210 + 82 z_211 + 14 z_212 + 96 z_213
        + 45 z_214 + 50 z_215 + 80 z_216 + 9 z_217 + 45 z_218 + 55 z_219
        + 87 z_220 + 67 z_221 + 81 z_222 + 25 z_223 + 57 z_224 + 58 z_225
        + 99 z_226 + 46 z_227 + 14 z_228 + 27 z_229 + 36 z_230 + 33 z_231
        + 91 z_232 + 81 z_233 + 40 z_234 + 75 z_235 + 53 z_236 + 64 z_237
        + 20 z_238 + 39 z_239 + 50 z_240 + 30 z_241 + 72 z_242 + 64 z_243
        + 77 z_244 + 16 z_245 + 65 z_246 + 56 z_247 + 77 z_248 + 61 z_249
        + 62 z_250 + 63 z_251 + 27 z_252 + 42 z_253 + 39 z_254 + 83 z_255
        + 51 z_256 + 90 z_257 + 80 z_258 + 64 z_259 + 16 z_260 + 15 z_261
        + 97 z_262 + 58 z_263 + 48 z_264 + 36 z_265 + 32 z_266 + 100 z_267
        + 100 z_268 + 4 z_269 + 90 z_270 + z_271 + 85 z_272 + 62 z_273
        + 16 z_274 + 13 z_275 + 29 z_276 + 32 z_277 + 68 z_278 + 57 z_279
        + 93 z_280 + 81 z_281 + 71 z_282 + 19 z_283 + 74 z_284 + 10 z_285
        + 54 z_286 + 24 z_287 + 99 z_288 + 85 z_289 + 87 z_290 + 14 z_291
        + 100 z_292 + 35 z_293 + 24 z_294 + 99 z_295 + 23 z_296 + 7 z_297
        + 50 z_298 + 74 z_299 + 10 z_300 + 92 z_301 + 74 z_302 + 46 z_303
        + 5 z_304 + 42 z_305 + 58 z_306 + 33 z_307 + 73 z_308 + 77 z_309
        + 42 z_310 + 65 z_311 + 9 z_312 + 12 z_313 + 36 z_314 + 82 z_315
        + 21 z_316 + 41 z_317 + 5 z_318 + 19 z_319 + 25 z_320 + 44 z_321
        + 85 z_322 + 76 z_323 + 30 z_324 + 8 z_325 + 74 z_326 + 52 z_327
        + 14 z_328 + 76 z_329 + 77 z_330 + 76 z_331 + 67 z_332 + 3 z_333
        + 73 z_334 + 23 z_335 + 44 z_336 + 83 z_337 + 7 z_338 + 16 z_339
        + 11 z_340 + 48 z_341 + 33 z_342 + 20 z_343 + 60 z_344 + 20 z_345
        + 53 z_346 + 80 z_347 + 60 z_348 + 10 z_349 + 51 z_350 + 84 z_351
        + 5 z_352 + 35 z_353 + 60 z_354 + 34 z_355 + 94 z_356 + 85 z_357
        + 38 z_358 + 59 z_359 + 12 z_360 + 14 z_361 + 86 z_362 + 30 z_363
        + 16 z_364 + 59 z_365 + 52 z_366 + 59 z_367 + 93 z_368 + 59 z_369
        + 27 z_370 + 3 z_371 + 6 z_372 + 59 z_373 + 74 z_374 + 65 z_375
        + 78 z_376 + 27 z_377 + 97 z_378 + 89 z_379 + 36 z_380 + 47 z_381
        + 72 z_382 + 92 z_383 + 33 z_384 + 83 z_385 + 25 z_386 + 26 z_387
        + 20 z_388 + 62 z_389 + 36 z_390 + 31 z_391 + 28 z_392 + 22 z_393
        + 13 z_394 + 43 z_395 + 32 z_396 + 64 z_397 + 54 z_398 + 24 z_399
        + 22 z_400 + 80 z_401 + 78 z_402 + 80 z_403 + 90 z_404 + 52 z_405
        + 44 z_406 + 19 z_407 + 30 z_408 + 40 z_409 + 7 z_410 + 17 z_411
        + 38 z_412 + 30 z_413 + 8 z_414 + 70 z_415 + 13 z_416 + 84 z_417
        + 47 z_418 + 84 z_419 + 98 z_420 + 83 z_421 + 66 z_422 + 25 z_423
        + 56 z_424 + 78 z_425 + 19 z_426 + 39 z_427 + 42 z_428 + 72 z_429
        + 62 z_430 + 15 z_431 + 3 z_432 + 91 z_433 + 94 z_434 + 44 z_435
        + 94 z_436 + 90 z_437 + 62 z_438 + 23 z_439 + 81 z_440 + 68 z_441
        + 91 z_442 + 19 z_443 + 98 z_444 + 98 z_445 + 40 z_446 + 62 z_447
        + 34 z_448 + 87 z_449 + 45 z_450 + 31 z_451 + 21 z_452 + 62 z_453
        + 55 z_454 + 28 z_455 + 40 z_456 + 73 z_457 + 66 z_458 + 33 z_459
        + 97 z_460 + 79 z_461 + 47 z_462 + 51 z_463 + 21 z_464 + 41 z_465
        + 95 z_466 + 15 z_467 + 82 z_468 + 8 z_469 + 89 z_470 + 62 z_471
        + 76 z_472 + 80 z_473 + 32 z_474 + 25 z_475 + 29 z_476 + 72 z_477
        + 38 z_478 + 62 z_479 + 10 z_480 + 82 z_481 + 44 z_482 + 82 z_483
        + 43 z_484 + 98 z_485 + 9 z_486 + 34 z_487 + 23 z_488 + 26 z_489
        + 66 z_490 + 19 z_491 + 4 z_492 + 13 z_493 + 21 z_494 + 76 z_495
        + 5 z_496 + 15 z_497 + 90 z_498 + 38 z_499 + 23 z_500 + 31 z_501
        + 99 z_502 + 50 z_503 + 10 z_504 + 31 z_505 + 26 z_506 + 90 z_507
        + 2 z_508 + 63 z_509 + 4 z_510 + 63 z_511 + 96 z_512 + 47 z_513
        + 44 z_514 + 90 z_515 + 97 z_516 + 52 z_517 + 24 z_518 + 19 z_519
        + 77 z_520 + 41 z_521 + 89 z_522 + 32 z_523 + 5 z_524 + 61 z_525
        + 7 z_526 + 61 z_527 + 28 z_528 + 49 z_529 + 98 z_530 + 2 z_531
        + 79 z_532 + 97 z_533 + 51 z_534 + 40 z_535 + 79 z_536 + 28 z_537
        + 81 z_538 + 32 z_539 + 90 z_540 + 84 z_541 + 94 z_542 + 37 z_543
        + 83 z_544 + 37 z_545 + 26 z_546 + 31 z_547 + 88 z_548 + z_549
        + 49 z_550 + 16 z_551 + 42 z_552 + 89 z_553 + 99 z_554 + 98 z_555
        + 49 z_556 + 57 z_557 + 59 z_558 + 76 z_559 + 57 z_560 + 56 z_561
        + 29 z_562 + 35 z_563 + 4 z_564 + 79 z_565 + 26 z_566 + 82 z_567
        + 58 z_568 + 7 z_569 + 13 z_570 + 99 z_571 + 42 z_572 + 6 z_573
        + 35 z_574 + 24 z_575 + 42 z_576 + 13 z_577 + 54 z_578 + 81 z_579
        + 65 z_580 + 54 z_581 + 48 z_582 + 58 z_583 + 94 z_584 + 98 z_585
        + 56 z_586 + 95 z_587 + 7 z_588 + 14 z_589 + 22 z_590 + 63 z_591
        + 21 z_592 + 51 z_593 + 50 z_594 + 25 z_595 + 81 z_596 + 75 z_597
        + 6 z_598 + 39 z_599 + 81 z_600 + 19 z_601 + 37 z_602 + 23 z_603
        + 76 z_604 + 24 z_605 + 98 z_606 + 18 z_607 + 36 z_608 + 4 z_609
        + 50 z_610 + 100 z_611 + 9 z_612 + 50 z_613 + 58 z_614 + 3 z_615
        + 47 z_616 + 13 z_617 + 97 z_618 + 53 z_619 + 78 z_620 + 70 z_621
        + 16 z_622 + 98 z_623 + 20 z_624 + 65 z_625 + 22 z_626 + z_627
        + 91 z_628 + 80 z_629 + 39 z_630 + 72 z_631 + 98 z_632 + 27 z_633
        + 46 z_634 + 25 z_635 + 50 z_636 + 43 z_637 + 94 z_638 + 85 z_639
        + 98 z_640 + 44 z_641 + 37 z_642 + 7 z_643 + 93 z_644 + 94 z_645
        + 9 z_646 + 91 z_647 + 58 z_648 + 57 z_649 + 44 z_650 + 35 z_651
        + 26 z_652 + 11 z_653 + 32 z_654 + 98 z_655 + 27 z_656 + 6 z_657
        + 98 z_658 + 17 z_659 + 85 z_660 + 88 z_661 + 40 z_662 + 34 z_663
        + 66 z_664 + 85 z_665 + 58 z_666 + 68 z_667 + 80 z_668 + 52 z_669
        + 52 z_670 + 77 z_671 + 47 z_672 + 40 z_673 + 35 z_674 + 39 z_675
        + 85 z_676 + 95 z_677 + 29 z_678 + 42 z_679 + 3 z_680 + 24 z_681
        + 28 z_682 + 81 z_683 + 34 z_684 + 60 z_685 + 78 z_686 + 12 z_687
        + 17 z_688 + 27 z_689 + 29 z_690 + z_691 + 66 z_692 + 20 z_693
        + 86 z_694 + 31 z_695 + 5 z_696 + 43 z_697 + 98 z_698 + 36 z_699
        + 46 z_700 + 2 z_701 + 64 z_702 + 92 z_703 + 93 z_704 + 51 z_705
        + 82 z_706 + 78 z_707 + 45 z_708 + 63 z_709 + 19 z_710 + 48 z_711
        + 86 z_712 + 47 z_713 + 28 z_714 + 72 z_715 + 58 z_716 + 5 z_717
        + 35 z_718 + 26 z_719 + 83 z_720 + 15 z_721 + 78 z_722 + 48 z_723
        + 35 z_724 + 63 z_725 + 30 z_726 + 91 z_727 + 57 z_728 + 80 z_729
        + 26 z_730 + 3 z_731 + 81 z_732 + 41 z_733 + 46 z_734 + 73 z_735
        + 91 z_736 + 80 z_737 + 2 z_738 + 36 z_739 + 42 z_740 + 21 z_741
        + 35 z_742 + 79 z_743 + 19 z_744 + 14 z_745 + 50 z_746 + 76 z_747
        + 70 z_748 + 37 z_749 + 53 z_750 + 52 z_751 + 51 z_752 + 30 z_753
        + 99 z_754 + 85 z_755 + 92 z_756 + 80 z_757 + 75 z_758 + 100 z_759
        + 59 z_760 + 52 z_761 + 2 z_762 + 91 z_763 + 45 z_764 + 100 z_765
        + 64 z_766 + 35 z_767 + 79 z_768 + 65 z_769 + 22 z_770 + 72 z_771
        + 37 z_772 + 8 z_773 + 50 z_774 + 55 z_775 + 21 z_776 + 52 z_777
        + 82 z_778 + 90 z_779 + 88 z_780 + 34 z_781 + 41 z_782 + 38 z_783
        + 15 z_784 + 91 z_785 + 23 z_786 + 6 z_787 + 71 z_788 + 49 z_789
        + 6 z_790 + 81 z_791 + 53 z_792 + 59 z_793 + 72 z_794 + 97 z_795
        + 10 z_796 + 87 z_797 + 83 z_798 + 40 z_799 + 3 z_800 + 57 z_801
        + 11 z_802 + 40 z_803 + 64 z_804 + 61 z_805 + 46 z_806 + 85 z_807
        + 64 z_808 + 80 z_809 + 74 z_810 + 51 z_811 + 65 z_812 + 67 z_813
        + 88 z_814 + 80 z_815 + 9 z_816 + 62 z_817 + 37 z_818 + 79 z_819
        + 63 z_820 + 94 z_821 + 12 z_822 + 15 z_823 + 5 z_824 + 83 z_825
        + 63 z_826 + 14 z_827 + 69 z_828 + 45 z_829 + 6 z_830 + 71 z_831 + z_832
        + 16 z_833 + 62 z_834 + 17 z_835 + 28 z_836 + 8 z_837 + z_838 + 91 z_839
        + 39 z_840 + 26 z_841 + 93 z_842 + 3 z_843 + 44 z_844 + 33 z_845
        + 34 z_846 + 53 z_847 + 94 z_848 + 71 z_849 + 83 z_850 + 8 z_851
        + 16 z_852 + 94 z_853 + 74 z_854 + 20 z_855 + 28 z_856 + 36 z_857
        + 86 z_858 + 96 z_859 + 33 z_860 + 91 z_861 + 67 z_862 + 85 z_863
        + 58 z_864 + 80 z_865 + z_866 + 38 z_867 + 87 z_868 + 53 z_869
        + 28 z_870 + 77 z_871 + 31 z_872 + 21 z_873 + 80 z_874 + 74 z_875
        + 53 z_876 + 65 z_877 + 78 z_878 + 98 z_879 + 35 z_880 + 13 z_881
        + 58 z_882 + 3 z_883 + 58 z_884 + 31 z_885 + 22 z_886 + 86 z_887
        + 19 z_888 + 59 z_889 + 81 z_890 + 3 z_891 + z_892 + 99 z_893 + 87 z_894
        + 59 z_895 + 79 z_896 + 88 z_897 + 96 z_898 + 17 z_899 + 92 z_900
        + 75 z_901 + 94 z_902 + 22 z_903 + 47 z_904 + 25 z_905 + 48 z_906
        + 51 z_907 + 89 z_908 + 77 z_909 + z_910 + 76 z_911 + 89 z_912
        + 58 z_913 + 78 z_914 + 47 z_915 + 40 z_916 + 51 z_917 + 32 z_918
        + 10 z_919 + 10 z_920 + 64 z_921 + 12 z_922 + 10 z_923 + 63 z_924
        + 99 z_925 + 20 z_926 + 41 z_927 + 38 z_928 + 67 z_929 + 9 z_930
        + 29 z_931 + 94 z_932 + 2 z_933 + 3 z_934 + 40 z_935 + 78 z_936
        + 50 z_937 + 91 z_938 + 67 z_939 + 26 z_940 + 43 z_941 + 42 z_942
        + 67 z_943 + 52 z_944 + 19 z_945 + 13 z_946 + 91 z_947 + 69 z_948
        + 96 z_949 + 53 z_950 + 30 z_951 + 59 z_952 + 64 z_953 + 92 z_954
        + 21 z_955 + 14 z_956 + 11 z_957 + 13 z_958 + 51 z_959 + 78 z_960
        + 74 z_961 + 32 z_962 + 71 z_963 + 27 z_964 + 34 z_965 + 62 z_966
        + 5 z_967 + 35 z_968 + 4 z_969 + 71 z_970 + 12 z_971 + 46 z_972
        + 64 z_973 + 78 z_974 + 97 z_975 + 34 z_976 + 42 z_977 + 40 z_978
        + 54 z_979 + 89 z_980 + 92 z_981 + 84 z_982 + 48 z_983 + 55 z_984
        + 75 z_985 + 20 z_986 + 69 z_987 + 37 z_988 + 85 z_989 + 71 z_990
        + 66 z_991 + 58 z_992 + 2 z_993 + 88 z_994 + 84 z_995 + 87 z_996
        + 50 z_997 + 88 z_998 + 73 z_999 + 53 z_1000 + 10 z_1001 + 37 z_1002
        + 51 z_1003 + 25 z_1004 + 66 z_1005 + 47 z_1006 + 10 z_1007 + 8 z_1008
        + 38 z_1009 + 64 z_1010 + 48 z_1011 + 29 z_1012 + 99 z_1013 + 95 z_1014
        + 36 z_1015 + 25 z_1016 + 15 z_1017 + 4 z_1018 + 61 z_1019 + 99 z_1020
        + 26 z_1021 + 27 z_1022 + 8 z_1023 + 80 z_1024 + 14 z_1025 + 91 z_1026
        + 18 z_1027 + 15 z_1028 + 31 z_1029 + 91 z_1030 + 68 z_1031 + 92 z_1032
        + 27 z_1033 + 70 z_1034 + 17 z_1035 + 92 z_1036 + 16 z_1037 + 78 z_1038
        + 51 z_1039 + 54 z_1040 + 41 z_1041 + 99 z_1042 + 34 z_1043 + 39 z_1044
        + 45 z_1045 + 69 z_1046 + 15 z_1047 + 11 z_1048 + 24 z_1049 + 76 z_1050
        + 9 z_1051 + 50 z_1052 + 54 z_1053 + 68 z_1054 + 29 z_1055 + 67 z_1056
        + 59 z_1057 + 98 z_1058 + 34 z_1059 + 41 z_1060 + 88 z_1061 + z_1062
        + 32 z_1063 + 66 z_1064 + 22 z_1065 + 100 z_1066 + 10 z_1067 + 37 z_1068
        + 78 z_1069 + 60 z_1070 + 42 z_1071 + 70 z_1072 + 10 z_1073 + 28 z_1074
        + 61 z_1075 + 55 z_1076 + 96 z_1077 + 75 z_1078 + 65 z_1079 + 20 z_1080
        + 50 z_1081 + 26 z_1082 + 21 z_1083 + 3 z_1084 + 93 z_1085 + z_1086
        + 22 z_1087 + 3 z_1088 + 98 z_1089 + 55 z_1090 + 43 z_1091 + 38 z_1092
        + 7 z_1093 + 27 z_1094 + 3 z_1095 + 80 z_1096 + 78 z_1097 + 12 z_1098
        + 16 z_1099 + 55 z_1100 + 24 z_1101 + 10 z_1102 + 25 z_1103 + 85 z_1104
        + 37 z_1105 + 85 z_1106 + 91 z_1107 + 84 z_1108 + 11 z_1109 + 56 z_1110
        + 55 z_1111 + 61 z_1112 + 33 z_1113 + 75 z_1114 + 15 z_1115 + 77 z_1116
        + 27 z_1117 + 88 z_1118 + 32 z_1119 + 25 z_1120 + 94 z_1121 + 74 z_1122
        + 62 z_1123 + 52 z_1124 + 52 z_1125 + 16 z_1126 + 31 z_1127 + 30 z_1128
        + 28 z_1129 + 99 z_1130 + 84 z_1131 + 3 z_1132 + 60 z_1133 + 60 z_1134
        + 87 z_1135 + 48 z_1136 + 96 z_1137 + 78 z_1138 + 31 z_1139 + 7 z_1140
        + 85 z_1141 + 86 z_1142 + 19 z_1143 + 69 z_1144 + 12 z_1145 + 33 z_1146
        + 45 z_1147 + 39 z_1148 + 73 z_1149 + 76 z_1150 + 63 z_1151 + 66 z_1152
        + 2 z_1153 + 76 z_1154 + 70 z_1155 + 53 z_1156 + 91 z_1157 + 100 z_1158
        + 82 z_1159 + 70 z_1160 + 50 z_1161 + 18 z_1162 + 24 z_1163 + 9 z_1164
        + 29 z_1165 + 11 z_1166 + 56 z_1167 + 25 z_1168 + 40 z_1169 + 87 z_1170
        + 83 z_1171 + 24 z_1172 + 24 z_1173 + z_1174 + 44 z_1175 + 87 z_1176
        + 85 z_1177 + 88 z_1178 + 25 z_1179 + 57 z_1180 + 16 z_1181 + 39 z_1182
        + 75 z_1183 + 69 z_1184 + 14 z_1185 + 44 z_1186 + 21 z_1187 + 57 z_1188
        + 95 z_1189 + 55 z_1190 + 78 z_1191 + 45 z_1192 + 24 z_1193 + 2 z_1194
        + 53 z_1195 + 52 z_1196 + 64 z_1197 + 61 z_1198 + 28 z_1199 + 3 z_1200
        + 99 z_1201 + 10 z_1202 + 78 z_1203 + 22 z_1204 + 10 z_1205 + 21 z_1206
        + 8 z_1207 + 95 z_1208 + 60 z_1209 + 85 z_1210 + 3 z_1211 + 75 z_1212
        + 23 z_1213 + 77 z_1214 + 43 z_1215 + 89 z_1216 + 72 z_1217 + 16 z_1218
        + 97 z_1219 + 67 z_1220 + 22 z_1221 + 26 z_1222 + 63 z_1223 + 45 z_1224
        + 27 z_1225 + 15 z_1226 + 96 z_1227 + 90 z_1228 + 27 z_1229 + 76 z_1230
        + 44 z_1231 + 25 z_1232 + 85 z_1233 + 21 z_1234 + 98 z_1235 + 47 z_1236
        + 93 z_1237 + 58 z_1238 + 93 z_1239 + 53 z_1240 + 42 z_1241 + 95 z_1242
        + 79 z_1243 + 16 z_1244 + 24 z_1245 + 74 z_1246 + 56 z_1247 + 95 z_1248
        + 89 z_1249 + 52 z_1250 + 13 z_1251 + 62 z_1252 + 78 z_1253 + 75 z_1254
        + 6 z_1255 + 56 z_1256 + 42 z_1257 + 53 z_1258 + 98 z_1259 + 20 z_1260
        + 28 z_1261 + 41 z_1262 + 45 z_1263 + 65 z_1264 + 14 z_1265 + 42 z_1266
        + 11 z_1267 + 6 z_1268 + 99 z_1269 + 3 z_1270 + 10 z_1271 + 92 z_1272
        + 97 z_1273 + 89 z_1274 + 8 z_1275 + 72 z_1276 + 62 z_1277 + 63 z_1278
        + 67 z_1279 + 2 z_1280 + 67 z_1281 + 31 z_1282 + 63 z_1283 + 96 z_1284
        + 58 z_1285 + 68 z_1286 + 51 z_1287 + 51 z_1288 + 72 z_1289 + 100 z_1290
        + 70 z_1291 + 100 z_1292 + 93 z_1293 + 66 z_1294 + 64 z_1295 + 6 z_1296
        + 8 z_1297 + 74 z_1298 + 63 z_1299 + 58 z_1300 + 28 z_1301 + 73 z_1302
        + 50 z_1303 + 24 z_1304 + 13 z_1305 + 57 z_1306 + 96 z_1307 + 74 z_1308
        + 71 z_1309 + 14 z_1310 + 75 z_1311 + 37 z_1312 + 96 z_1313 + 37 z_1314
        + 32 z_1315 + 5 z_1316 + 56 z_1317 + 35 z_1318 + 55 z_1319 + 27 z_1320
        + 34 z_1321 + 77 z_1322 + 78 z_1323 + 26 z_1324 + 42 z_1325 + 93 z_1326
        + 83 z_1327 + 49 z_1328 + 18 z_1329 + 98 z_1330 + 7 z_1331 + 45 z_1332
        + 22 z_1333 + 8 z_1334 + 21 z_1335 + 34 z_1336 + 64 z_1337 + 68 z_1338
        + 7 z_1339 + 34 z_1340 + 81 z_1341 + 33 z_1342 + 23 z_1343 + 28 z_1344
        + 69 z_1345 + 6 z_1346 + 33 z_1347 + 76 z_1348 + 40 z_1349 + 39 z_1350
        + 2 z_1351 + 26 z_1352 + 15 z_1353 + 32 z_1354 + 51 z_1355 + 9 z_1356
        + 24 z_1357 + 86 z_1358 + 57 z_1359 + 42 z_1360 + 83 z_1361 + 15 z_1362
        + 86 z_1363 + 4 z_1364 + 22 z_1365 + 6 z_1366 + 37 z_1367 + 37 z_1368
        + 25 z_1369 + 95 z_1370 + 23 z_1371 + 57 z_1372 + 27 z_1373 + 45 z_1374
        + 85 z_1375 + 47 z_1376 + 50 z_1377 + 69 z_1378 + 22 z_1379 + 42 z_1380
        + 7 z_1381 + 75 z_1382 + 67 z_1383 + 74 z_1384 + 6 z_1385 + 69 z_1386
        + 82 z_1387 + 30 z_1388 + 6 z_1389 + 90 z_1390 + 23 z_1391 + 88 z_1392
        + 57 z_1393 + 60 z_1394 + 43 z_1395 + 30 z_1396 + 18 z_1397 + 31 z_1398
        + 67 z_1399 + 42 z_1400 + 25 z_1401 + 41 z_1402 + 99 z_1403 + 3 z_1404
        + 85 z_1405 + 83 z_1406 + 49 z_1407 + 86 z_1408 + 51 z_1409 + 22 z_1410
        + 79 z_1411 + 9 z_1412 + 97 z_1413 + 45 z_1414 + 82 z_1415 + 54 z_1416
        + 66 z_1417 + 15 z_1418 + 83 z_1419 + 71 z_1420 + 5 z_1421 + 57 z_1422
        + 11 z_1423 + 61 z_1424 + 17 z_1425 + 5 z_1426 + 90 z_1427 + 34 z_1428
        + 36 z_1429 + 8 z_1430 + 75 z_1431 + 60 z_1432 + 48 z_1433 + 73 z_1434
        + 15 z_1435 + 32 z_1436 + 7 z_1437 + 63 z_1438 + 70 z_1439 + 9 z_1440
        + 37 z_1441 + 48 z_1442 + 18 z_1443 + 33 z_1444 + 45 z_1445 + 51 z_1446
        + 38 z_1447 + 62 z_1448 + 66 z_1449 + 73 z_1450 + 84 z_1451 + 70 z_1452
        + 29 z_1453 + 46 z_1454 + 82 z_1455 + 45 z_1456 + 51 z_1457 + 71 z_1458
        + 78 z_1459 + 86 z_1460 + 79 z_1461 + 5 z_1462 + 97 z_1463 + 78 z_1464
        + 77 z_1465 + 11 z_1466 + 62 z_1467 + 36 z_1468 + 26 z_1469 + 31 z_1470
        + 44 z_1471 + 62 z_1472 + 30 z_1473 + 13 z_1474 + 46 z_1475 + 26 z_1476
        + 64 z_1477 + 83 z_1478 + 39 z_1479 + 81 z_1480 + 7 z_1481 + 23 z_1482
        + 50 z_1483 + 36 z_1484 + 68 z_1485 + 83 z_1486 + 80 z_1487 + 70 z_1488
        + 5 z_1489 + 10 z_1490 + 55 z_1491 + 83 z_1492 + 14 z_1493 + 4 z_1494
        + 13 z_1495 + 42 z_1496 + 14 z_1497 + 74 z_1498 + 77 z_1499 + 91 z_1500
        + 4 z_1501 + 21 z_1502 + 4 z_1503 + 85 z_1504 + 33 z_1505 + z_1506
        + 63 z_1507 + 48 z_1508 + 84 z_1509 + z_1510 + 28 z_1511 + 90 z_1512
        + 23 z_1513 + 29 z_1514 + 77 z_1515 + 43 z_1516 + 11 z_1517 + 57 z_1518
        + 12 z_1519 + 16 z_1520 + 18 z_1521 + 19 z_1522 + 50 z_1523 + 31 z_1524
        + 22 z_1525 + 62 z_1526 + 72 z_1527 + 87 z_1528 + 35 z_1529 + 49 z_1530
        + 78 z_1531 + 90 z_1532 + 21 z_1533 + 81 z_1534 + 75 z_1535 + 53 z_1536
        + 82 z_1537 + 37 z_1538 + z_1539 + 17 z_1540 + 37 z_1541 + 28 z_1542
        + 58 z_1543 + 12 z_1544 + 57 z_1545 + 87 z_1546 + 6 z_1547 + 19 z_1548
        + 43 z_1549 + 69 z_1550 + 34 z_1551 + 12 z_1552 + 87 z_1553 + 84 z_1554
        + 42 z_1555 + 8 z_1556 + 97 z_1557 + 65 z_1558 + 47 z_1559 + 32 z_1560
        + 13 z_1561 + 24 z_1562 + 21 z_1563 + 33 z_1564 + 56 z_1565 + 47 z_1566
        + 38 z_1567 + 89 z_1568 + 35 z_1569 + 38 z_1570 + 57 z_1571 + 24 z_1572
        + 17 z_1573 + 67 z_1574 + 35 z_1575 + 25 z_1576 + 53 z_1577 + 92 z_1578
        + 44 z_1579 + 95 z_1580 + 60 z_1581 + 77 z_1582 + 6 z_1583 + 47 z_1584
        + 12 z_1585 + 99 z_1586 + 6 z_1587 + 9 z_1588 + 63 z_1589 + 52 z_1590
        + 92 z_1591 + 28 z_1592 + 27 z_1593 + 12 z_1594 + 12 z_1595 + 35 z_1596
        + 11 z_1597 + 49 z_1598 + 23 z_1599 + 45 z_1600 + 38 z_1601 + 32 z_1602
        + 68 z_1603 + 55 z_1604 + 98 z_1605 + 54 z_1606 + 31 z_1607 + 50 z_1608
        + 45 z_1609 + 74 z_1610 + 96 z_1611 + 5 z_1612 + 3 z_1613 + 53 z_1614
        + 3 z_1615 + 66 z_1616 + 51 z_1617 + 8 z_1618 + 74 z_1619 + 65 z_1620
        + 12 z_1621 + 17 z_1622 + 92 z_1623 + 38 z_1624 + 81 z_1625 + 56 z_1626
        + 24 z_1627 + 91 z_1628 + 4 z_1629 + 99 z_1630 + 35 z_1631 + 94 z_1632
        + 30 z_1633 + 55 z_1634 + 100 z_1635 + 27 z_1636 + 60 z_1637 + 30 z_1638
        + 76 z_1639 + 5 z_1640 + 56 z_1641 + 23 z_1642 + 61 z_1643 + 58 z_1644
        + 75 z_1645 + 63 z_1646 + 75 z_1647 + 77 z_1648 + 70 z_1649 + z_1650
        + 41 z_1651 + 33 z_1652 + 17 z_1653 + 85 z_1654 + 23 z_1655 + 97 z_1656
        + 40 z_1657 + 46 z_1658 + 87 z_1659 + 95 z_1660 + 44 z_1661 + 74 z_1662
        + 40 z_1663 + 73 z_1664 + 80 z_1665 + 39 z_1666 + 51 z_1667 + 39 z_1668
        + 69 z_1669 + 78 z_1670 + 43 z_1671 + 76 z_1672 + 100 z_1673 + 55 z_1674
        + 85 z_1675 + 74 z_1676 + 17 z_1677 + 59 z_1678 + 50 z_1679 + 39 z_1680
        + 59 z_1681 + 43 z_1682 + 71 z_1683 + 76 z_1684 + 79 z_1685 + 45 z_1686
        + 24 z_1687 + 70 z_1688 + 91 z_1689 + 11 z_1690 + 64 z_1691 + 86 z_1692
        + 36 z_1693 + 56 z_1694 + 11 z_1695 + 15 z_1696 + 94 z_1697 + 61 z_1698
        + 5 z_1699 + 14 z_1700 + 39 z_1701 + 100 z_1702 + 89 z_1703 + 38 z_1704
        + 54 z_1705 + 73 z_1706 + 64 z_1707 + 71 z_1708 + 84 z_1709 + 65 z_1710
        + 61 z_1711 + 42 z_1712 + 7 z_1713 + 83 z_1714 + 69 z_1715 + 37 z_1716
        + 28 z_1717 + 93 z_1718 + 6 z_1719 + 70 z_1720 + 55 z_1721 + 22 z_1722
        + 55 z_1723 + 90 z_1724 + 77 z_1725 + 17 z_1726 + 56 z_1727 + 70 z_1728
        + 78 z_1729 + 60 z_1730 + 36 z_1731 + 68 z_1732 + 59 z_1733 + 24 z_1734
        + 57 z_1735 + 13 z_1736 + 49 z_1737 + 20 z_1738 + 35 z_1739 + 32 z_1740
        + 37 z_1741 + 47 z_1742 + 73 z_1743 + 95 z_1744 + 29 z_1745 + 94 z_1746
        + 32 z_1747 + 8 z_1748 + 86 z_1749 + 37 z_1750 + 77 z_1751 + 40 z_1752
        + 10 z_1753 + 84 z_1754 + 29 z_1755 + 86 z_1756 + 100 z_1757 + 36 z_1758
        + 8 z_1759 + 29 z_1760 + 95 z_1761 + 43 z_1762 + 96 z_1763 + 54 z_1764
        + 18 z_1765 + 5 z_1766 + 18 z_1767 + 66 z_1768 + 76 z_1769 + 4 z_1770
        + 49 z_1771 + 12 z_1772 + 50 z_1773 + 74 z_1774 + 7 z_1775 + 78 z_1776
        + 67 z_1777 + 38 z_1778 + 86 z_1779 + 4 z_1780 + 26 z_1781 + 14 z_1782
        + 43 z_1783 + 36 z_1784 + 97 z_1785 + 23 z_1786 + 73 z_1787 + 49 z_1788
        + 58 z_1789 + 32 z_1790 + 29 z_1791 + 52 z_1792 + 74 z_1793 + 25 z_1794
        + 57 z_1795 + 44 z_1796 + 81 z_1797 + 26 z_1798 + 61 z_1799 + 56 z_1800
        + 29 z_1801 + 10 z_1802 + 68 z_1803 + 78 z_1804 + 35 z_1805 + 74 z_1806
        + 56 z_1807 + z_1808 + 63 z_1809 + 93 z_1810 + 4 z_1811 + 88 z_1812
        + 58 z_1813 + 98 z_1814 + 75 z_1815 + 55 z_1816 + 20 z_1817 + 48 z_1818
        + 55 z_1819 + 29 z_1820 + 79 z_1821 + 83 z_1822 + 32 z_1823 + 5 z_1824
        + 59 z_1825 + 41 z_1826 + 100 z_1827 + 39 z_1828 + 66 z_1829 + 60 z_1830
        + 47 z_1831 + 95 z_1832 + 21 z_1833 + 14 z_1834 + 72 z_1835 + 55 z_1836
        + 39 z_1837 + 79 z_1838 + 7 z_1839 + 53 z_1840 + 71 z_1841 + 62 z_1842
        + 40 z_1843 + 29 z_1844 + 59 z_1845 + 67 z_1846 + 35 z_1847 + 30 z_1848
        + 66 z_1849 + 41 z_1850 + 10 z_1851 + 44 z_1852 + 23 z_1853 + 42 z_1854
        + 100 z_1855 + 34 z_1856 + 82 z_1857 + 51 z_1858 + 24 z_1859 + 47 z_1860
        + 11 z_1861 + 70 z_1862 + 41 z_1863 + 83 z_1864 + 83 z_1865 + 65 z_1866
        + 90 z_1867 + 73 z_1868 + 43 z_1869 + 96 z_1870 + 25 z_1871 + 66 z_1872
        + 10 z_1873 + 17 z_1874 + 46 z_1875 + 68 z_1876 + 83 z_1877 + 32 z_1878
        + 50 z_1879 + 48 z_1880 + 72 z_1881 + 59 z_1882 + 43 z_1883 + 46 z_1884
        + 52 z_1885 + 95 z_1886 + 79 z_1887 + 33 z_1888 + 45 z_1889 + 3 z_1890
        + 32 z_1891 + 7 z_1892 + 72 z_1893 + 24 z_1894 + 42 z_1895 + 7 z_1896
        + 88 z_1897 + 31 z_1898 + 31 z_1899 + 31 z_1900 + 78 z_1901 + 56 z_1902
        + 96 z_1903 + 87 z_1904 + 24 z_1905 + 93 z_1906 + 7 z_1907 + 6 z_1908
        + 24 z_1909 + 8 z_1910 + 5 z_1911 + 95 z_1912 + 66 z_1913 + 47 z_1914
        + 92 z_1915 + 70 z_1916 + 41 z_1917 + 71 z_1918 + 2 z_1919 + 38 z_1920
        + 25 z_1921 + 85 z_1922 + 44 z_1923 + 96 z_1924 + 9 z_1925 + 85 z_1926
        + 54 z_1927 + 96 z_1928 + 67 z_1929 + 85 z_1930 + 78 z_1931 + 45 z_1932
        + 92 z_1933 + 25 z_1934 + 83 z_1935 + 15 z_1936 + 17 z_1937 + 41 z_1938
        + 72 z_1939 + 40 z_1940 + 48 z_1941 + 76 z_1942 + 86 z_1943 + 66 z_1944
        + 22 z_1945 + 78 z_1946 + 35 z_1947 + 15 z_1948 + 100 z_1949 + 88 z_1950
        + 52 z_1951 + 24 z_1952 + 73 z_1953 + 47 z_1954 + 71 z_1955 + 33 z_1956
        + 32 z_1957 + 25 z_1958 + 28 z_1959 + 50 z_1960 + 61 z_1961 + 6 z_1962
        + 94 z_1963 + 52 z_1964 + 82 z_1965 + 77 z_1966 + 18 z_1967 + 99 z_1968
        + 69 z_1969 + 89 z_1970 + 90 z_1971 + 17 z_1972 + 64 z_1973 + 76 z_1974
        + 82 z_1975 + 37 z_1976 + 5 z_1977 + 68 z_1978 + 51 z_1979 + 4 z_1980
        + 55 z_1981 + 54 z_1982 + 27 z_1983 + 79 z_1984 + 53 z_1985 + 97 z_1986
        + 11 z_1987 + 36 z_1988 + 73 z_1989 + 39 z_1990 + 85 z_1991 + 85 z_1992
        + 96 z_1993 + 79 z_1994 + 36 z_1995 + 29 z_1996 + 7 z_1997 + 5 z_1998
        + 27 z_1999 + 75 z_2000 + 93 z_2001 + 17 z_2002 + 43 z_2003 + 8 z_2004
        + 44 z_2005 + 76 z_2006 + 45 z_2007 + 100 z_2008 + 43 z_2009 + 47 z_2010
        + 3 z_2011 + 98 z_2012 + z_2013 + 81 z_2014 + 28 z_2015 + 53 z_2016
        + 29 z_2017 + 39 z_2018 + 88 z_2019 + 2 z_2020 + 29 z_2021 + 24 z_2022
        + 86 z_2023 + 24 z_2024 + 2 z_2025 + 74 z_2026 + 4 z_2027 + 60 z_2028
        + 30 z_2029 + 31 z_2030 + 87 z_2031 + 23 z_2032 + 99 z_2033 + 29 z_2034
        + 30 z_2035 + 94 z_2036 + 5 z_2037 + 26 z_2038 + 93 z_2039 + 99 z_2040
        + 73 z_2041 + 47 z_2042 + 96 z_2043 + 25 z_2044 + 27 z_2045 + 24 z_2046
        + 29 z_2047 + 55 z_2048 + 14 z_2049 + 68 z_2050 + 8 z_2051 + 42 z_2052
        + 91 z_2053 + 46 z_2054 + 17 z_2055 + 93 z_2056 + 71 z_2057 + 20 z_2058
        + 4 z_2059 + 100 z_2060 + 2 z_2061 + 90 z_2062 + 22 z_2063 + 100 z_2064
        + 71 z_2065 + 4 z_2066 + 45 z_2067 + 27 z_2068 + 29 z_2069 + 37 z_2070
        + 25 z_2071 + 53 z_2072 + 83 z_2073 + 73 z_2074 + 77 z_2075 + 61 z_2076
        + 48 z_2077 + 5 z_2078 + 16 z_2079 + 61 z_2080 + 72 z_2081 + 75 z_2082
        + 2 z_2083 + 63 z_2084 + 20 z_2085 + 70 z_2086 + 7 z_2087 + 90 z_2088
        + 89 z_2089 + 10 z_2090 + 42 z_2091 + 91 z_2092 + 52 z_2093 + 63 z_2094
        + 42 z_2095 + 74 z_2096 + 18 z_2097 + 87 z_2098 + 100 z_2099 + 99 z_2100
        + 23 z_2101 + 76 z_2102 + 51 z_2103 + 58 z_2104 + 48 z_2105 + 28 z_2106
        + 18 z_2107 + 47 z_2108 + 32 z_2109 + 85 z_2110 + 7 z_2111 + 4 z_2112
        + 12 z_2113 + 60 z_2114 + 18 z_2115 + 31 z_2116 + 29 z_2117 + 24 z_2118
        + 73 z_2119 + 70 z_2120 + 85 z_2121 + 14 z_2122 + 60 z_2123 + 88 z_2124
        + 28 z_2125 + z_2126 + 61 z_2127 + 98 z_2128 + 39 z_2129 + 12 z_2130
        + 96 z_2131 + 14 z_2132 + 88 z_2133 + 46 z_2134 + 71 z_2135 + 87 z_2136
        + 73 z_2137 + 40 z_2138 + 34 z_2139 + 57 z_2140 + 77 z_2141 + 92 z_2142
        + 12 z_2143 + 88 z_2144 + 52 z_2145 + 29 z_2146 + 70 z_2147 + 32 z_2148
        + 52 z_2149 + 42 z_2150 + z_2151 + 88 z_2152 + 7 z_2153 + 12 z_2154
        + 76 z_2155 + 87 z_2156 + 65 z_2157 + 88 z_2158 + 84 z_2159 + 3 z_2160
        + 100 z_2161 + 79 z_2162 + 16 z_2163 + 39 z_2164 + 24 z_2165 + 38 z_2166
        + 77 z_2167 + 49 z_2168 + 78 z_2169 + 10 z_2170 + 5 z_2171 + 54 z_2172
        + 54 z_2173 + 16 z_2174 + 41 z_2175 + 57 z_2176 + 96 z_2177 + 10 z_2178
        + 88 z_2179 + 99 z_2180 + 4 z_2181 + 41 z_2182 + 86 z_2183 + 62 z_2184
        + 4 z_2185 + 61 z_2186 + 48 z_2187 + 68 z_2188 + z_2189 + 31 z_2190
        + 71 z_2191 + 100 z_2192 + 9 z_2193 + 38 z_2194 + 38 z_2195 + 85 z_2196
        + 76 z_2197 + 14 z_2198 + 33 z_2199 + 53 z_2200 + 76 z_2201 + 89 z_2202
        + 58 z_2203 + 81 z_2204 + 56 z_2205 + 50 z_2206 + 37 z_2207 + 51 z_2208
        + 11 z_2209 + 76 z_2210 + 49 z_2211 + 66 z_2212 + 68 z_2213 + 86 z_2214
        + 28 z_2215 + 72 z_2216 + 99 z_2217 + 75 z_2218 + 39 z_2219 + 99 z_2220
        + 6 z_2221 + 61 z_2222 + 50 z_2223 + 66 z_2224 + 99 z_2225 + 39 z_2226
        + 50 z_2227 + 74 z_2228 + 4 z_2229 + 34 z_2230 + 78 z_2231 + 79 z_2232
        + 22 z_2233 + 87 z_2234 + 59 z_2235 + 29 z_2236 + 36 z_2237 + 47 z_2238
        + 31 z_2239 + 98 z_2240 + 23 z_2241 + 31 z_2242 + 64 z_2243 + 90 z_2244
        + 17 z_2245 + 91 z_2246 + 13 z_2247 + 15 z_2248 + 65 z_2249 + 52 z_2250
        + 65 z_2251 + 22 z_2252 + 64 z_2253 + 14 z_2254 + 88 z_2255 + 62 z_2256
        + 52 z_2257 + 89 z_2258 + 87 z_2259 + 55 z_2260 + 23 z_2261 + 16 z_2262
        + 86 z_2263 + 96 z_2264 + 2 z_2265 + 96 z_2266 + 77 z_2267 + 89 z_2268
        + 43 z_2269 + 7 z_2270 + 87 z_2271 + 17 z_2272 + 38 z_2273 + 50 z_2274
        + 58 z_2275 + 54 z_2276 + 40 z_2277 + 71 z_2278 + 20 z_2279 + 56 z_2280
        + 74 z_2281 + 36 z_2282 + 30 z_2283 + 37 z_2284 + 49 z_2285 + 69 z_2286
        + 51 z_2287 + 52 z_2288 + 57 z_2289 + 89 z_2290 + 6 z_2291 + 31 z_2292
        + 57 z_2293 + 43 z_2294 + 79 z_2295 + 10 z_2296 + 39 z_2297 + 55 z_2298
        + 99 z_2299 + 33 z_2300 + 61 z_2301 + 85 z_2302 + z_2303 + 98 z_2304
        + 86 z_2305 + 58 z_2306 + 3 z_2307 + 77 z_2308 + 80 z_2309 + 74 z_2310
        + 84 z_2311 + 53 z_2312 + 9 z_2313 + 13 z_2314 + 42 z_2315 + 57 z_2316
        + 81 z_2317 + 92 z_2318 + 60 z_2319 + 90 z_2320 + 32 z_2321 + 18 z_2322
        + 20 z_2323 + 88 z_2324 + 60 z_2325 + 98 z_2326 + 98 z_2327 + 50 z_2328
        + 4 z_2329 + 96 z_2330 + 34 z_2331 + 65 z_2332 + 32 z_2333 + 34 z_2334
        + 14 z_2335 + 69 z_2336 + 44 z_2337 + 17 z_2338 + 97 z_2339 + 75 z_2340
        + 90 z_2341 + 80 z_2342 + 80 z_2343 + 51 z_2344 + 45 z_2345 + 21 z_2346
        + 59 z_2347 + 25 z_2348 + 64 z_2349 + 19 z_2350 + 66 z_2351 + 95 z_2352
        + 36 z_2353 + 86 z_2354 + 35 z_2355 + 47 z_2356 + 35 z_2357 + 32 z_2358
        + 97 z_2359 + 39 z_2360 + 79 z_2361 + 82 z_2362 + 55 z_2363 + 62 z_2364
        + 68 z_2365 + 68 z_2366 + 82 z_2367 + 63 z_2368 + 36 z_2369 + 78 z_2370
        + 37 z_2371 + 78 z_2372 + 57 z_2373 + 16 z_2374 + 28 z_2375 + z_2376
        + 36 z_2377 + 38 z_2378 + 78 z_2379 + 99 z_2380 + 56 z_2381 + 43 z_2382
        + 46 z_2383 + 43 z_2384 + 80 z_2385 + 80 z_2386 + 90 z_2387 + 67 z_2388
        + 63 z_2389 + 38 z_2390 + 57 z_2391 + 41 z_2392 + 19 z_2393 + 11 z_2394
        + 54 z_2395 + 86 z_2396 + 30 z_2397 + 35 z_2398 + 48 z_2399 + 18 z_2400
        + 12 z_2401 + 37 z_2402 + 95 z_2403 + 20 z_2404 + 52 z_2405 + 74 z_2406
        + 73 z_2407 + 40 z_2408 + 11 z_2409 + 50 z_2410 + 38 z_2411 + 19 z_2412
        + 44 z_2413 + 35 z_2414 + 61 z_2415 + 76 z_2416 + 14 z_2417 + 50 z_2418
        + 42 z_2419 + 76 z_2420 + 39 z_2421 + 98 z_2422 + 68 z_2423 + 58 z_2424
        + 60 z_2425 + 21 z_2426 + 95 z_2427 + 89 z_2428 + 55 z_2429 + 95 z_2430
        + 6 z_2431 + 18 z_2432 + 31 z_2433 + 52 z_2434 + 38 z_2435 + 34 z_2436
        + 77 z_2437 + 10 z_2438 + 73 z_2439 + 40 z_2440 + 11 z_2441 + 63 z_2442
        + 58 z_2443 + 6 z_2444 + 97 z_2445 + 70 z_2446 + 81 z_2447 + 63 z_2448
        + 72 z_2449 + 74 z_2450 + 90 z_2451 + 10 z_2452 + 23 z_2453 + 10 z_2454
        + 67 z_2455 + 82 z_2456 + 30 z_2457 + 14 z_2458 + 71 z_2459 + 37 z_2460
        + 8 z_2461 + 28 z_2462 + 6 z_2463 + 90 z_2464 + 32 z_2465 + 43 z_2466
        + 23 z_2467 + 8 z_2468 + 4 z_2469 + 48 z_2470 + 47 z_2471 + 66 z_2472
        + 10 z_2473 + 56 z_2474 + 72 z_2475 + 58 z_2476 + 26 z_2477 + 4 z_2478
        + 72 z_2479 + 49 z_2480 + 78 z_2481 + 62 z_2482 + 58 z_2483 + 52 z_2484
        + 23 z_2485 + 77 z_2486 + 34 z_2487 + 52 z_2488 + 90 z_2489 + 56 z_2490
        + 40 z_2491 + 49 z_2492 + 83 z_2493 + 98 z_2494 + 90 z_2495 + 66 z_2496
        + 92 z_2497 + 64 z_2498 + 74 z_2499 + 96 z_2500 + 11 z_2501 + 72 z_2502
        + 13 z_2503 + 72 z_2504 + 80 z_2505 + 36 z_2506 + 30 z_2507 + 57 z_2508
        + 40 z_2509 + z_2510 + 5 z_2511 + 69 z_2512 + 14 z_2513 + 62 z_2514
        + 20 z_2515 + 36 z_2516 + 38 z_2517 + 5 z_2518 + 40 z_2519 + 79 z_2520
        + 60 z_2521 + 31 z_2522 + 79 z_2523 + 95 z_2524 + 28 z_2525 + 68 z_2526
        + 60 z_2527 + 20 z_2528 + 32 z_2529 + 85 z_2530 + 67 z_2531 + 94 z_2532
        + 57 z_2533 + 79 z_2534 + 66 z_2535 + 88 z_2536 + 15 z_2537 + 95 z_2538
        + 44 z_2539 + 6 z_2540 + 47 z_2541 + 100 z_2542 + 74 z_2543 + 13 z_2544
        + 13 z_2545 + 45 z_2546 + 48 z_2547 + 51 z_2548 + 50 z_2549 + 39 z_2550
        + 81 z_2551 + 61 z_2552 + 70 z_2553 + 60 z_2554 + 55 z_2555 + 49 z_2556
        + 27 z_2557 + 15 z_2558 + 68 z_2559 + 10 z_2560 + 99 z_2561 + 34 z_2562
        + 4 z_2563 + 7 z_2564 + 65 z_2565 + 69 z_2566 + 94 z_2567 + 79 z_2568
        + 15 z_2569 + 89 z_2570 + 84 z_2571 + 61 z_2572 + 88 z_2573 + 9 z_2574
        + 73 z_2575 + z_2576 + 5 z_2577 + 73 z_2578 + 3 z_2579 + 6 z_2580
        + 11 z_2581 + 35 z_2582 + 67 z_2583 + 32 z_2584 + 94 z_2585 + 21 z_2586
        + 81 z_2587 + 73 z_2588 + 87 z_2589 + 48 z_2590 + 82 z_2591 + 86 z_2592
        + 34 z_2593 + 85 z_2594 + 44 z_2595 + 98 z_2596 + 53 z_2597 + 38 z_2598
        + 28 z_2599 + 19 z_2600 + 78 z_2601 + 63 z_2602 + 80 z_2603 + 18 z_2604
        + 23 z_2605 + 4 z_2606 + 70 z_2607 + 27 z_2608 + 28 z_2609 + 72 z_2610
        + 85 z_2611 + 91 z_2612 + 6 z_2613 + 51 z_2614 + 22 z_2615 + 52 z_2616
        + 71 z_2617 + 54 z_2618 + 24 z_2619 + 58 z_2620 + 54 z_2621 + 5 z_2622
        + 95 z_2623 + 39 z_2624 + 42 z_2625 + 38 z_2626 + 88 z_2627 + 46 z_2628
        + 27 z_2629 + 15 z_2630 + 65 z_2631 + 5 z_2632 + 29 z_2633 + 96 z_2634
        + 22 z_2635 + 51 z_2636 + 51 z_2637 + 43 z_2638 + 29 z_2639 + 79 z_2640
        + 14 z_2641 + 13 z_2642 + 21 z_2643 + 71 z_2644 + 15 z_2645 + 94 z_2646
        + 74 z_2647 + 86 z_2648 + 48 z_2649 + 97 z_2650 + 95 z_2651 + z_2652
        + 54 z_2653 + 89 z_2654 + 39 z_2655 + 47 z_2656 + 78 z_2657 + 26 z_2658
        + 92 z_2659 + 5 z_2660 + 92 z_2661 + 56 z_2662 + 61 z_2663 + 20 z_2664
        + 3 z_2665 + 34 z_2666 + 22 z_2667 + 54 z_2668 + 76 z_2669 + 2 z_2670
        + 84 z_2671 + 41 z_2672 + 67 z_2673 + 4 z_2674 + 63 z_2675 + 33 z_2676
        + 97 z_2677 + 37 z_2678 + 70 z_2679 + 44 z_2680 + 85 z_2681 + 64 z_2682
        + 96 z_2683 + 90 z_2684 + 4 z_2685 + 86 z_2686 + 36 z_2687 + 34 z_2688
        + 63 z_2689 + 28 z_2690 + 38 z_2691 + 54 z_2692 + 35 z_2693 + 50 z_2694
        + 25 z_2695 + 38 z_2696 + 83 z_2697 + 98 z_2698 + 91 z_2699 + 10 z_2700
        + 52 z_2701 + 74 z_2702 + 50 z_2703 + 70 z_2704 + 77 z_2705 + 12 z_2706
        + 2 z_2707 + 25 z_2708 + 100 z_2709 + 72 z_2710 + 69 z_2711 + 85 z_2712
        + 35 z_2713 + 16 z_2714 + 26 z_2715 + 91 z_2716 + 2 z_2717 + 62 z_2718
        + 24 z_2719 + 64 z_2720 + 89 z_2721 + 13 z_2722 + 70 z_2723 + 23 z_2724
        + 62 z_2725 + 46 z_2726 + 12 z_2727 + 96 z_2728 + 44 z_2729 + 2 z_2730
        + 5 z_2731 + 47 z_2732 + 27 z_2733 + 6 z_2734 + 16 z_2735 + 3 z_2736
        + 69 z_2737 + 17 z_2738 + 80 z_2739 + 21 z_2740 + 88 z_2741 + 48 z_2742
        + 5 z_2743 + 75 z_2744 + 15 z_2745 + 82 z_2746 + 17 z_2747 + 16 z_2748
        + 43 z_2749 + 40 z_2750 + 32 z_2751 + 83 z_2752 + 4 z_2753 + z_2754
        + 58 z_2755 + 17 z_2756 + 46 z_2757 + 69 z_2758 + 12 z_2759 + 41 z_2760
        + 71 z_2761 + 68 z_2762 + 87 z_2763 + 49 z_2764 + 25 z_2765 + 2 z_2766
        + 4 z_2767 + 93 z_2768 + 71 z_2769 + 83 z_2770 + 13 z_2771 + 10 z_2772
        + 30 z_2773 + 69 z_2774 + 84 z_2775 + 44 z_2776 + 51 z_2777 + 52 z_2778
        + 12 z_2779 + 45 z_2780 + 43 z_2781 + 43 z_2782 + 28 z_2783 + 46 z_2784
        + 95 z_2785 + 85 z_2786 + 62 z_2787 + 40 z_2788 + 53 z_2789 + 25 z_2790
        + 33 z_2791 + 75 z_2792 + 92 z_2793 + 19 z_2794 + 24 z_2795 + 16 z_2796
        + 73 z_2797 + 27 z_2798 + 61 z_2799 + 43 z_2800 + 9 z_2801 + 25 z_2802
        + 52 z_2803 + 90 z_2804 + 46 z_2805 + 88 z_2806 + 85 z_2807 + 96 z_2808
        + 39 z_2809 + 48 z_2810 + 92 z_2811 + 82 z_2812 + 90 z_2813 + 19 z_2814
        + 79 z_2815 + 36 z_2816 + 55 z_2817 + 41 z_2818 + 28 z_2819 + 8 z_2820
        + 65 z_2821 + 60 z_2822 + 34 z_2823 + 9 z_2824 + 30 z_2825 + 57 z_2826
        + 24 z_2827 + 2 z_2828 + 35 z_2829 + 36 z_2830 + 44 z_2831 + 95 z_2832
        + 61 z_2833 + 48 z_2834 + 84 z_2835 + 6 z_2836 + 35 z_2837 + 21 z_2838
        + 53 z_2839 + 73 z_2840 + 68 z_2841 + 44 z_2842 + 6 z_2843 + 10 z_2844
        + 15 z_2845 + 85 z_2846 + 45 z_2847 + 69 z_2848 + 77 z_2849 + 72 z_2850
        + 28 z_2851 + 41 z_2852 + 83 z_2853 + 62 z_2854 + 49 z_2855 + 13 z_2856
        + 70 z_2857 + 25 z_2858 + 14 z_2859 + 57 z_2860 + 60 z_2861 + 10 z_2862
        + 51 z_2863 + 72 z_2864 + 57 z_2865 + 87 z_2866 + 77 z_2867 + 91 z_2868
        + 7 z_2869 + 81 z_2870 + 15 z_2871 + 26 z_2872 + 77 z_2873 + 21 z_2874
        + 35 z_2875 + 91 z_2876 + 57 z_2877 + 32 z_2878 + 59 z_2879 + 33 z_2880
        + 55 z_2881 + 39 z_2882 + 25 z_2883 + 38 z_2884 + 100 z_2885 + 74 z_2886
        + 50 z_2887 + 21 z_2888 + 50 z_2889 + 63 z_2890 + 77 z_2891 + 9 z_2892
        + 72 z_2893 + 28 z_2894 + 81 z_2895 + 80 z_2896 + 66 z_2897 + 9 z_2898
        + 70 z_2899 + 24 z_2900 + 90 z_2901 + 85 z_2902 + 49 z_2903 + 66 z_2904
        + 57 z_2905 + 36 z_2906 + 8 z_2907 + 65 z_2908 + 67 z_2909 + 18 z_2910
        + 97 z_2911 + 21 z_2912 + 56 z_2913 + 21 z_2914 + 58 z_2915 + 55 z_2916
        + 46 z_2917 + 59 z_2918 + 76 z_2919 + 95 z_2920 + 74 z_2921 + 52 z_2922
        + 56 z_2923 + 97 z_2924 + 31 z_2925 + 36 z_2926 + 77 z_2927 + 96 z_2928
        + 96 z_2929 + 46 z_2930 + 19 z_2931 + 37 z_2932 + 82 z_2933 + 20 z_2934
        + 54 z_2935 + 90 z_2936 + 55 z_2937 + 61 z_2938 + 54 z_2939 + 73 z_2940
        + 79 z_2941 + 2 z_2942 + 93 z_2943 + 34 z_2944 + 23 z_2945 + 3 z_2946
        + 41 z_2947 + 20 z_2948 + 13 z_2949 + 68 z_2950 + 15 z_2951 + 86 z_2952
        + 71 z_2953 + 70 z_2954 + 83 z_2955 + 2 z_2956 + 57 z_2957 + 11 z_2958
        + 49 z_2959 + 52 z_2960 + 56 z_2961 + 20 z_2962 + 41 z_2963 + 90 z_2964
        + 39 z_2965 + 94 z_2966 + 79 z_2967 + 45 z_2968 + 55 z_2969 + 85 z_2970
        + 17 z_2971 + 33 z_2972 + 86 z_2973 + 61 z_2974 + 18 z_2975 + 60 z_2976
        + 15 z_2977 + 58 z_2978 + 80 z_2979 + 28 z_2980 + 77 z_2981 + 46 z_2982
        + 65 z_2983 + 48 z_2984 + 67 z_2985 + 99 z_2986 + 49 z_2987 + 23 z_2988
        + 9 z_2989 + 49 z_2990 + 26 z_2991 + 17 z_2992 + 68 z_2993 + 66 z_2994
        + 6 z_2995 + 58 z_2996 + 60 z_2997 + 36 z_2998 + 54 z_2999 + 66 z_3000
        + 72 z_3001 + 70 z_3002 + 50 z_3003 + 58 z_3004 + 83 z_3005 + 67 z_3006
        + 69 z_3007 + 49 z_3008 + 77 z_3009 + 100 z_3010 + 28 z_3011 + 53 z_3012
        + 45 z_3013 + 93 z_3014 + 100 z_3015 + 11 z_3016 + 43 z_3017
        + 100 z_3018 + 85 z_3019 + 52 z_3020 + z_3021 + 63 z_3022 + 20 z_3023
        + 20 z_3024 + 80 z_3025 + 77 z_3026 + 78 z_3027 + 91 z_3028 + 12 z_3029
        + 31 z_3030 + 56 z_3031 + 84 z_3032 + 53 z_3033 + 5 z_3034 + 93 z_3035
        + 87 z_3036 + 24 z_3037 + 61 z_3038 + 35 z_3039 + 100 z_3040 + 61 z_3041
        + 63 z_3042 + 4 z_3043 + 57 z_3044 + 7 z_3045 + 4 z_3046 + 20 z_3047
        + 49 z_3048 + 55 z_3049 + 56 z_3050 + 52 z_3051 + 55 z_3052 + 70 z_3053
        + 71 z_3054 + 75 z_3055 + 50 z_3056 + 47 z_3057 + 4 z_3058 + 92 z_3059
        + 11 z_3060 + 34 z_3061 + 48 z_3062 + 46 z_3063 + 38 z_3064 + 4 z_3065
        + 38 z_3066 + 76 z_3067 + 27 z_3068 + 50 z_3069 + 11 z_3070 + 78 z_3071
        + 62 z_3072 + 25 z_3073 + 82 z_3074 + 71 z_3075 + 31 z_3076 + 37 z_3077
        + 90 z_3078 + 79 z_3079 + 91 z_3080 + 45 z_3081 + 31 z_3082 + 46 z_3083
        + 15 z_3084 + 53 z_3085 + 72 z_3086 + 16 z_3087 + 100 z_3088 + 75 z_3089
        + 7 z_3090 + 62 z_3091 + 60 z_3092 + 6 z_3093 + 7 z_3094 + 98 z_3095
        + 10 z_3096 + 96 z_3097 + 73 z_3098 + 88 z_3099 + 97 z_3100 + 35 z_3101
        + 18 z_3102 + 59 z_3103 + 59 z_3104 + 99 z_3105 + 29 z_3106 + 89 z_3107
        + 87 z_3108 + 70 z_3109 + 20 z_3110 + 77 z_3111 + 66 z_3112 + 2 z_3113
        + 74 z_3114 + 32 z_3115 + 54 z_3116 + 45 z_3117 + 47 z_3118 + 5 z_3119
        + 71 z_3120 + 6 z_3121 + 66 z_3122 + 31 z_3123 + 11 z_3124 + 72 z_3125
        + 80 z_3126 + 72 z_3127 + 19 z_3128 + 4 z_3129 + 60 z_3130 + 16 z_3131
        + 39 z_3132 + 77 z_3133 + 74 z_3134 + 97 z_3135 + 27 z_3136 + 54 z_3137
        + 38 z_3138 + 13 z_3139 + 75 z_3140 + 57 z_3141 + 41 z_3142 + 40 z_3143
        + 10 z_3144 + 67 z_3145 + 72 z_3146 + 63 z_3147 + 63 z_3148 + 70 z_3149
        + 20 z_3150 + 34 z_3151 + 75 z_3152 + 85 z_3153 + 64 z_3154 + 86 z_3155
        + 9 z_3156 + 95 z_3157 + 57 z_3158 + 27 z_3159 + 98 z_3160 + 68 z_3161
        + 42 z_3162 + 36 z_3163 + 96 z_3164 + 67 z_3165 + 85 z_3166 + 22 z_3167
        + 72 z_3168 + 22 z_3169 + 86 z_3170 + 46 z_3171 + 30 z_3172 + 79 z_3173
        + 38 z_3174 + 39 z_3175 + 45 z_3176 + 9 z_3177 + 53 z_3178 + 59 z_3179
        + 78 z_3180 + 72 z_3181 + 92 z_3182 + 53 z_3183 + 57 z_3184 + 7 z_3185
        + 90 z_3186 + 17 z_3187 + z_3188 + 46 z_3189 + 43 z_3190 + 99 z_3191
        + 14 z_3192 + 37 z_3193 + 86 z_3194 + 61 z_3195 + 55 z_3196 + 70 z_3197
        + 83 z_3198 + 79 z_3199 + 43 z_3200 + 20 z_3201 + 24 z_3202 + 72 z_3203
        + 98 z_3204 + 61 z_3205 + 10 z_3206 + 94 z_3207 + 21 z_3208 + 63 z_3209
        + 5 z_3210 + 99 z_3211 + 86 z_3212 + 48 z_3213 + 3 z_3214 + 42 z_3215
        + 55 z_3216 + 92 z_3217 + 58 z_3218 + 7 z_3219 + 89 z_3220 + 53 z_3221
        + 57 z_3222 + 54 z_3223 + 41 z_3224 + 95 z_3225 + 15 z_3226 + 95 z_3227
        + 64 z_3228 + 97 z_3229 + 73 z_3230 + 7 z_3231 + 68 z_3232 + 49 z_3233
        + 30 z_3234 + 18 z_3235 + 61 z_3236 + 40 z_3237 + 11 z_3238 + 34 z_3239
        + 54 z_3240 + 15 z_3241 + 32 z_3242 + 39 z_3243 + 63 z_3244 + 86 z_3245
        + 33 z_3246 + 69 z_3247 + 77 z_3248 + 42 z_3249 + 27 z_3250 + 65 z_3251
        + 46 z_3252 + 36 z_3253 + 19 z_3254 + 86 z_3255 + 30 z_3256 + 33 z_3257
        + 33 z_3258 + 45 z_3259 + 81 z_3260 + 57 z_3261 + 3 z_3262 + 100 z_3263
        + 5 z_3264 + 33 z_3265 + 17 z_3266 + 18 z_3267 + 24 z_3268 + 28 z_3269
        + 51 z_3270 + 29 z_3271 + 94 z_3272 + 34 z_3273 + 19 z_3274 + 8 z_3275
        + 71 z_3276 + 3 z_3277 + 28 z_3278 + 47 z_3279 + 45 z_3280 + 7 z_3281
        + 63 z_3282 + 90 z_3283 + 42 z_3284 + 33 z_3285 + 28 z_3286 + 23 z_3287
        + 17 z_3288 + 60 z_3289 + 19 z_3290 + 49 z_3291 + 16 z_3292 + 22 z_3293
        + 49 z_3294 + 73 z_3295 + 6 z_3296 + 65 z_3297 + 42 z_3298 + 81 z_3299
        + 44 z_3300 + 44 z_3301 + 61 z_3302 + 90 z_3303 + 29 z_3304 + 79 z_3305
        + 97 z_3306 + 99 z_3307 + 82 z_3308 + 77 z_3309 + 97 z_3310 + 78 z_3311
        + 83 z_3312 + 59 z_3313 + 19 z_3314 + 24 z_3315 + 44 z_3316 + 46 z_3317
        + 98 z_3318 + 12 z_3319 + 57 z_3320 + 68 z_3321 + 61 z_3322 + 25 z_3323
        + 41 z_3324 + 61 z_3325 + 49 z_3326 + 46 z_3327 + 25 z_3328 + 90 z_3329
        + 78 z_3330 + 21 z_3331 + 33 z_3332 + 38 z_3333 + 10 z_3334 + 13 z_3335
        + 17 z_3336 + 58 z_3337 + 11 z_3338 + 50 z_3339 + 34 z_3340 + 7 z_3341
        + 79 z_3342 + 16 z_3343 + 65 z_3344 + 97 z_3345 + 91 z_3346 + 60 z_3347
        + 95 z_3348 + 40 z_3349 + 72 z_3350 + 3 z_3351 + 8 z_3352 + 84 z_3353
        + 27 z_3354 + 48 z_3355 + 44 z_3356 + 75 z_3357 + 46 z_3358 + 68 z_3359
        + 16 z_3360 + 23 z_3361 + 40 z_3362 + 100 z_3363 + 61 z_3364 + z_3365
        + 12 z_3366 + 29 z_3367 + 59 z_3368 + 22 z_3369 + 30 z_3370 + 44 z_3371
        + 28 z_3372 + 8 z_3373 + 60 z_3374 + 45 z_3375 + 56 z_3376 + 2 z_3377
        + 56 z_3378 + 2 z_3379 + 42 z_3380 + 27 z_3381 + 57 z_3382 + z_3383
        + 10 z_3384 + 83 z_3385 + 48 z_3386 + 53 z_3387 + 10 z_3388 + 93 z_3389
        + 73 z_3390 + 77 z_3391 + 68 z_3392 + 64 z_3393 + 77 z_3394 + 80 z_3395
        + 65 z_3396 + 40 z_3397 + 8 z_3398 + 23 z_3399 + 14 z_3400 + 89 z_3401
        + 66 z_3402 + 93 z_3403 + 48 z_3404 + 77 z_3405 + 37 z_3406 + 55 z_3407
        + 31 z_3408 + 45 z_3409 + 57 z_3410 + 24 z_3411 + 71 z_3412 + 13 z_3413
        + 24 z_3414 + 33 z_3415 + 47 z_3416 + 71 z_3417 + 37 z_3418 + 8 z_3419
        + 16 z_3420 + 61 z_3421 + 85 z_3422 + 83 z_3423 + 25 z_3424 + 13 z_3425
        + 14 z_3426 + 89 z_3427 + 4 z_3428 + 21 z_3429 + 63 z_3430 + 17 z_3431
        + 61 z_3432 + 80 z_3433 + 10 z_3434 + 60 z_3435 + 9 z_3436 + 98 z_3437
        + 14 z_3438 + 39 z_3439 + 42 z_3440 + 22 z_3441 + 62 z_3442 + 65 z_3443
        + 86 z_3444 + 85 z_3445 + 97 z_3446 + 85 z_3447 + 7 z_3448 + 85 z_3449
        + 92 z_3450 + 74 z_3451 + 46 z_3452 + 28 z_3453 + 8 z_3454 + 22 z_3455
        + 40 z_3456 + 21 z_3457 + 10 z_3458 + 96 z_3459 + 93 z_3460 + 24 z_3461
        + 12 z_3462 + 5 z_3463 + 3 z_3464 + 21 z_3465 + 64 z_3466 + 11 z_3467
        + 71 z_3468 + 78 z_3469 + z_3470 + 12 z_3471 + 99 z_3472 + 62 z_3473
        + 76 z_3474 + 37 z_3475 + 98 z_3476 + 24 z_3477 + 21 z_3478 + 57 z_3479
        + 61 z_3480 + 12 z_3481 + 30 z_3482 + 6 z_3483 + 92 z_3484 + 90 z_3485
        + 27 z_3486 + 83 z_3487 + 10 z_3488 + 88 z_3489 + 78 z_3490 + 55 z_3491
        + 63 z_3492 + 90 z_3493 + 59 z_3494 + 65 z_3495 + 62 z_3496 + 23 z_3497
        + 28 z_3498 + 32 z_3499 + 52 z_3500 + 28 z_3501 + 44 z_3502 + 50 z_3503
        + 42 z_3504 + 71 z_3505 + 38 z_3506 + 39 z_3507 + 47 z_3508 + 58 z_3509
        + 95 z_3510 + 7 z_3511 + 22 z_3512 + 77 z_3513 + 64 z_3514 + 13 z_3515
        + 66 z_3516 + 42 z_3517 + 95 z_3518 + 27 z_3519 + 81 z_3520 + 73 z_3521
        + 33 z_3522 + 43 z_3523 + 14 z_3524 + 92 z_3525 + 59 z_3526 + 75 z_3527
        + 66 z_3528 + 38 z_3529 + 7 z_3530 + 17 z_3531 + 66 z_3532 + 2 z_3533
        + 18 z_3534 + 59 z_3535 + 72 z_3536 + 56 z_3537 + 49 z_3538 + 70 z_3539
        + 13 z_3540 + 44 z_3541 + 76 z_3542 + 34 z_3543 + 72 z_3544 + 91 z_3545
        + 98 z_3546 + 89 z_3547 + 84 z_3548 + 93 z_3549 + 15 z_3550 + 64 z_3551
        + 17 z_3552 + 100 z_3553 + 58 z_3554 + 30 z_3555 + 91 z_3556 + 17 z_3557
        + 4 z_3558 + 56 z_3559 + 54 z_3560 + 10 z_3561 + 72 z_3562 + 71 z_3563
        + 11 z_3564 + 89 z_3565 + 81 z_3566 + 35 z_3567 + 96 z_3568 + 30 z_3569
        + 4 z_3570 + 9 z_3571 + 73 z_3572 + 32 z_3573 + 94 z_3574 + 96 z_3575
        + 74 z_3576 + 44 z_3577 + 84 z_3578 + 58 z_3579 + 36 z_3580 + 50 z_3581
        + 73 z_3582 + 4 z_3583 + 49 z_3584 + 31 z_3585 + 33 z_3586 + 91 z_3587
        + 99 z_3588 + 88 z_3589 + 46 z_3590 + 4 z_3591 + 98 z_3592 + 69 z_3593
        + 27 z_3594 + 60 z_3595 + 10 z_3596 + 7 z_3597 + 46 z_3598 + 5 z_3599
        + 36 z_3600 + 50 z_3601 + 65 z_3602 + 60 z_3603 + 33 z_3604 + 11 z_3605
        + 55 z_3606 + 6 z_3607 + 54 z_3608 + 90 z_3609 + 15 z_3610 + 41 z_3611
        + 92 z_3612 + 88 z_3613 + 44 z_3614 + 92 z_3615 + 70 z_3616 + 28 z_3617
        + 83 z_3618 + 20 z_3619 + 15 z_3620 + 80 z_3621 + 23 z_3622 + 12 z_3623
        + 49 z_3624 + 49 z_3625 + 24 z_3626 + 10 z_3627 + 8 z_3628 + 69 z_3629
        + 14 z_3630 + 43 z_3631 + 70 z_3632 + 31 z_3633 + 55 z_3634 + 2 z_3635
        + 41 z_3636 + 61 z_3637 + 60 z_3638 + 46 z_3639 + 51 z_3640 + 26 z_3641
        + 86 z_3642 + 94 z_3643 + 13 z_3644 + 81 z_3645 + 85 z_3646 + 34 z_3647
        + 8 z_3648 + 67 z_3649 + 53 z_3650 + 22 z_3651 + 99 z_3652 + 28 z_3653
        + 86 z_3654 + 99 z_3655 + 28 z_3656 + 61 z_3657 + 8 z_3658 + 35 z_3659
        + 29 z_3660 + 73 z_3661 + 30 z_3662 + 51 z_3663 + 3 z_3664 + 84 z_3665
        + 4 z_3666 + 95 z_3667 + 44 z_3668 + 63 z_3669 + 40 z_3670 + 46 z_3671
        + 89 z_3672 + 25 z_3673 + 39 z_3674 + 53 z_3675 + 5 z_3676 + 24 z_3677
        + 39 z_3678 + 64 z_3679 + 42 z_3680 + 43 z_3681 + 86 z_3682 + 40 z_3683
        + 22 z_3684 + 23 z_3685 + 38 z_3686 + 50 z_3687 + 83 z_3688 + 45 z_3689
        + 36 z_3690 + 63 z_3691 + 70 z_3692 + 17 z_3693 + 13 z_3694 + 72 z_3695
        + 100 z_3696 + 17 z_3697 + 67 z_3698 + 96 z_3699 + 31 z_3700 + 58 z_3701
        + 93 z_3702 + 71 z_3703 + 83 z_3704 + 32 z_3705 + 76 z_3706 + 39 z_3707
        + 7 z_3708 + 66 z_3709 + 55 z_3710 + 100 z_3711 + 8 z_3712 + 40 z_3713
        + 40 z_3714 + 82 z_3715 + 62 z_3716 + 29 z_3717 + 83 z_3718 + 96 z_3719
        + 26 z_3720 + 18 z_3721 + 58 z_3722 + 95 z_3723 + 35 z_3724 + 23 z_3725
        + 18 z_3726 + 86 z_3727 + 91 z_3728 + 36 z_3729 + 33 z_3730 + 73 z_3731
        + 94 z_3732 + 78 z_3733 + 44 z_3734 + 28 z_3735 + 9 z_3736 + 71 z_3737
        + 18 z_3738 + 67 z_3739 + 36 z_3740 + 72 z_3741 + 66 z_3742 + 95 z_3743
        + 63 z_3744 + 57 z_3745 + 76 z_3746 + 76 z_3747 + 38 z_3748 + 58 z_3749
        + 71 z_3750 + 63 z_3751 + 28 z_3752 + 81 z_3753 + 9 z_3754 + 14 z_3755
        + 3 z_3756 + 26 z_3757 + 51 z_3758 + 93 z_3759 + 14 z_3760 + 36 z_3761
        + 65 z_3762 + 59 z_3763 + 13 z_3764 + 60 z_3765 + 86 z_3766 + 73 z_3767
        + 30 z_3768 + 55 z_3769 + 91 z_3770 + 17 z_3771 + 27 z_3772 + 8 z_3773
        + 64 z_3774 + 89 z_3775 + 65 z_3776 + 91 z_3777 + 17 z_3778 + 54 z_3779
        + z_3780 + 87 z_3781 + 68 z_3782 + 28 z_3783 + 67 z_3784 + 76 z_3785
        + 93 z_3786 + 21 z_3787 + 53 z_3788 + 95 z_3789 + 65 z_3790 + 18 z_3791
        + 30 z_3792 + 30 z_3793 + 76 z_3794 + 94 z_3795 + 41 z_3796 + 13 z_3797
        + 66 z_3798 + 23 z_3799 + 68 z_3800 + 8 z_3801 + 39 z_3802 + 94 z_3803
        + 16 z_3804 + 54 z_3805 + 34 z_3806 + 32 z_3807 + 45 z_3808 + 50 z_3809
        + 85 z_3810 + 45 z_3811 + 89 z_3812 + 52 z_3813 + 24 z_3814 + 7 z_3815
        + 27 z_3816 + 68 z_3817 + 28 z_3818 + 31 z_3819 + 62 z_3820 + 92 z_3821
        + 49 z_3822 + 44 z_3823 + 73 z_3824 + 24 z_3825 + 37 z_3826 + 14 z_3827
        + 37 z_3828 + 55 z_3829 + 36 z_3830 + 56 z_3831 + 62 z_3832 + 26 z_3833
        + z_3834 + 77 z_3835 + 80 z_3836 + 34 z_3837 + 8 z_3838 + 76 z_3839
        + 36 z_3840 + 44 z_3841 + 20 z_3842 + 76 z_3843 + 95 z_3844 + 95 z_3845
        + 82 z_3846 + 73 z_3847 + 62 z_3848 + 61 z_3849 + 56 z_3850 + 23 z_3851
        + 53 z_3852 + 4 z_3853 + 18 z_3854 + 77 z_3855 + 79 z_3856 + 55 z_3857
        + 42 z_3858 + 67 z_3859 + 61 z_3860 + 77 z_3861 + 22 z_3862 + 22 z_3863
        + 55 z_3864 + 22 z_3865 + 51 z_3866 + 86 z_3867 + 8 z_3868 + 58 z_3869
        + 61 z_3870 + 43 z_3871 + 2 z_3872 + 32 z_3873 + 70 z_3874 + 48 z_3875
        + 26 z_3876 + 51 z_3877 + 21 z_3878 + 39 z_3879 + 12 z_3880 + 28 z_3881
        + 13 z_3882 + 16 z_3883 + 31 z_3884 + 31 z_3885 + 92 z_3886 + 61 z_3887
        + 37 z_3888 + 34 z_3889 + 28 z_3890 + 97 z_3891 + 62 z_3892 + 49 z_3893
        + 18 z_3894 + 68 z_3895 + 71 z_3896 + 68 z_3897 + 5 z_3898 + 78 z_3899
        + 78 z_3900 + 65 z_3901 + 72 z_3902 + 31 z_3903 + 48 z_3904 + 41 z_3905
        + 78 z_3906 + 73 z_3907 + 43 z_3908 + 50 z_3909 + 63 z_3910 + 54 z_3911
        + 77 z_3912 + 76 z_3913 + 21 z_3914 + 59 z_3915 + 6 z_3916 + 65 z_3917
        + 20 z_3918 + 42 z_3919 + 50 z_3920 + 47 z_3921 + 90 z_3922 + 63 z_3923
        + 95 z_3924 + 7 z_3925 + 83 z_3926 + 17 z_3927 + 27 z_3928 + 87 z_3929
        + 94 z_3930 + 4 z_3931 + 52 z_3932 + 17 z_3933 + 34 z_3934 + 99 z_3935
        + 57 z_3936 + 63 z_3937 + 24 z_3938 + 100 z_3939 + 13 z_3940 + 38 z_3941
        + 5 z_3942 + 41 z_3943 + 13 z_3944 + 78 z_3945 + 100 z_3946 + 70 z_3947
        + 94 z_3948 + 19 z_3949 + 63 z_3950 + 43 z_3951 + 65 z_3952 + 52 z_3953
        + 57 z_3954 + 11 z_3955 + 11 z_3956 + 39 z_3957 + 28 z_3958 + 37 z_3959
        + 26 z_3960 + 73 z_3961 + 40 z_3962 + 29 z_3963 + 90 z_3964 + 25 z_3965
        + 27 z_3966 + 98 z_3967 + 87 z_3968 + 2 z_3969 + 49 z_3970 + 51 z_3971
        + 92 z_3972 + 6 z_3973 + 92 z_3974 + 4 z_3975 + 83 z_3976 + 91 z_3977
        + 26 z_3978 + 76 z_3979 + 61 z_3980 + 88 z_3981 + 70 z_3982 + 25 z_3983
        + 40 z_3984 + 26 z_3985 + 87 z_3986 + 50 z_3987 + 17 z_3988 + 14 z_3989
        + 38 z_3990 + 42 z_3991 + 39 z_3992 + 29 z_3993 + 70 z_3994 + 28 z_3995
        + 53 z_3996 + 48 z_3997 + 77 z_3998 + 91 z_3999 + 2 z_4000 + 26 z_4001
        + 42 z_4002 + 93 z_4003 + 31 z_4004 + 85 z_4005 + 96 z_4006 + 65 z_4007
        + 27 z_4008 + 21 z_4009 + 92 z_4010 + 87 z_4011 + 61 z_4012 + 61 z_4013
        + 63 z_4014 + 52 z_4015 + 38 z_4016 + 49 z_4017 + 53 z_4018 + 54 z_4019
        + 15 z_4020 + 90 z_4021 + 95 z_4022 + 53 z_4023 + 18 z_4024 + 16 z_4025
        + 32 z_4026 + 22 z_4027 + 64 z_4028 + 8 z_4029 + 64 z_4030 + 17 z_4031
        + 85 z_4032 + 5 z_4033 + 9 z_4034 + 15 z_4035 + 41 z_4036 + 56 z_4037
        + 79 z_4038 + 67 z_4039 + 29 z_4040 + 70 z_4041 + 53 z_4042 + 89 z_4043
        + 82 z_4044 + 15 z_4045 + 92 z_4046 + 20 z_4047 + 16 z_4048 + 44 z_4049
        + 25 z_4050 + 30 z_4051 + 33 z_4052 + 72 z_4053 + 34 z_4054 + 2 z_4055
        + 87 z_4056 + 65 z_4057 + 75 z_4058 + 2 z_4059 + 24 z_4060 + 38 z_4061
        + 18 z_4062 + 9 z_4063 + 95 z_4064 + 78 z_4065 + 75 z_4066 + 35 z_4067
        + 34 z_4068 + 54 z_4069 + 54 z_4070 + 62 z_4071 + 75 z_4072 + 6 z_4073
        + 2 z_4074 + 9 z_4075 + 73 z_4076 + 93 z_4077 + 80 z_4078 + 88 z_4079
        + 36 z_4080 + 4 z_4081 + 17 z_4082 + 20 z_4083 + 75 z_4084 + 2 z_4085
        + 73 z_4086 + 14 z_4087 + 18 z_4088 + 47 z_4089 + 67 z_4090 + 41 z_4091
        + 36 z_4092 + 37 z_4093 + z_4094 + 30 z_4095 + 14 z_4096 + 76 z_4097
        + 17 z_4098 + 47 z_4099 + 81 z_4100 + 70 z_4101 + 60 z_4102 + 7 z_4103
        + 75 z_4104 + 61 z_4105 + 15 z_4106 + 99 z_4107 + 53 z_4108 + 94 z_4109
        + 86 z_4110 + 40 z_4111 + 50 z_4112 + 54 z_4113 + 59 z_4114 + 76 z_4115
        + 55 z_4116 + 83 z_4117 + 41 z_4118 + 72 z_4119 + 29 z_4120 + 8 z_4121
        + 65 z_4122 + 65 z_4123 + 44 z_4124 + 65 z_4125 + 46 z_4126 + 9 z_4127
        + 92 z_4128 + 62 z_4129 + 8 z_4130 + 24 z_4131 + 83 z_4132 + 67 z_4133
        + 31 z_4134 + 10 z_4135 + 80 z_4136 + 97 z_4137 + 8 z_4138 + 84 z_4139
        + 43 z_4140 + 94 z_4141 + 24 z_4142 + 92 z_4143 + 99 z_4144 + 34 z_4145
        + 67 z_4146 + 54 z_4147 + 69 z_4148 + 8 z_4149 + 25 z_4150 + 97 z_4151
        + 67 z_4152 + 41 z_4153 + 13 z_4154 + 62 z_4155 + 6 z_4156 + 11 z_4157
        + 70 z_4158 + 49 z_4159 + 24 z_4160 + 29 z_4161 + 73 z_4162 + 7 z_4163
        + 96 z_4164 + 55 z_4165 + 68 z_4166 + 27 z_4167 + 3 z_4168 + 75 z_4169
        + 10 z_4170 + 45 z_4171 + 20 z_4172 + 85 z_4173 + 36 z_4174 + 19 z_4175
        + 71 z_4176 + 55 z_4177 + 24 z_4178 + 39 z_4179 + 14 z_4180 + 48 z_4181
        + 87 z_4182 + 80 z_4183 + 41 z_4184 + 52 z_4185 + 93 z_4186 + 98 z_4187
        + 62 z_4188 + 62 z_4189 + 46 z_4190 + 37 z_4191 + 91 z_4192 + 70 z_4193
        + 43 z_4194 + 38 z_4195 + 24 z_4196 + 62 z_4197 + 16 z_4198 + 27 z_4199
        + 37 z_4200 + 25 z_4201 + 23 z_4202 + 8 z_4203 + 62 z_4204 + 11 z_4205
        + 26 z_4206 + 84 z_4207 + 65 z_4208 + 49 z_4209 + 22 z_4210 + 30 z_4211
        + 49 z_4212 + 60 z_4213 + 9 z_4214 + 89 z_4215 + 11 z_4216 + z_4217
        + 86 z_4218 + 24 z_4219 + 14 z_4220 + 83 z_4221 + 61 z_4222 + 56 z_4223
        + 53 z_4224 + 55 z_4225 + 45 z_4226 + 28 z_4227 + 17 z_4228 + 60 z_4229
        + 6 z_4230 + 5 z_4231 + 37 z_4232 + 29 z_4233 + 12 z_4234 + 50 z_4235
        + 39 z_4236 + 90 z_4237 + 33 z_4238 + 55 z_4239 + 90 z_4240 + 54 z_4241
        + 84 z_4242 + 38 z_4243 + 13 z_4244 + 44 z_4245 + 78 z_4246 + 76 z_4247
        + 96 z_4248 + 15 z_4249 + 99 z_4250 + 9 z_4251 + 50 z_4252 + 11 z_4253
        + 17 z_4254 + 2 z_4255 + 66 z_4256 + 13 z_4257 + 29 z_4258 + 34 z_4259
        + 73 z_4260 + 35 z_4261 + 38 z_4262 + 61 z_4263 + 15 z_4264 + z_4265
        + 10 z_4266 + 53 z_4267 + 90 z_4268 + 42 z_4269 + 7 z_4270 + 80 z_4271
        + 47 z_4272 + 90 z_4273 + 69 z_4274 + 11 z_4275 + 33 z_4276 + 99 z_4277
        + 86 z_4278 + 28 z_4279 + 13 z_4280 + 37 z_4281 + 88 z_4282 + 62 z_4283
        + 47 z_4284 + 56 z_4285 + 15 z_4286 + 64 z_4287 + 69 z_4288 + 96 z_4289
        + 49 z_4290 + 93 z_4291 + 82 z_4292 + 86 z_4293 + 53 z_4294 + 96 z_4295
        + 39 z_4296 + 14 z_4297 + 48 z_4298 + 28 z_4299 + 55 z_4300 + 6 z_4301
        + 7 z_4302 + z_4303 + 95 z_4304 + 28 z_4305 + 63 z_4306 + 79 z_4307
        + 26 z_4308 + 49 z_4309 + 58 z_4310 + 90 z_4311 + 85 z_4312 + 97 z_4313
        + 4 z_4314 + 83 z_4315 + 53 z_4316 + 18 z_4317 + 99 z_4318 + 73 z_4319
        + 13 z_4320 + 47 z_4321 + 65 z_4322 + 46 z_4323 + 85 z_4324 + 69 z_4325
        + 41 z_4326 + 23 z_4327 + 82 z_4328 + 88 z_4329 + 2 z_4330 + 88 z_4331
        + 45 z_4332 + 61 z_4333 + 40 z_4334 + 39 z_4335 + 88 z_4336 + 2 z_4337
        + 69 z_4338 + 13 z_4339 + 2 z_4340 + 78 z_4341 + 54 z_4342 + 86 z_4343
        + 75 z_4344 + 57 z_4345 + 21 z_4346 + 79 z_4347 + 27 z_4348 + 71 z_4349
        + 51 z_4350 + 91 z_4351 + 17 z_4352 + 67 z_4353 + 37 z_4354 + 53 z_4355
        + 87 z_4356 + 77 z_4357 + 75 z_4358 + 68 z_4359 + 17 z_4360 + 77 z_4361
        + 7 z_4362 + 61 z_4363 + 37 z_4364 + 46 z_4365 + 52 z_4366 + 76 z_4367
        + 99 z_4368 + 20 z_4369 + 40 z_4370 + z_4371 + 98 z_4372 + 93 z_4373
        + 38 z_4374 + 24 z_4375 + 2 z_4376 + 58 z_4377 + 2 z_4378 + 28 z_4379
        + 28 z_4380 + 4 z_4381 + 18 z_4382 + 97 z_4383 + 70 z_4384 + 54 z_4385
        + 49 z_4386 + 56 z_4387 + 83 z_4388 + 76 z_4389 + 75 z_4390 + 99 z_4391
        + 52 z_4392 + 81 z_4393 + 11 z_4394 + 40 z_4395 + 78 z_4396 + 62 z_4397
        + 15 z_4398 + 76 z_4399 + 34 z_4400 + 54 z_4401 + 76 z_4402 + 83 z_4403
        + 98 z_4404 + 14 z_4405 + 58 z_4406 + 99 z_4407 + 23 z_4408 + 59 z_4409
        + 26 z_4410 + 3 z_4411 + 14 z_4412 + 96 z_4413 + 99 z_4414 + 35 z_4415
        + z_4416 + 99 z_4417 + 42 z_4418 + 83 z_4419 + 74 z_4420 + 68 z_4421
        + 33 z_4422 + 25 z_4423 + 48 z_4424 + 44 z_4425 + 16 z_4426 + 77 z_4427
        + 57 z_4428 + 30 z_4429 + 4 z_4430 + 42 z_4431 + 35 z_4432 + 32 z_4433
        + 24 z_4434 + 33 z_4435 + 45 z_4436 + 81 z_4437 + 31 z_4438 + 19 z_4439
        + 91 z_4440 + 9 z_4441 + 21 z_4442 + 4 z_4443 + 4 z_4444 + 71 z_4445
        + 90 z_4446 + 4 z_4447 + 70 z_4448 + 31 z_4449 + 39 z_4450 + 43 z_4451
        + 98 z_4452 + 71 z_4453 + 20 z_4454 + 97 z_4455 + 66 z_4456 + 35 z_4457
        + 25 z_4458 + 23 z_4459 + 17 z_4460 + 29 z_4461 + 64 z_4462 + 51 z_4463
        + 60 z_4464 + 40 z_4465 + 35 z_4466 + 56 z_4467 + 72 z_4468 + 18 z_4469
        + 26 z_4470 + 63 z_4471 + 26 z_4472 + 47 z_4473 + 18 z_4474 + 81 z_4475
        + 69 z_4476 + 60 z_4477 + 84 z_4478 + 90 z_4479 + 90 z_4480 + 74 z_4481
        + 33 z_4482 + 40 z_4483 + 45 z_4484 + 4 z_4485 + 36 z_4486 + 10 z_4487
        + 38 z_4488 + 61 z_4489 + 84 z_4490 + 6 z_4491 + 41 z_4492 + 100 z_4493
        + 57 z_4494 + 100 z_4495 + 91 z_4496 + 43 z_4497 + 7 z_4498 + 62 z_4499
        + 60 z_4500 + 32 z_4501 + 76 z_4502 + 37 z_4503 + 30 z_4504 + 46 z_4505
        + 69 z_4506 + 99 z_4507 + 5 z_4508 + 53 z_4509 + 88 z_4510 + 94 z_4511
        + 78 z_4512 + 72 z_4513 + 33 z_4514 + 22 z_4515 + 75 z_4516 + 21 z_4517
        + 84 z_4518 + 65 z_4519 + 33 z_4520 + 19 z_4521 + 70 z_4522 + 73 z_4523
        + 18 z_4524 + 78 z_4525 + 24 z_4526 + 8 z_4527 + 21 z_4528 + 30 z_4529
        + 22 z_4530 + 32 z_4531 + 61 z_4532 + 97 z_4533 + 21 z_4534 + 91 z_4535
        + 42 z_4536 + 89 z_4537 + 41 z_4538 + 46 z_4539 + 93 z_4540 + 80 z_4541
        + 92 z_4542 + 71 z_4543 + 4 z_4544 + 76 z_4545 + 44 z_4546 + 30 z_4547
        + 96 z_4548 + 27 z_4549 + 94 z_4550 + 80 z_4551 + 46 z_4552 + 64 z_4553
        + 52 z_4554 + 15 z_4555 + 93 z_4556 + 75 z_4557 + 75 z_4558 + 65 z_4559
        + 4 z_4560 + 96 z_4561 + 97 z_4562 + 17 z_4563 + 92 z_4564 + 69 z_4565
        + 59 z_4566 + 86 z_4567 + 57 z_4568 + 51 z_4569 + 83 z_4570 + 2 z_4571
        + 82 z_4572 + 74 z_4573 + 72 z_4574 + 85 z_4575 + 2 z_4576 + 15 z_4577
        + 15 z_4578 + 49 z_4579 + 94 z_4580 + 60 z_4581 + 29 z_4582 + 39 z_4583
        + 75 z_4584 + 80 z_4585 + 5 z_4586 + 68 z_4587 + 7 z_4588 + 79 z_4589
        + 32 z_4590 + 62 z_4591 + 74 z_4592 + 80 z_4593 + 78 z_4594 + 18 z_4595
        + 48 z_4596 + 88 z_4597 + 3 z_4598 + 57 z_4599 + 38 z_4600 + 85 z_4601
        + 58 z_4602 + 72 z_4603 + 11 z_4604 + 81 z_4605 + 56 z_4606 + 12 z_4607
        + 95 z_4608 + 22 z_4609 + 60 z_4610 + 40 z_4611 + 82 z_4612 + 88 z_4613
        + 30 z_4614 + 8 z_4615 + 20 z_4616 + 35 z_4617 + 75 z_4618 + 78 z_4619
        + 13 z_4620 + 59 z_4621 + 39 z_4622 + 39 z_4623 + 38 z_4624 + 69 z_4625
        + 56 z_4626 + 38 z_4627 + 56 z_4628 + 10 z_4629 + 46 z_4630 + 46 z_4631
        + 94 z_4632 + 3 z_4633 + 69 z_4634 + 56 z_4635 + 83 z_4636 + 24 z_4637
        + 67 z_4638 + 29 z_4639 + 98 z_4640 + 79 z_4641 + 69 z_4642 + 31 z_4643
        + 18 z_4644 + 98 z_4645 + 38 z_4646 + 37 z_4647 + 84 z_4648 + 65 z_4649
        + 14 z_4650 + 97 z_4651 + 23 z_4652 + 5 z_4653 + 87 z_4654 + 12 z_4655
        + 73 z_4656 + 42 z_4657 + z_4658 + 80 z_4659 + 51 z_4660 + 46 z_4661
        + 77 z_4662 + 96 z_4663 + 100 z_4664 + 45 z_4665 + 4 z_4666 + 82 z_4667
        + 21 z_4668 + 22 z_4669 + 63 z_4670 + 18 z_4671 + 100 z_4672 + 83 z_4673
        + 100 z_4674 + 18 z_4675 + 32 z_4676 + 37 z_4677 + 6 z_4678 + 16 z_4679
        + 53 z_4680 + 20 z_4681 + 64 z_4682 + 27 z_4683 + 76 z_4684 + 50 z_4685
        + 39 z_4686 + 48 z_4687 + 43 z_4688 + 91 z_4689 + 27 z_4690 + 45 z_4691
        + 37 z_4692 + 56 z_4693 + 92 z_4694 + 36 z_4695 + 100 z_4696 + 95 z_4697
        + 70 z_4698 + 72 z_4699 + 17 z_4700 + 84 z_4701 + 41 z_4702 + 16 z_4703
        + 66 z_4704 + 40 z_4705 + 85 z_4706 + 97 z_4707 + 29 z_4708 + 91 z_4709
        + 64 z_4710 + 81 z_4711 + 62 z_4712 + 27 z_4713 + 8 z_4714 + 37 z_4715
        + 28 z_4716 + 98 z_4717 + 36 z_4718 + 70 z_4719 + 40 z_4720 + 14 z_4721
        + 14 z_4722 + 76 z_4723 + 69 z_4724 + 6 z_4725 + 64 z_4726 + 21 z_4727
        + 52 z_4728 + 85 z_4729 + 92 z_4730 + 68 z_4731 + 68 z_4732 + 33 z_4733
        + 36 z_4734 + 85 z_4735 + 72 z_4736 + 20 z_4737 + 33 z_4738 + 100 z_4739
        + 62 z_4740 + 97 z_4741 + 33 z_4742 + 23 z_4743 + 75 z_4744 + 40 z_4745
        + 11 z_4746 + 3 z_4747 + 89 z_4748 + 46 z_4749 + 24 z_4750 + 28 z_4751
        + 60 z_4752 + 90 z_4753 + 56 z_4754 + 28 z_4755 + 95 z_4756 + 71 z_4757
        + 48 z_4758 + 46 z_4759 + 55 z_4760 + 92 z_4761 + 66 z_4762 + 74 z_4763
        + 24 z_4764 + z_4765 + 10 z_4766 + 47 z_4767 + 72 z_4768 + 42 z_4769
        + 47 z_4770 + 34 z_4771 + 90 z_4772 + 31 z_4773 + 56 z_4774 + 65 z_4775
        + 70 z_4776 + 19 z_4777 + 19 z_4778 + 10 z_4779 + 64 z_4780 + 42 z_4781
        + 37 z_4782 + 23 z_4783 + 83 z_4784 + 44 z_4785 + 3 z_4786 + 77 z_4787
        + 14 z_4788 + 2 z_4789 + 75 z_4790 + 20 z_4791 + 93 z_4792 + 92 z_4793
        + 93 z_4794 + 68 z_4795 + 92 z_4796 + 2 z_4797 + 15 z_4798 + 63 z_4799
        + 96 z_4800 + 13 z_4801 + 48 z_4802 + 85 z_4803 + 43 z_4804 + 56 z_4805
        + z_4806 + 64 z_4807 + 74 z_4808 + 19 z_4809 + 73 z_4810 + 37 z_4811
        + 13 z_4812 + 61 z_4813 + 12 z_4814 + 95 z_4815 + 5 z_4816 + 66 z_4817
        + 24 z_4818 + 18 z_4819 + 19 z_4820 + 50 z_4821 + 38 z_4822 + 12 z_4823
        + 41 z_4824 + 82 z_4825 + 31 z_4826 + 84 z_4827 + 84 z_4828 + 45 z_4829
        + 98 z_4830 + 79 z_4831 + 57 z_4832 + 46 z_4833 + 15 z_4834 + 99 z_4835
        + z_4836 + 16 z_4837 + 62 z_4838 + 26 z_4839 + 86 z_4840 + 86 z_4841
        + 14 z_4842 + 50 z_4843 + 47 z_4844 + 25 z_4845 + 97 z_4846 + 51 z_4847
        + 42 z_4848 + 20 z_4849 + 68 z_4850 + 61 z_4851 + 21 z_4852 + 57 z_4853
        + 24 z_4854 + 61 z_4855 + 39 z_4856 + 54 z_4857 + 44 z_4858 + 74 z_4859
        + 99 z_4860 + 41 z_4861 + 4 z_4862 + 7 z_4863 + 38 z_4864 + 18 z_4865
        + 58 z_4866 + 38 z_4867 + 85 z_4868 + 71 z_4869 + 63 z_4870 + 71 z_4871
        + 57 z_4872 + 77 z_4873 + 72 z_4874 + 3 z_4875 + 53 z_4876 + 68 z_4877
        + 5 z_4878 + 95 z_4879 + 39 z_4880 + 72 z_4881 + 7 z_4882 + 59 z_4883
        + 81 z_4884 + 30 z_4885 + 71 z_4886 + 19 z_4887 + 35 z_4888 + 66 z_4889
        + 44 z_4890 + 33 z_4891 + 7 z_4892 + 47 z_4893 + 92 z_4894 + 96 z_4895
        + 16 z_4896 + 49 z_4897 + 34 z_4898 + z_4899 + 19 z_4900 + 48 z_4901
        + 23 z_4902 + 75 z_4903 + 76 z_4904 + 94 z_4905 + 29 z_4906 + 29 z_4907
        + 62 z_4908 + 33 z_4909 + 75 z_4910 + 100 z_4911 + 57 z_4912 + 33 z_4913
        + 11 z_4914 + 37 z_4915 + 62 z_4916 + 81 z_4917 + 7 z_4918 + 96 z_4919
        + 99 z_4920 + 50 z_4921 + 81 z_4922 + 57 z_4923 + 48 z_4924 + 24 z_4925
        + 52 z_4926 + 63 z_4927 + 72 z_4928 + 85 z_4929 + 63 z_4930 + 42 z_4931
        + 85 z_4932 + 85 z_4933 + 69 z_4934 + 60 z_4935 + 79 z_4936 + 97 z_4937
        + 40 z_4938 + 92 z_4939 + 30 z_4940 + 66 z_4941 + 43 z_4942 + 38 z_4943
        + 98 z_4944 + 5 z_4945 + 74 z_4946 + 11 z_4947 + 38 z_4948 + 32 z_4949
        + 59 z_4950 + 36 z_4951 + 33 z_4952 + 91 z_4953 + 92 z_4954 + 80 z_4955
        + 14 z_4956 + 43 z_4957 + 42 z_4958 + 85 z_4959 + 80 z_4960 + 5 z_4961
        + 78 z_4962 + 64 z_4963 + 41 z_4964 + 46 z_4965 + 75 z_4966 + 71 z_4967
        + 43 z_4968 + 67 z_4969 + 62 z_4970 + 24 z_4971 + 32 z_4972 + 57 z_4973
        + 61 z_4974 + 30 z_4975 + 61 z_4976 + 86 z_4977 + 92 z_4978 + 98 z_4979
        + 17 z_4980 + 50 z_4981 + 33 z_4982 + 49 z_4983 + 40 z_4984 + 24 z_4985
        + 28 z_4986 + 53 z_4987 + 19 z_4988 + 21 z_4989 + 89 z_4990 + 98 z_4991
        + 25 z_4992 + 67 z_4993 + 13 z_4994 + 18 z_4995 + 12 z_4996 + 87 z_4997
        + 88 z_4998 + 6 z_4999 >= 176304.799999999988

Bounds
 0 <= y_0 <= 1
 0 <= y_1 <= 1
 0 <= y_2 <= 1
 0 <= y_3 <= 1
 0 <= y_4 <= 1
 0 <= y_5 <= 1
 0 <= y_6 <= 1
 0 <= y_7 <= 1
 0 <= y_8 <= 1
 0 <= y_9 <= 1
 0 <= y_10 <= 1
 0 <= y_11 <= 1
 0 <= y_12 <= 1
 0 <= y_13 <= 1
 0 <= y_14 <= 1
 0 <= y_15 <= 1
 0 <= y_16 <= 1
 0 <= y_17 <= 1
 0 <= y_18 <= 1
 0 <= y_19 <= 1
 0 <= y_20 <= 1
 0 <= y_21 <= 1
 0 <= y_22 <= 1
 0 <= y_23 <= 1
 0 <= y_24 <= 1
 0 <= y_25 <= 1
 0 <= y_26 <= 1
 0 <= y_27 <= 1
 0 <= y_28 <= 1
 0 <= y_29 <= 1
 0 <= y_30 <= 1
 0 <= y_31 <= 1
 0 <= y_32 <= 1
 0 <= y_33 <= 1
 0 <= y_34 <= 1
 0 <= y_35 <= 1
 0 <= y_36 <= 1
 0 <= y_37 <= 1
 0 <= y_38 <= 1
 0 <= y_39 <= 1
 0 <= y_40 <= 1
 0 <= y_41 <= 1
 0 <= y_42 <= 1
 0 <= y_43 <= 1
 0 <= y_44 <= 1
 0 <= y_45 <= 1
 0 <= y_46 <= 1
 0 <= y_47 <= 1
 0 <= y_48 <= 1
 0 <= y_49 <= 1
 0 <= y_50 <= 1
 0 <= y_51 <= 1
 0 <= y_52 <= 1
 0 <= y_53 <= 1
 0 <= y_54 <= 1
 0 <= y_55 <= 1
 0 <= y_56 <= 1
 0 <= y_57 <= 1
 0 <= y_58 <= 1
 0 <= y_59 <= 1
 0 <= y_60 <= 1
 0 <= y_61 <= 1
 0 <= y_62 <= 1
 0 <= y_63 <= 1
 0 <= y_64 <= 1
 0 <= y_65 <= 1
 0 <= y_66 <= 1
 0 <= y_67 <= 1
 0 <= y_68 <= 1
 0 <= y_69 <= 1
 0 <= y_70 <= 1
 0 <= y_71 <= 1
 0 <= y_72 <= 1
 0 <= y_73 <= 1
 0 <= y_74 <= 1
 0 <= y_75 <= 1
 0 <= y_76 <= 1
 0 <= y_77 <= 1
 0 <= y_78 <= 1
 0 <= y_79 <= 1
 0 <= y_80 <= 1
 0 <= y_81 <= 1
 0 <= y_82 <= 1
 0 <= y_83 <= 1
 0 <= y_84 <= 1
 0 <= y_85 <= 1
 0 <= y_86 <= 1
 0 <= y_87 <= 1
 0 <= y_88 <= 1
 0 <= y_89 <= 1
 0 <= y_90 <= 1
 0 <= y_91 <= 1
 0 <= y_92 <= 1
 0 <= y_93 <= 1
 0 <= y_94 <= 1
 0 <= y_95 <= 1
 0 <= y_96 <= 1
 0 <= y_97 <= 1
 0 <= y_98 <= 1
 0 <= y_99 <= 1
 0 <= z_0 <= 1
 0 <= z_1 <= 1
 0 <= z_2 <= 1
 0 <= z_3 <= 1
 0 <= z_4 <= 1
 0 <= z_5 <= 1
 0 <= z_6 <= 1
 0 <= z_7 <= 1
 0 <= z_8 <= 1
 0 <= z_9 <= 1
 0 <= z_10 <= 1
 0 <= z_11 <= 1
 0 <= z_12 <= 1
 0 <= z_13 <= 1
 0 <= z_14 <= 1
 0 <= z_15 <= 1
 0 <= z_16 <= 1
 0 <= z_17 <= 1
 0 <= z_18 <= 1
 0 <= z_19 <= 1
 0 <= z_20 <= 1
 0 <= z_21 <= 1
 0 <= z_22 <= 1
 0 <= z_23 <= 1
 0 <= z_24 <= 1
 0 <= z_25 <= 1
 0 <= z_26 <= 1
 0 <= z_27 <= 1
 0 <= z_28 <= 1
 0 <= z_29 <= 1
 0 <= z_30 <= 1
 0 <= z_31 <= 1
 0 <= z_32 <= 1
 0 <= z_33 <= 1
 0 <= z_34 <= 1
 0 <= z_35 <= 1
 0 <= z_36 <= 1
 0 <= z_37 <= 1
 0 <= z_38 <= 1
 0 <= z_39 <= 1
 0 <= z_40 <= 1
 0 <= z_41 <= 1
 0 <= z_42 <= 1
 0 <= z_43 <= 1
 0 <= z_44 <= 1
 0 <= z_45 <= 1
 0 <= z_46 <= 1
 0 <= z_47 <= 1
 0 <= z_48 <= 1
 0 <= z_49 <= 1
 0 <= z_50 <= 1
 0 <= z_51 <= 1
 0 <= z_52 <= 1
 0 <= z_53 <= 1
 0 <= z_54 <= 1
 0 <= z_55 <= 1
 0 <= z_56 <= 1
 0 <= z_57 <= 1
 0 <= z_58 <= 1
 0 <= z_59 <= 1
 0 <= z_60 <= 1
 0 <= z_61 <= 1
 0 <= z_62 <= 1
 0 <= z_63 <= 1
 0 <= z_64 <= 1
 0 <= z_65 <= 1
 0 <= z_66 <= 1
 0 <= z_67 <= 1
 0 <= z_68 <= 1
 0 <= z_69 <= 1
 0 <= z_70 <= 1
 0 <= z_71 <= 1
 0 <= z_72 <= 1
 0 <= z_73 <= 1
 0 <= z_74 <= 1
 0 <= z_75 <= 1
 0 <= z_76 <= 1
 0 <= z_77 <= 1
 0 <= z_78 <= 1
 0 <= z_79 <= 1
 0 <= z_80 <= 1
 0 <= z_81 <= 1
 0 <= z_82 <= 1
 0 <= z_83 <= 1
 0 <= z_84 <= 1
 0 <= z_85 <= 1
 0 <= z_86 <= 1
 0 <= z_87 <= 1
 0 <= z_88 <= 1
 0 <= z_89 <= 1
 0 <= z_90 <= 1
 0 <= z_91 <= 1
 0 <= z_92 <= 1
 0 <= z_93 <= 1
 0 <= z_94 <= 1
 0 <= z_95 <= 1
 0 <= z_96 <= 1
 0 <= z_97 <= 1
 0 <= z_98 <= 1
 0 <= z_99 <= 1
 0 <= z_100 <= 1
 0 <= z_101 <= 1
 0 <= z_102 <= 1
 0 <= z_103 <= 1
 0 <= z_104 <= 1
 0 <= z_105 <= 1
 0 <= z_106 <= 1
 0 <= z_107 <= 1
 0 <= z_108 <= 1
 0 <= z_109 <= 1
 0 <= z_110 <= 1
 0 <= z_111 <= 1
 0 <= z_112 <= 1
 0 <= z_113 <= 1
 0 <= z_114 <= 1
 0 <= z_115 <= 1
 0 <= z_116 <= 1
 0 <= z_117 <= 1
 0 <= z_118 <= 1
 0 <= z_119 <= 1
 0 <= z_120 <= 1
 0 <= z_121 <= 1
 0 <= z_122 <= 1
 0 <= z_123 <= 1
 0 <= z_124 <= 1
 0 <= z_125 <= 1
 0 <= z_126 <= 1
 0 <= z_127 <= 1
 0 <= z_128 <= 1
 0 <= z_129 <= 1
 0 <= z_130 <= 1
 0 <= z_131 <= 1
 0 <= z_132 <= 1
 0 <= z_133 <= 1
 0 <= z_134 <= 1
 0 <= z_135 <= 1
 0 <= z_136 <= 1
 0 <= z_137 <= 1
 0 <= z_138 <= 1
 0 <= z_139 <= 1
 0 <= z_140 <= 1
 0 <= z_141 <= 1
 0 <= z_142 <= 1
 0 <= z_143 <= 1
 0 <= z_144 <= 1
 0 <= z_145 <= 1
 0 <= z_146 <= 1
 0 <= z_147 <= 1
 0 <= z_148 <= 1
 0 <= z_149 <= 1
 0 <= z_150 <= 1
 0 <= z_151 <= 1
 0 <= z_152 <= 1
 0 <= z_153 <= 1
 0 <= z_154 <= 1
 0 <= z_155 <= 1
 0 <= z_156 <= 1
 0 <= z_157 <= 1
 0 <= z_158 <= 1
 0 <= z_159 <= 1
 0 <= z_160 <= 1
 0 <= z_161 <= 1
 0 <= z_162 <= 1
 0 <= z_163 <= 1
 0 <= z_164 <= 1
 0 <= z_165 <= 1
 0 <= z_166 <= 1
 0 <= z_167 <= 1
 0 <= z_168 <= 1
 0 <= z_169 <= 1
 0 <= z_170 <= 1
 0 <= z_171 <= 1
 0 <= z_172 <= 1
 0 <= z_173 <= 1
 0 <= z_174 <= 1
 0 <= z_175 <= 1
 0 <= z_176 <= 1
 0 <= z_177 <= 1
 0 <= z_178 <= 1
 0 <= z_179 <= 1
 0 <= z_180 <= 1
 0 <= z_181 <= 1
 0 <= z_182 <= 1
 0 <= z_183 <= 1
 0 <= z_184 <= 1
 0 <= z_185 <= 1
 0 <= z_186 <= 1
 0 <= z_187 <= 1
 0 <= z_188 <= 1
 0 <= z_189 <= 1
 0 <= z_190 <= 1
 0 <= z_191 <= 1
 0 <= z_192 <= 1
 0 <= z_193 <= 1
 0 <= z_194 <= 1
 0 <= z_195 <= 1
 0 <= z_196 <= 1
 0 <= z_197 <= 1
 0 <= z_198 <= 1
 0 <= z_199 <= 1
 0 <= z_200 <= 1
 0 <= z_201 <= 1
 0 <= z_202 <= 1
 0 <= z_203 <= 1
 0 <= z_204 <= 1
 0 <= z_205 <= 1
 0 <= z_206 <= 1
 0 <= z_207 <= 1
 0 <= z_208 <= 1
 0 <= z_209 <= 1
 0 <= z_210 <= 1
 0 <= z_211 <= 1
 0 <= z_212 <= 1
 0 <= z_213 <= 1
 0 <= z_214 <= 1
 0 <= z_215 <= 1
 0 <= z_216 <= 1
 0 <= z_217 <= 1
 0 <= z_218 <= 1
 0 <= z_219 <= 1
 0 <= z_220 <= 1
 0 <= z_221 <= 1
 0 <= z_222 <= 1
 0 <= z_223 <= 1
 0 <= z_224 <= 1
 0 <= z_225 <= 1
 0 <= z_226 <= 1
 0 <= z_227 <= 1
 0 <= z_228 <= 1
 0 <= z_229 <= 1
 0 <= z_230 <= 1
 0 <= z_231 <= 1
 0 <= z_232 <= 1
 0 <= z_233 <= 1
 0 <= z_234 <= 1
 0 <= z_235 <= 1
 0 <= z_236 <= 1
 0 <= z_237 <= 1
 0 <= z_238 <= 1
 0 <= z_239 <= 1
 0 <= z_240 <= 1
 0 <= z_241 <= 1
 0 <= z_242 <= 1
 0 <= z_243 <= 1
 0 <= z_244 <= 1
 0 <= z_245 <= 1
 0 <= z_246 <= 1
 0 <= z_247 <= 1
 0 <= z_248 <= 1
 0 <= z_249 <= 1
 0 <= z_250 <= 1
 0 <= z_251 <= 1
 0 <= z_252 <= 1
 0 <= z_253 <= 1
 0 <= z_254 <= 1
 0 <= z_255 <= 1
 0 <= z_256 <= 1
 0 <= z_257 <= 1
 0 <= z_258 <= 1
 0 <= z_259 <= 1
 0 <= z_260 <= 1
 0 <= z_261 <= 1
 0 <= z_262 <= 1
 0 <= z_263 <= 1
 0 <= z_264 <= 1
 0 <= z_265 <= 1
 0 <= z_266 <= 1
 0 <= z_267 <= 1
 0 <= z_268 <= 1
 0 <= z_269 <= 1
 0 <= z_270 <= 1
 0 <= z_271 <= 1
 0 <= z_272 <= 1
 0 <= z_273 <= 1
 0 <= z_274 <= 1
 0 <= z_275 <= 1
 0 <= z_276 <= 1
 0 <= z_277 <= 1
 0 <= z_278 <= 1
 0 <= z_279 <= 1
 0 <= z_280 <= 1
 0 <= z_281 <= 1
 0 <= z_282 <= 1
 0 <= z_283 <= 1
 0 <= z_284 <= 1
 0 <= z_285 <= 1
 0 <= z_286 <= 1
 0 <= z_287 <= 1
 0 <= z_288 <= 1
 0 <= z_289 <= 1
 0 <= z_290 <= 1
 0 <= z_291 <= 1
 0 <= z_292 <= 1
 0 <= z_293 <= 1
 0 <= z_294 <= 1
 0 <= z_295 <= 1
 0 <= z_296 <= 1
 0 <= z_297 <= 1
 0 <= z_298 <= 1
 0 <= z_299 <= 1
 0 <= z_300 <= 1
 0 <= z_301 <= 1
 0 <= z_302 <= 1
 0 <= z_303 <= 1
 0 <= z_304 <= 1
 0 <= z_305 <= 1
 0 <= z_306 <= 1
 0 <= z_307 <= 1
 0 <= z_308 <= 1
 0 <= z_309 <= 1
 0 <= z_310 <= 1
 0 <= z_311 <= 1
 0 <= z_312 <= 1
 0 <= z_313 <= 1
 0 <= z_314 <= 1
 0 <= z_315 <= 1
 0 <= z_316 <= 1
 0 <= z_317 <= 1
 0 <= z_318 <= 1
 0 <= z_319 <= 1
 0 <= z_320 <= 1
 0 <= z_321 <= 1
 0 <= z_322 <= 1
 0 <= z_323 <= 1
 0 <= z_324 <= 1
 0 <= z_325 <= 1
 0 <= z_326 <= 1
 0 <= z_327 <= 1
 0 <= z_328 <= 1
 0 <= z_329 <= 1
 0 <= z_330 <= 1
 0 <= z_331 <= 1
 0 <= z_332 <= 1
 0 <= z_333 <= 1
 0 <= z_334 <= 1
 0 <= z_335 <= 1
 0 <= z_336 <= 1
 0 <= z_337 <= 1
 0 <= z_338 <= 1
 0 <= z_339 <= 1
 0 <= z_340 <= 1
 0 <= z_341 <= 1
 0 <= z_342 <= 1
 0 <= z_343 <= 1
 0 <= z_344 <= 1
 0 <= z_345 <= 1
 0 <= z_346 <= 1
 0 <= z_347 <= 1
 0 <= z_348 <= 1
 0 <= z_349 <= 1
 0 <= z_350 <= 1
 0 <= z_351 <= 1
 0 <= z_352 <= 1
 0 <= z_353 <= 1
 0 <= z_354 <= 1
 0 <= z_355 <= 1
 0 <= z_356 <= 1
 0 <= z_357 <= 1
 0 <= z_358 <= 1
 0 <= z_359 <= 1
 0 <= z_360 <= 1
 0 <= z_361 <= 1
 0 <= z_362 <= 1
 0 <= z_363 <= 1
 0 <= z_364 <= 1
 0 <= z_365 <= 1
 0 <= z_366 <= 1
 0 <= z_367 <= 1
 0 <= z_368 <= 1
 0 <= z_369 <= 1
 0 <= z_370 <= 1
 0 <= z_371 <= 1
 0 <= z_372 <= 1
 0 <= z_373 <= 1
 0 <= z_374 <= 1
 0 <= z_375 <= 1
 0 <= z_376 <= 1
 0 <= z_377 <= 1
 0 <= z_378 <= 1
 0 <= z_379 <= 1
 0 <= z_380 <= 1
 0 <= z_381 <= 1
 0 <= z_382 <= 1
 0 <= z_383 <= 1
 0 <= z_384 <= 1
 0 <= z_385 <= 1
 0 <= z_386 <= 1
 0 <= z_387 <= 1
 0 <= z_388 <= 1
 0 <= z_389 <= 1
 0 <= z_390 <= 1
 0 <= z_391 <= 1
 0 <= z_392 <= 1
 0 <= z_393 <= 1
 0 <= z_394 <= 1
 0 <= z_395 <= 1
 0 <= z_396 <= 1
 0 <= z_397 <= 1
 0 <= z_398 <= 1
 0 <= z_399 <= 1
 0 <= z_400 <= 1
 0 <= z_401 <= 1
 0 <= z_402 <= 1
 0 <= z_403 <= 1
 0 <= z_404 <= 1
 0 <= z_405 <= 1
 0 <= z_406 <= 1
 0 <= z_407 <= 1
 0 <= z_408 <= 1
 0 <= z_409 <= 1
 0 <= z_410 <= 1
 0 <= z_411 <= 1
 0 <= z_412 <= 1
 0 <= z_413 <= 1
 0 <= z_414 <= 1
 0 <= z_415 <= 1
 0 <= z_416 <= 1
 0 <= z_417 <= 1
 0 <= z_418 <= 1
 0 <= z_419 <= 1
 0 <= z_420 <= 1
 0 <= z_421 <= 1
 0 <= z_422 <= 1
 0 <= z_423 <= 1
 0 <= z_424 <= 1
 0 <= z_425 <= 1
 0 <= z_426 <= 1
 0 <= z_427 <= 1
 0 <= z_428 <= 1
 0 <= z_429 <= 1
 0 <= z_430 <= 1
 0 <= z_431 <= 1
 0 <= z_432 <= 1
 0 <= z_433 <= 1
 0 <= z_434 <= 1
 0 <= z_435 <= 1
 0 <= z_436 <= 1
 0 <= z_437 <= 1
 0 <= z_438 <= 1
 0 <= z_439 <= 1
 0 <= z_440 <= 1
 0 <= z_441 <= 1
 0 <= z_442 <= 1
 0 <= z_443 <= 1
 0 <= z_444 <= 1
 0 <= z_445 <= 1
 0 <= z_446 <= 1
 0 <= z_447 <= 1
 0 <= z_448 <= 1
 0 <= z_449 <= 1
 0 <= z_450 <= 1
 0 <= z_451 <= 1
 0 <= z_452 <= 1
 0 <= z_453 <= 1
 0 <= z_454 <= 1
 0 <= z_455 <= 1
 0 <= z_456 <= 1
 0 <= z_457 <= 1
 0 <= z_458 <= 1
 0 <= z_459 <= 1
 0 <= z_460 <= 1
 0 <= z_461 <= 1
 0 <= z_462 <= 1
 0 <= z_463 <= 1
 0 <= z_464 <= 1
 0 <= z_465 <= 1
 0 <= z_466 <= 1
 0 <= z_467 <= 1
 0 <= z_468 <= 1
 0 <= z_469 <= 1
 0 <= z_470 <= 1
 0 <= z_471 <= 1
 0 <= z_472 <= 1
 0 <= z_473 <= 1
 0 <= z_474 <= 1
 0 <= z_475 <= 1
 0 <= z_476 <= 1
 0 <= z_477 <= 1
 0 <= z_478 <= 1
 0 <= z_479 <= 1
 0 <= z_480 <= 1
 0 <= z_481 <= 1
 0 <= z_482 <= 1
 0 <= z_483 <= 1
 0 <= z_484 <= 1
 0 <= z_485 <= 1
 0 <= z_486 <= 1
 0 <= z_487 <= 1
 0 <= z_488 <= 1
 0 <= z_489 <= 1
 0 <= z_490 <= 1
 0 <= z_491 <= 1
 0 <= z_492 <= 1
 0 <= z_493 <= 1
 0 <= z_494 <= 1
 0 <= z_495 <= 1
 0 <= z_496 <= 1
 0 <= z_497 <= 1
 0 <= z_498 <= 1
 0 <= z_499 <= 1
 0 <= z_500 <= 1
 0 <= z_501 <= 1
 0 <= z_502 <= 1
 0 <= z_503 <= 1
 0 <= z_504 <= 1
 0 <= z_505 <= 1
 0 <= z_506 <= 1
 0 <= z_507 <= 1
 0 <= z_508 <= 1
 0 <= z_509 <= 1
 0 <= z_510 <= 1
 0 <= z_511 <= 1
 0 <= z_512 <= 1
 0 <= z_513 <= 1
 0 <= z_514 <= 1
 0 <= z_515 <= 1
 0 <= z_516 <= 1
 0 <= z_517 <= 1
 0 <= z_518 <= 1
 0 <= z_519 <= 1
 0 <= z_520 <= 1
 0 <= z_521 <= 1
 0 <= z_522 <= 1
 0 <= z_523 <= 1
 0 <= z_524 <= 1
 0 <= z_525 <= 1
 0 <= z_526 <= 1
 0 <= z_527 <= 1
 0 <= z_528 <= 1
 0 <= z_529 <= 1
 0 <= z_530 <= 1
 0 <= z_531 <= 1
 0 <= z_532 <= 1
 0 <= z_533 <= 1
 0 <= z_534 <= 1
 0 <= z_535 <= 1
 0 <= z_536 <= 1
 0 <= z_537 <= 1
 0 <= z_538 <= 1
 0 <= z_539 <= 1
 0 <= z_540 <= 1
 0 <= z_541 <= 1
 0 <= z_542 <= 1
 0 <= z_543 <= 1
 0 <= z_544 <= 1
 0 <= z_545 <= 1
 0 <= z_546 <= 1
 0 <= z_547 <= 1
 0 <= z_548 <= 1
 0 <= z_549 <= 1
 0 <= z_550 <= 1
 0 <= z_551 <= 1
 0 <= z_552 <= 1
 0 <= z_553 <= 1
 0 <= z_554 <= 1
 0 <= z_555 <= 1
 0 <= z_556 <= 1
 0 <= z_557 <= 1
 0 <= z_558 <= 1
 0 <= z_559 <= 1
 0 <= z_560 <= 1
 0 <= z_561 <= 1
 0 <= z_562 <= 1
 0 <= z_563 <= 1
 0 <= z_564 <= 1
 0 <= z_565 <= 1
 0 <= z_566 <= 1
 0 <= z_567 <= 1
 0 <= z_568 <= 1
 0 <= z_569 <= 1
 0 <= z_570 <= 1
 0 <= z_571 <= 1
 0 <= z_572 <= 1
 0 <= z_573 <= 1
 0 <= z_574 <= 1
 0 <= z_575 <= 1
 0 <= z_576 <= 1
 0 <= z_577 <= 1
 0 <= z_578 <= 1
 0 <= z_579 <= 1
 0 <= z_580 <= 1
 0 <= z_581 <= 1
 0 <= z_582 <= 1
 0 <= z_583 <= 1
 0 <= z_584 <= 1
 0 <= z_585 <= 1
 0 <= z_586 <= 1
 0 <= z_587 <= 1
 0 <= z_588 <= 1
 0 <= z_589 <= 1
 0 <= z_590 <= 1
 0 <= z_591 <= 1
 0 <= z_592 <= 1
 0 <= z_593 <= 1
 0 <= z_594 <= 1
 0 <= z_595 <= 1
 0 <= z_596 <= 1
 0 <= z_597 <= 1
 0 <= z_598 <= 1
 0 <= z_599 <= 1
 0 <= z_600 <= 1
 0 <= z_601 <= 1
 0 <= z_602 <= 1
 0 <= z_603 <= 1
 0 <= z_604 <= 1
 0 <= z_605 <= 1
 0 <= z_606 <= 1
 0 <= z_607 <= 1
 0 <= z_608 <= 1
 0 <= z_609 <= 1
 0 <= z_610 <= 1
 0 <= z_611 <= 1
 0 <= z_612 <= 1
 0 <= z_613 <= 1
 0 <= z_614 <= 1
 0 <= z_615 <= 1
 0 <= z_616 <= 1
 0 <= z_617 <= 1
 0 <= z_618 <= 1
 0 <= z_619 <= 1
 0 <= z_620 <= 1
 0 <= z_621 <= 1
 0 <= z_622 <= 1
 0 <= z_623 <= 1
 0 <= z_624 <= 1
 0 <= z_625 <= 1
 0 <= z_626 <= 1
 0 <= z_627 <= 1
 0 <= z_628 <= 1
 0 <= z_629 <= 1
 0 <= z_630 <= 1
 0 <= z_631 <= 1
 0 <= z_632 <= 1
 0 <= z_633 <= 1
 0 <= z_634 <= 1
 0 <= z_635 <= 1
 0 <= z_636 <= 1
 0 <= z_637 <= 1
 0 <= z_638 <= 1
 0 <= z_639 <= 1
 0 <= z_640 <= 1
 0 <= z_641 <= 1
 0 <= z_642 <= 1
 0 <= z_643 <= 1
 0 <= z_644 <= 1
 0 <= z_645 <= 1
 0 <= z_646 <= 1
 0 <= z_647 <= 1
 0 <= z_648 <= 1
 0 <= z_649 <= 1
 0 <= z_650 <= 1
 0 <= z_651 <= 1
 0 <= z_652 <= 1
 0 <= z_653 <= 1
 0 <= z_654 <= 1
 0 <= z_655 <= 1
 0 <= z_656 <= 1
 0 <= z_657 <= 1
 0 <= z_658 <= 1
 0 <= z_659 <= 1
 0 <= z_660 <= 1
 0 <= z_661 <= 1
 0 <= z_662 <= 1
 0 <= z_663 <= 1
 0 <= z_664 <= 1
 0 <= z_665 <= 1
 0 <= z_666 <= 1
 0 <= z_667 <= 1
 0 <= z_668 <= 1
 0 <= z_669 <= 1
 0 <= z_670 <= 1
 0 <= z_671 <= 1
 0 <= z_672 <= 1
 0 <= z_673 <= 1
 0 <= z_674 <= 1
 0 <= z_675 <= 1
 0 <= z_676 <= 1
 0 <= z_677 <= 1
 0 <= z_678 <= 1
 0 <= z_679 <= 1
 0 <= z_680 <= 1
 0 <= z_681 <= 1
 0 <= z_682 <= 1
 0 <= z_683 <= 1
 0 <= z_684 <= 1
 0 <= z_685 <= 1
 0 <= z_686 <= 1
 0 <= z_687 <= 1
 0 <= z_688 <= 1
 0 <= z_689 <= 1
 0 <= z_690 <= 1
 0 <= z_691 <= 1
 0 <= z_692 <= 1
 0 <= z_693 <= 1
 0 <= z_694 <= 1
 0 <= z_695 <= 1
 0 <= z_696 <= 1
 0 <= z_697 <= 1
 0 <= z_698 <= 1
 0 <= z_699 <= 1
 0 <= z_700 <= 1
 0 <= z_701 <= 1
 0 <= z_702 <= 1
 0 <= z_703 <= 1
 0 <= z_704 <= 1
 0 <= z_705 <= 1
 0 <= z_706 <= 1
 0 <= z_707 <= 1
 0 <= z_708 <= 1
 0 <= z_709 <= 1
 0 <= z_710 <= 1
 0 <= z_711 <= 1
 0 <= z_712 <= 1
 0 <= z_713 <= 1
 0 <= z_714 <= 1
 0 <= z_715 <= 1
 0 <= z_716 <= 1
 0 <= z_717 <= 1
 0 <= z_718 <= 1
 0 <= z_719 <= 1
 0 <= z_720 <= 1
 0 <= z_721 <= 1
 0 <= z_722 <= 1
 0 <= z_723 <= 1
 0 <= z_724 <= 1
 0 <= z_725 <= 1
 0 <= z_726 <= 1
 0 <= z_727 <= 1
 0 <= z_728 <= 1
 0 <= z_729 <= 1
 0 <= z_730 <= 1
 0 <= z_731 <= 1
 0 <= z_732 <= 1
 0 <= z_733 <= 1
 0 <= z_734 <= 1
 0 <= z_735 <= 1
 0 <= z_736 <= 1
 0 <= z_737 <= 1
 0 <= z_738 <= 1
 0 <= z_739 <= 1
 0 <= z_740 <= 1
 0 <= z_741 <= 1
 0 <= z_742 <= 1
 0 <= z_743 <= 1
 0 <= z_744 <= 1
 0 <= z_745 <= 1
 0 <= z_746 <= 1
 0 <= z_747 <= 1
 0 <= z_748 <= 1
 0 <= z_749 <= 1
 0 <= z_750 <= 1
 0 <= z_751 <= 1
 0 <= z_752 <= 1
 0 <= z_753 <= 1
 0 <= z_754 <= 1
 0 <= z_755 <= 1
 0 <= z_756 <= 1
 0 <= z_757 <= 1
 0 <= z_758 <= 1
 0 <= z_759 <= 1
 0 <= z_760 <= 1
 0 <= z_761 <= 1
 0 <= z_762 <= 1
 0 <= z_763 <= 1
 0 <= z_764 <= 1
 0 <= z_765 <= 1
 0 <= z_766 <= 1
 0 <= z_767 <= 1
 0 <= z_768 <= 1
 0 <= z_769 <= 1
 0 <= z_770 <= 1
 0 <= z_771 <= 1
 0 <= z_772 <= 1
 0 <= z_773 <= 1
 0 <= z_774 <= 1
 0 <= z_775 <= 1
 0 <= z_776 <= 1
 0 <= z_777 <= 1
 0 <= z_778 <= 1
 0 <= z_779 <= 1
 0 <= z_780 <= 1
 0 <= z_781 <= 1
 0 <= z_782 <= 1
 0 <= z_783 <= 1
 0 <= z_784 <= 1
 0 <= z_785 <= 1
 0 <= z_786 <= 1
 0 <= z_787 <= 1
 0 <= z_788 <= 1
 0 <= z_789 <= 1
 0 <= z_790 <= 1
 0 <= z_791 <= 1
 0 <= z_792 <= 1
 0 <= z_793 <= 1
 0 <= z_794 <= 1
 0 <= z_795 <= 1
 0 <= z_796 <= 1
 0 <= z_797 <= 1
 0 <= z_798 <= 1
 0 <= z_799 <= 1
 0 <= z_800 <= 1
 0 <= z_801 <= 1
 0 <= z_802 <= 1
 0 <= z_803 <= 1
 0 <= z_804 <= 1
 0 <= z_805 <= 1
 0 <= z_806 <= 1
 0 <= z_807 <= 1
 0 <= z_808 <= 1
 0 <= z_809 <= 1
 0 <= z_810 <= 1
 0 <= z_811 <= 1
 0 <= z_812 <= 1
 0 <= z_813 <= 1
 0 <= z_814 <= 1
 0 <= z_815 <= 1
 0 <= z_816 <= 1
 0 <= z_817 <= 1
 0 <= z_818 <= 1
 0 <= z_819 <= 1
 0 <= z_820 <= 1
 0 <= z_821 <= 1
 0 <= z_822 <= 1
 0 <= z_823 <= 1
 0 <= z_824 <= 1
 0 <= z_825 <= 1
 0 <= z_826 <= 1
 0 <= z_827 <= 1
 0 <= z_828 <= 1
 0 <= z_829 <= 1
 0 <= z_830 <= 1
 0 <= z_831 <= 1
 0 <= z_832 <= 1
 0 <= z_833 <= 1
 0 <= z_834 <= 1
 0 <= z_835 <= 1
 0 <= z_836 <= 1
 0 <= z_837 <= 1
 0 <= z_838 <= 1
 0 <= z_839 <= 1
 0 <= z_840 <= 1
 0 <= z_841 <= 1
 0 <= z_842 <= 1
 0 <= z_843 <= 1
 0 <= z_844 <= 1
 0 <= z_845 <= 1
 0 <= z_846 <= 1
 0 <= z_847 <= 1
 0 <= z_848 <= 1
 0 <= z_849 <= 1
 0 <= z_850 <= 1
 0 <= z_851 <= 1
 0 <= z_852 <= 1
 0 <= z_853 <= 1
 0 <= z_854 <= 1
 0 <= z_855 <= 1
 0 <= z_856 <= 1
 0 <= z_857 <= 1
 0 <= z_858 <= 1
 0 <= z_859 <= 1
 0 <= z_860 <= 1
 0 <= z_861 <= 1
 0 <= z_862 <= 1
 0 <= z_863 <= 1
 0 <= z_864 <= 1
 0 <= z_865 <= 1
 0 <= z_866 <= 1
 0 <= z_867 <= 1
 0 <= z_868 <= 1
 0 <= z_869 <= 1
 0 <= z_870 <= 1
 0 <= z_871 <= 1
 0 <= z_872 <= 1
 0 <= z_873 <= 1
 0 <= z_874 <= 1
 0 <= z_875 <= 1
 0 <= z_876 <= 1
 0 <= z_877 <= 1
 0 <= z_878 <= 1
 0 <= z_879 <= 1
 0 <= z_880 <= 1
 0 <= z_881 <= 1
 0 <= z_882 <= 1
 0 <= z_883 <= 1
 0 <= z_884 <= 1
 0 <= z_885 <= 1
 0 <= z_886 <= 1
 0 <= z_887 <= 1
 0 <= z_888 <= 1
 0 <= z_889 <= 1
 0 <= z_890 <= 1
 0 <= z_891 <= 1
 0 <= z_892 <= 1
 0 <= z_893 <= 1
 0 <= z_894 <= 1
 0 <= z_895 <= 1
 0 <= z_896 <= 1
 0 <= z_897 <= 1
 0 <= z_898 <= 1
 0 <= z_899 <= 1
 0 <= z_900 <= 1
 0 <= z_901 <= 1
 0 <= z_902 <= 1
 0 <= z_903 <= 1
 0 <= z_904 <= 1
 0 <= z_905 <= 1
 0 <= z_906 <= 1
 0 <= z_907 <= 1
 0 <= z_908 <= 1
 0 <= z_909 <= 1
 0 <= z_910 <= 1
 0 <= z_911 <= 1
 0 <= z_912 <= 1
 0 <= z_913 <= 1
 0 <= z_914 <= 1
 0 <= z_915 <= 1
 0 <= z_916 <= 1
 0 <= z_917 <= 1
 0 <= z_918 <= 1
 0 <= z_919 <= 1
 0 <= z_920 <= 1
 0 <= z_921 <= 1
 0 <= z_922 <= 1
 0 <= z_923 <= 1
 0 <= z_924 <= 1
 0 <= z_925 <= 1
 0 <= z_926 <= 1
 0 <= z_927 <= 1
 0 <= z_928 <= 1
 0 <= z_929 <= 1
 0 <= z_930 <= 1
 0 <= z_931 <= 1
 0 <= z_932 <= 1
 0 <= z_933 <= 1
 0 <= z_934 <= 1
 0 <= z_935 <= 1
 0 <= z_936 <= 1
 0 <= z_937 <= 1
 0 <= z_938 <= 1
 0 <= z_939 <= 1
 0 <= z_940 <= 1
 0 <= z_941 <= 1
 0 <= z_942 <= 1
 0 <= z_943 <= 1
 0 <= z_944 <= 1
 0 <= z_945 <= 1
 0 <= z_946 <= 1
 0 <= z_947 <= 1
 0 <= z_948 <= 1
 0 <= z_949 <= 1
 0 <= z_950 <= 1
 0 <= z_951 <= 1
 0 <= z_952 <= 1
 0 <= z_953 <= 1
 0 <= z_954 <= 1
 0 <= z_955 <= 1
 0 <= z_956 <= 1
 0 <= z_957 <= 1
 0 <= z_958 <= 1
 0 <= z_959 <= 1
 0 <= z_960 <= 1
 0 <= z_961 <= 1
 0 <= z_962 <= 1
 0 <= z_963 <= 1
 0 <= z_964 <= 1
 0 <= z_965 <= 1
 0 <= z_966 <= 1
 0 <= z_967 <= 1
 0 <= z_968 <= 1
 0 <= z_969 <= 1
 0 <= z_970 <= 1
 0 <= z_971 <= 1
 0 <= z_972 <= 1
 0 <= z_973 <= 1
 0 <= z_974 <= 1
 0 <= z_975 <= 1
 0 <= z_976 <= 1
 0 <= z_977 <= 1
 0 <= z_978 <= 1
 0 <= z_979 <= 1
 0 <= z_980 <= 1
 0 <= z_981 <= 1
 0 <= z_982 <= 1
 0 <= z_983 <= 1
 0 <= z_984 <= 1
 0 <= z_985 <= 1
 0 <= z_986 <= 1
 0 <= z_987 <= 1
 0 <= z_988 <= 1
 0 <= z_989 <= 1
 0 <= z_990 <= 1
 0 <= z_991 <= 1
 0 <= z_992 <= 1
 0 <= z_993 <= 1
 0 <= z_994 <= 1
 0 <= z_995 <= 1
 0 <= z_996 <= 1
 0 <= z_997 <= 1
 0 <= z_998 <= 1
 0 <= z_999 <= 1
 0 <= z_1000 <= 1
 0 <= z_1001 <= 1
 0 <= z_1002 <= 1
 0 <= z_1003 <= 1
 0 <= z_1004 <= 1
 0 <= z_1005 <= 1
 0 <= z_1006 <= 1
 0 <= z_1007 <= 1
 0 <= z_1008 <= 1
 0 <= z_1009 <= 1
 0 <= z_1010 <= 1
 0 <= z_1011 <= 1
 0 <= z_1012 <= 1
 0 <= z_1013 <= 1
 0 <= z_1014 <= 1
 0 <= z_1015 <= 1
 0 <= z_1016 <= 1
 0 <= z_1017 <= 1
 0 <= z_1018 <= 1
 0 <= z_1019 <= 1
 0 <= z_1020 <= 1
 0 <= z_1021 <= 1
 0 <= z_1022 <= 1
 0 <= z_1023 <= 1
 0 <= z_1024 <= 1
 0 <= z_1025 <= 1
 0 <= z_1026 <= 1
 0 <= z_1027 <= 1
 0 <= z_1028 <= 1
 0 <= z_1029 <= 1
 0 <= z_1030 <= 1
 0 <= z_1031 <= 1
 0 <= z_1032 <= 1
 0 <= z_1033 <= 1
 0 <= z_1034 <= 1
 0 <= z_1035 <= 1
 0 <= z_1036 <= 1
 0 <= z_1037 <= 1
 0 <= z_1038 <= 1
 0 <= z_1039 <= 1
 0 <= z_1040 <= 1
 0 <= z_1041 <= 1
 0 <= z_1042 <= 1
 0 <= z_1043 <= 1
 0 <= z_1044 <= 1
 0 <= z_1045 <= 1
 0 <= z_1046 <= 1
 0 <= z_1047 <= 1
 0 <= z_1048 <= 1
 0 <= z_1049 <= 1
 0 <= z_1050 <= 1
 0 <= z_1051 <= 1
 0 <= z_1052 <= 1
 0 <= z_1053 <= 1
 0 <= z_1054 <= 1
 0 <= z_1055 <= 1
 0 <= z_1056 <= 1
 0 <= z_1057 <= 1
 0 <= z_1058 <= 1
 0 <= z_1059 <= 1
 0 <= z_1060 <= 1
 0 <= z_1061 <= 1
 0 <= z_1062 <= 1
 0 <= z_1063 <= 1
 0 <= z_1064 <= 1
 0 <= z_1065 <= 1
 0 <= z_1066 <= 1
 0 <= z_1067 <= 1
 0 <= z_1068 <= 1
 0 <= z_1069 <= 1
 0 <= z_1070 <= 1
 0 <= z_1071 <= 1
 0 <= z_1072 <= 1
 0 <= z_1073 <= 1
 0 <= z_1074 <= 1
 0 <= z_1075 <= 1
 0 <= z_1076 <= 1
 0 <= z_1077 <= 1
 0 <= z_1078 <= 1
 0 <= z_1079 <= 1
 0 <= z_1080 <= 1
 0 <= z_1081 <= 1
 0 <= z_1082 <= 1
 0 <= z_1083 <= 1
 0 <= z_1084 <= 1
 0 <= z_1085 <= 1
 0 <= z_1086 <= 1
 0 <= z_1087 <= 1
 0 <= z_1088 <= 1
 0 <= z_1089 <= 1
 0 <= z_1090 <= 1
 0 <= z_1091 <= 1
 0 <= z_1092 <= 1
 0 <= z_1093 <= 1
 0 <= z_1094 <= 1
 0 <= z_1095 <= 1
 0 <= z_1096 <= 1
 0 <= z_1097 <= 1
 0 <= z_1098 <= 1
 0 <= z_1099 <= 1
 0 <= z_1100 <= 1
 0 <= z_1101 <= 1
 0 <= z_1102 <= 1
 0 <= z_1103 <= 1
 0 <= z_1104 <= 1
 0 <= z_1105 <= 1
 0 <= z_1106 <= 1
 0 <= z_1107 <= 1
 0 <= z_1108 <= 1
 0 <= z_1109 <= 1
 0 <= z_1110 <= 1
 0 <= z_1111 <= 1
 0 <= z_1112 <= 1
 0 <= z_1113 <= 1
 0 <= z_1114 <= 1
 0 <= z_1115 <= 1
 0 <= z_1116 <= 1
 0 <= z_1117 <= 1
 0 <= z_1118 <= 1
 0 <= z_1119 <= 1
 0 <= z_1120 <= 1
 0 <= z_1121 <= 1
 0 <= z_1122 <= 1
 0 <= z_1123 <= 1
 0 <= z_1124 <= 1
 0 <= z_1125 <= 1
 0 <= z_1126 <= 1
 0 <= z_1127 <= 1
 0 <= z_1128 <= 1
 0 <= z_1129 <= 1
 0 <= z_1130 <= 1
 0 <= z_1131 <= 1
 0 <= z_1132 <= 1
 0 <= z_1133 <= 1
 0 <= z_1134 <= 1
 0 <= z_1135 <= 1
 0 <= z_1136 <= 1
 0 <= z_1137 <= 1
 0 <= z_1138 <= 1
 0 <= z_1139 <= 1
 0 <= z_1140 <= 1
 0 <= z_1141 <= 1
 0 <= z_1142 <= 1
 0 <= z_1143 <= 1
 0 <= z_1144 <= 1
 0 <= z_1145 <= 1
 0 <= z_1146 <= 1
 0 <= z_1147 <= 1
 0 <= z_1148 <= 1
 0 <= z_1149 <= 1
 0 <= z_1150 <= 1
 0 <= z_1151 <= 1
 0 <= z_1152 <= 1
 0 <= z_1153 <= 1
 0 <= z_1154 <= 1
 0 <= z_1155 <= 1
 0 <= z_1156 <= 1
 0 <= z_1157 <= 1
 0 <= z_1158 <= 1
 0 <= z_1159 <= 1
 0 <= z_1160 <= 1
 0 <= z_1161 <= 1
 0 <= z_1162 <= 1
 0 <= z_1163 <= 1
 0 <= z_1164 <= 1
 0 <= z_1165 <= 1
 0 <= z_1166 <= 1
 0 <= z_1167 <= 1
 0 <= z_1168 <= 1
 0 <= z_1169 <= 1
 0 <= z_1170 <= 1
 0 <= z_1171 <= 1
 0 <= z_1172 <= 1
 0 <= z_1173 <= 1
 0 <= z_1174 <= 1
 0 <= z_1175 <= 1
 0 <= z_1176 <= 1
 0 <= z_1177 <= 1
 0 <= z_1178 <= 1
 0 <= z_1179 <= 1
 0 <= z_1180 <= 1
 0 <= z_1181 <= 1
 0 <= z_1182 <= 1
 0 <= z_1183 <= 1
 0 <= z_1184 <= 1
 0 <= z_1185 <= 1
 0 <= z_1186 <= 1
 0 <= z_1187 <= 1
 0 <= z_1188 <= 1
 0 <= z_1189 <= 1
 0 <= z_1190 <= 1
 0 <= z_1191 <= 1
 0 <= z_1192 <= 1
 0 <= z_1193 <= 1
 0 <= z_1194 <= 1
 0 <= z_1195 <= 1
 0 <= z_1196 <= 1
 0 <= z_1197 <= 1
 0 <= z_1198 <= 1
 0 <= z_1199 <= 1
 0 <= z_1200 <= 1
 0 <= z_1201 <= 1
 0 <= z_1202 <= 1
 0 <= z_1203 <= 1
 0 <= z_1204 <= 1
 0 <= z_1205 <= 1
 0 <= z_1206 <= 1
 0 <= z_1207 <= 1
 0 <= z_1208 <= 1
 0 <= z_1209 <= 1
 0 <= z_1210 <= 1
 0 <= z_1211 <= 1
 0 <= z_1212 <= 1
 0 <= z_1213 <= 1
 0 <= z_1214 <= 1
 0 <= z_1215 <= 1
 0 <= z_1216 <= 1
 0 <= z_1217 <= 1
 0 <= z_1218 <= 1
 0 <= z_1219 <= 1
 0 <= z_1220 <= 1
 0 <= z_1221 <= 1
 0 <= z_1222 <= 1
 0 <= z_1223 <= 1
 0 <= z_1224 <= 1
 0 <= z_1225 <= 1
 0 <= z_1226 <= 1
 0 <= z_1227 <= 1
 0 <= z_1228 <= 1
 0 <= z_1229 <= 1
 0 <= z_1230 <= 1
 0 <= z_1231 <= 1
 0 <= z_1232 <= 1
 0 <= z_1233 <= 1
 0 <= z_1234 <= 1
 0 <= z_1235 <= 1
 0 <= z_1236 <= 1
 0 <= z_1237 <= 1
 0 <= z_1238 <= 1
 0 <= z_1239 <= 1
 0 <= z_1240 <= 1
 0 <= z_1241 <= 1
 0 <= z_1242 <= 1
 0 <= z_1243 <= 1
 0 <= z_1244 <= 1
 0 <= z_1245 <= 1
 0 <= z_1246 <= 1
 0 <= z_1247 <= 1
 0 <= z_1248 <= 1
 0 <= z_1249 <= 1
 0 <= z_1250 <= 1
 0 <= z_1251 <= 1
 0 <= z_1252 <= 1
 0 <= z_1253 <= 1
 0 <= z_1254 <= 1
 0 <= z_1255 <= 1
 0 <= z_1256 <= 1
 0 <= z_1257 <= 1
 0 <= z_1258 <= 1
 0 <= z_1259 <= 1
 0 <= z_1260 <= 1
 0 <= z_1261 <= 1
 0 <= z_1262 <= 1
 0 <= z_1263 <= 1
 0 <= z_1264 <= 1
 0 <= z_1265 <= 1
 0 <= z_1266 <= 1
 0 <= z_1267 <= 1
 0 <= z_1268 <= 1
 0 <= z_1269 <= 1
 0 <= z_1270 <= 1
 0 <= z_1271 <= 1
 0 <= z_1272 <= 1
 0 <= z_1273 <= 1
 0 <= z_1274 <= 1
 0 <= z_1275 <= 1
 0 <= z_1276 <= 1
 0 <= z_1277 <= 1
 0 <= z_1278 <= 1
 0 <= z_1279 <= 1
 0 <= z_1280 <= 1
 0 <= z_1281 <= 1
 0 <= z_1282 <= 1
 0 <= z_1283 <= 1
 0 <= z_1284 <= 1
 0 <= z_1285 <= 1
 0 <= z_1286 <= 1
 0 <= z_1287 <= 1
 0 <= z_1288 <= 1
 0 <= z_1289 <= 1
 0 <= z_1290 <= 1
 0 <= z_1291 <= 1
 0 <= z_1292 <= 1
 0 <= z_1293 <= 1
 0 <= z_1294 <= 1
 0 <= z_1295 <= 1
 0 <= z_1296 <= 1
 0 <= z_1297 <= 1
 0 <= z_1298 <= 1
 0 <= z_1299 <= 1
 0 <= z_1300 <= 1
 0 <= z_1301 <= 1
 0 <= z_1302 <= 1
 0 <= z_1303 <= 1
 0 <= z_1304 <= 1
 0 <= z_1305 <= 1
 0 <= z_1306 <= 1
 0 <= z_1307 <= 1
 0 <= z_1308 <= 1
 0 <= z_1309 <= 1
 0 <= z_1310 <= 1
 0 <= z_1311 <= 1
 0 <= z_1312 <= 1
 0 <= z_1313 <= 1
 0 <= z_1314 <= 1
 0 <= z_1315 <= 1
 0 <= z_1316 <= 1
 0 <= z_1317 <= 1
 0 <= z_1318 <= 1
 0 <= z_1319 <= 1
 0 <= z_1320 <= 1
 0 <= z_1321 <= 1
 0 <= z_1322 <= 1
 0 <= z_1323 <= 1
 0 <= z_1324 <= 1
 0 <= z_1325 <= 1
 0 <= z_1326 <= 1
 0 <= z_1327 <= 1
 0 <= z_1328 <= 1
 0 <= z_1329 <= 1
 0 <= z_1330 <= 1
 0 <= z_1331 <= 1
 0 <= z_1332 <= 1
 0 <= z_1333 <= 1
 0 <= z_1334 <= 1
 0 <= z_1335 <= 1
 0 <= z_1336 <= 1
 0 <= z_1337 <= 1
 0 <= z_1338 <= 1
 0 <= z_1339 <= 1
 0 <= z_1340 <= 1
 0 <= z_1341 <= 1
 0 <= z_1342 <= 1
 0 <= z_1343 <= 1
 0 <= z_1344 <= 1
 0 <= z_1345 <= 1
 0 <= z_1346 <= 1
 0 <= z_1347 <= 1
 0 <= z_1348 <= 1
 0 <= z_1349 <= 1
 0 <= z_1350 <= 1
 0 <= z_1351 <= 1
 0 <= z_1352 <= 1
 0 <= z_1353 <= 1
 0 <= z_1354 <= 1
 0 <= z_1355 <= 1
 0 <= z_1356 <= 1
 0 <= z_1357 <= 1
 0 <= z_1358 <= 1
 0 <= z_1359 <= 1
 0 <= z_1360 <= 1
 0 <= z_1361 <= 1
 0 <= z_1362 <= 1
 0 <= z_1363 <= 1
 0 <= z_1364 <= 1
 0 <= z_1365 <= 1
 0 <= z_1366 <= 1
 0 <= z_1367 <= 1
 0 <= z_1368 <= 1
 0 <= z_1369 <= 1
 0 <= z_1370 <= 1
 0 <= z_1371 <= 1
 0 <= z_1372 <= 1
 0 <= z_1373 <= 1
 0 <= z_1374 <= 1
 0 <= z_1375 <= 1
 0 <= z_1376 <= 1
 0 <= z_1377 <= 1
 0 <= z_1378 <= 1
 0 <= z_1379 <= 1
 0 <= z_1380 <= 1
 0 <= z_1381 <= 1
 0 <= z_1382 <= 1
 0 <= z_1383 <= 1
 0 <= z_1384 <= 1
 0 <= z_1385 <= 1
 0 <= z_1386 <= 1
 0 <= z_1387 <= 1
 0 <= z_1388 <= 1
 0 <= z_1389 <= 1
 0 <= z_1390 <= 1
 0 <= z_1391 <= 1
 0 <= z_1392 <= 1
 0 <= z_1393 <= 1
 0 <= z_1394 <= 1
 0 <= z_1395 <= 1
 0 <= z_1396 <= 1
 0 <= z_1397 <= 1
 0 <= z_1398 <= 1
 0 <= z_1399 <= 1
 0 <= z_1400 <= 1
 0 <= z_1401 <= 1
 0 <= z_1402 <= 1
 0 <= z_1403 <= 1
 0 <= z_1404 <= 1
 0 <= z_1405 <= 1
 0 <= z_1406 <= 1
 0 <= z_1407 <= 1
 0 <= z_1408 <= 1
 0 <= z_1409 <= 1
 0 <= z_1410 <= 1
 0 <= z_1411 <= 1
 0 <= z_1412 <= 1
 0 <= z_1413 <= 1
 0 <= z_1414 <= 1
 0 <= z_1415 <= 1
 0 <= z_1416 <= 1
 0 <= z_1417 <= 1
 0 <= z_1418 <= 1
 0 <= z_1419 <= 1
 0 <= z_1420 <= 1
 0 <= z_1421 <= 1
 0 <= z_1422 <= 1
 0 <= z_1423 <= 1
 0 <= z_1424 <= 1
 0 <= z_1425 <= 1
 0 <= z_1426 <= 1
 0 <= z_1427 <= 1
 0 <= z_1428 <= 1
 0 <= z_1429 <= 1
 0 <= z_1430 <= 1
 0 <= z_1431 <= 1
 0 <= z_1432 <= 1
 0 <= z_1433 <= 1
 0 <= z_1434 <= 1
 0 <= z_1435 <= 1
 0 <= z_1436 <= 1
 0 <= z_1437 <= 1
 0 <= z_1438 <= 1
 0 <= z_1439 <= 1
 0 <= z_1440 <= 1
 0 <= z_1441 <= 1
 0 <= z_1442 <= 1
 0 <= z_1443 <= 1
 0 <= z_1444 <= 1
 0 <= z_1445 <= 1
 0 <= z_1446 <= 1
 0 <= z_1447 <= 1
 0 <= z_1448 <= 1
 0 <= z_1449 <= 1
 0 <= z_1450 <= 1
 0 <= z_1451 <= 1
 0 <= z_1452 <= 1
 0 <= z_1453 <= 1
 0 <= z_1454 <= 1
 0 <= z_1455 <= 1
 0 <= z_1456 <= 1
 0 <= z_1457 <= 1
 0 <= z_1458 <= 1
 0 <= z_1459 <= 1
 0 <= z_1460 <= 1
 0 <= z_1461 <= 1
 0 <= z_1462 <= 1
 0 <= z_1463 <= 1
 0 <= z_1464 <= 1
 0 <= z_1465 <= 1
 0 <= z_1466 <= 1
 0 <= z_1467 <= 1
 0 <= z_1468 <= 1
 0 <= z_1469 <= 1
 0 <= z_1470 <= 1
 0 <= z_1471 <= 1
 0 <= z_1472 <= 1
 0 <= z_1473 <= 1
 0 <= z_1474 <= 1
 0 <= z_1475 <= 1
 0 <= z_1476 <= 1
 0 <= z_1477 <= 1
 0 <= z_1478 <= 1
 0 <= z_1479 <= 1
 0 <= z_1480 <= 1
 0 <= z_1481 <= 1
 0 <= z_1482 <= 1
 0 <= z_1483 <= 1
 0 <= z_1484 <= 1
 0 <= z_1485 <= 1
 0 <= z_1486 <= 1
 0 <= z_1487 <= 1
 0 <= z_1488 <= 1
 0 <= z_1489 <= 1
 0 <= z_1490 <= 1
 0 <= z_1491 <= 1
 0 <= z_1492 <= 1
 0 <= z_1493 <= 1
 0 <= z_1494 <= 1
 0 <= z_1495 <= 1
 0 <= z_1496 <= 1
 0 <= z_1497 <= 1
 0 <= z_1498 <= 1
 0 <= z_1499 <= 1
 0 <= z_1500 <= 1
 0 <= z_1501 <= 1
 0 <= z_1502 <= 1
 0 <= z_1503 <= 1
 0 <= z_1504 <= 1
 0 <= z_1505 <= 1
 0 <= z_1506 <= 1
 0 <= z_1507 <= 1
 0 <= z_1508 <= 1
 0 <= z_1509 <= 1
 0 <= z_1510 <= 1
 0 <= z_1511 <= 1
 0 <= z_1512 <= 1
 0 <= z_1513 <= 1
 0 <= z_1514 <= 1
 0 <= z_1515 <= 1
 0 <= z_1516 <= 1
 0 <= z_1517 <= 1
 0 <= z_1518 <= 1
 0 <= z_1519 <= 1
 0 <= z_1520 <= 1
 0 <= z_1521 <= 1
 0 <= z_1522 <= 1
 0 <= z_1523 <= 1
 0 <= z_1524 <= 1
 0 <= z_1525 <= 1
 0 <= z_1526 <= 1
 0 <= z_1527 <= 1
 0 <= z_1528 <= 1
 0 <= z_1529 <= 1
 0 <= z_1530 <= 1
 0 <= z_1531 <= 1
 0 <= z_1532 <= 1
 0 <= z_1533 <= 1
 0 <= z_1534 <= 1
 0 <= z_1535 <= 1
 0 <= z_1536 <= 1
 0 <= z_1537 <= 1
 0 <= z_1538 <= 1
 0 <= z_1539 <= 1
 0 <= z_1540 <= 1
 0 <= z_1541 <= 1
 0 <= z_1542 <= 1
 0 <= z_1543 <= 1
 0 <= z_1544 <= 1
 0 <= z_1545 <= 1
 0 <= z_1546 <= 1
 0 <= z_1547 <= 1
 0 <= z_1548 <= 1
 0 <= z_1549 <= 1
 0 <= z_1550 <= 1
 0 <= z_1551 <= 1
 0 <= z_1552 <= 1
 0 <= z_1553 <= 1
 0 <= z_1554 <= 1
 0 <= z_1555 <= 1
 0 <= z_1556 <= 1
 0 <= z_1557 <= 1
 0 <= z_1558 <= 1
 0 <= z_1559 <= 1
 0 <= z_1560 <= 1
 0 <= z_1561 <= 1
 0 <= z_1562 <= 1
 0 <= z_1563 <= 1
 0 <= z_1564 <= 1
 0 <= z_1565 <= 1
 0 <= z_1566 <= 1
 0 <= z_1567 <= 1
 0 <= z_1568 <= 1
 0 <= z_1569 <= 1
 0 <= z_1570 <= 1
 0 <= z_1571 <= 1
 0 <= z_1572 <= 1
 0 <= z_1573 <= 1
 0 <= z_1574 <= 1
 0 <= z_1575 <= 1
 0 <= z_1576 <= 1
 0 <= z_1577 <= 1
 0 <= z_1578 <= 1
 0 <= z_1579 <= 1
 0 <= z_1580 <= 1
 0 <= z_1581 <= 1
 0 <= z_1582 <= 1
 0 <= z_1583 <= 1
 0 <= z_1584 <= 1
 0 <= z_1585 <= 1
 0 <= z_1586 <= 1
 0 <= z_1587 <= 1
 0 <= z_1588 <= 1
 0 <= z_1589 <= 1
 0 <= z_1590 <= 1
 0 <= z_1591 <= 1
 0 <= z_1592 <= 1
 0 <= z_1593 <= 1
 0 <= z_1594 <= 1
 0 <= z_1595 <= 1
 0 <= z_1596 <= 1
 0 <= z_1597 <= 1
 0 <= z_1598 <= 1
 0 <= z_1599 <= 1
 0 <= z_1600 <= 1
 0 <= z_1601 <= 1
 0 <= z_1602 <= 1
 0 <= z_1603 <= 1
 0 <= z_1604 <= 1
 0 <= z_1605 <= 1
 0 <= z_1606 <= 1
 0 <= z_1607 <= 1
 0 <= z_1608 <= 1
 0 <= z_1609 <= 1
 0 <= z_1610 <= 1
 0 <= z_1611 <= 1
 0 <= z_1612 <= 1
 0 <= z_1613 <= 1
 0 <= z_1614 <= 1
 0 <= z_1615 <= 1
 0 <= z_1616 <= 1
 0 <= z_1617 <= 1
 0 <= z_1618 <= 1
 0 <= z_1619 <= 1
 0 <= z_1620 <= 1
 0 <= z_1621 <= 1
 0 <= z_1622 <= 1
 0 <= z_1623 <= 1
 0 <= z_1624 <= 1
 0 <= z_1625 <= 1
 0 <= z_1626 <= 1
 0 <= z_1627 <= 1
 0 <= z_1628 <= 1
 0 <= z_1629 <= 1
 0 <= z_1630 <= 1
 0 <= z_1631 <= 1
 0 <= z_1632 <= 1
 0 <= z_1633 <= 1
 0 <= z_1634 <= 1
 0 <= z_1635 <= 1
 0 <= z_1636 <= 1
 0 <= z_1637 <= 1
 0 <= z_1638 <= 1
 0 <= z_1639 <= 1
 0 <= z_1640 <= 1
 0 <= z_1641 <= 1
 0 <= z_1642 <= 1
 0 <= z_1643 <= 1
 0 <= z_1644 <= 1
 0 <= z_1645 <= 1
 0 <= z_1646 <= 1
 0 <= z_1647 <= 1
 0 <= z_1648 <= 1
 0 <= z_1649 <= 1
 0 <= z_1650 <= 1
 0 <= z_1651 <= 1
 0 <= z_1652 <= 1
 0 <= z_1653 <= 1
 0 <= z_1654 <= 1
 0 <= z_1655 <= 1
 0 <= z_1656 <= 1
 0 <= z_1657 <= 1
 0 <= z_1658 <= 1
 0 <= z_1659 <= 1
 0 <= z_1660 <= 1
 0 <= z_1661 <= 1
 0 <= z_1662 <= 1
 0 <= z_1663 <= 1
 0 <= z_1664 <= 1
 0 <= z_1665 <= 1
 0 <= z_1666 <= 1
 0 <= z_1667 <= 1
 0 <= z_1668 <= 1
 0 <= z_1669 <= 1
 0 <= z_1670 <= 1
 0 <= z_1671 <= 1
 0 <= z_1672 <= 1
 0 <= z_1673 <= 1
 0 <= z_1674 <= 1
 0 <= z_1675 <= 1
 0 <= z_1676 <= 1
 0 <= z_1677 <= 1
 0 <= z_1678 <= 1
 0 <= z_1679 <= 1
 0 <= z_1680 <= 1
 0 <= z_1681 <= 1
 0 <= z_1682 <= 1
 0 <= z_1683 <= 1
 0 <= z_1684 <= 1
 0 <= z_1685 <= 1
 0 <= z_1686 <= 1
 0 <= z_1687 <= 1
 0 <= z_1688 <= 1
 0 <= z_1689 <= 1
 0 <= z_1690 <= 1
 0 <= z_1691 <= 1
 0 <= z_1692 <= 1
 0 <= z_1693 <= 1
 0 <= z_1694 <= 1
 0 <= z_1695 <= 1
 0 <= z_1696 <= 1
 0 <= z_1697 <= 1
 0 <= z_1698 <= 1
 0 <= z_1699 <= 1
 0 <= z_1700 <= 1
 0 <= z_1701 <= 1
 0 <= z_1702 <= 1
 0 <= z_1703 <= 1
 0 <= z_1704 <= 1
 0 <= z_1705 <= 1
 0 <= z_1706 <= 1
 0 <= z_1707 <= 1
 0 <= z_1708 <= 1
 0 <= z_1709 <= 1
 0 <= z_1710 <= 1
 0 <= z_1711 <= 1
 0 <= z_1712 <= 1
 0 <= z_1713 <= 1
 0 <= z_1714 <= 1
 0 <= z_1715 <= 1
 0 <= z_1716 <= 1
 0 <= z_1717 <= 1
 0 <= z_1718 <= 1
 0 <= z_1719 <= 1
 0 <= z_1720 <= 1
 0 <= z_1721 <= 1
 0 <= z_1722 <= 1
 0 <= z_1723 <= 1
 0 <= z_1724 <= 1
 0 <= z_1725 <= 1
 0 <= z_1726 <= 1
 0 <= z_1727 <= 1
 0 <= z_1728 <= 1
 0 <= z_1729 <= 1
 0 <= z_1730 <= 1
 0 <= z_1731 <= 1
 0 <= z_1732 <= 1
 0 <= z_1733 <= 1
 0 <= z_1734 <= 1
 0 <= z_1735 <= 1
 0 <= z_1736 <= 1
 0 <= z_1737 <= 1
 0 <= z_1738 <= 1
 0 <= z_1739 <= 1
 0 <= z_1740 <= 1
 0 <= z_1741 <= 1
 0 <= z_1742 <= 1
 0 <= z_1743 <= 1
 0 <= z_1744 <= 1
 0 <= z_1745 <= 1
 0 <= z_1746 <= 1
 0 <= z_1747 <= 1
 0 <= z_1748 <= 1
 0 <= z_1749 <= 1
 0 <= z_1750 <= 1
 0 <= z_1751 <= 1
 0 <= z_1752 <= 1
 0 <= z_1753 <= 1
 0 <= z_1754 <= 1
 0 <= z_1755 <= 1
 0 <= z_1756 <= 1
 0 <= z_1757 <= 1
 0 <= z_1758 <= 1
 0 <= z_1759 <= 1
 0 <= z_1760 <= 1
 0 <= z_1761 <= 1
 0 <= z_1762 <= 1
 0 <= z_1763 <= 1
 0 <= z_1764 <= 1
 0 <= z_1765 <= 1
 0 <= z_1766 <= 1
 0 <= z_1767 <= 1
 0 <= z_1768 <= 1
 0 <= z_1769 <= 1
 0 <= z_1770 <= 1
 0 <= z_1771 <= 1
 0 <= z_1772 <= 1
 0 <= z_1773 <= 1
 0 <= z_1774 <= 1
 0 <= z_1775 <= 1
 0 <= z_1776 <= 1
 0 <= z_1777 <= 1
 0 <= z_1778 <= 1
 0 <= z_1779 <= 1
 0 <= z_1780 <= 1
 0 <= z_1781 <= 1
 0 <= z_1782 <= 1
 0 <= z_1783 <= 1
 0 <= z_1784 <= 1
 0 <= z_1785 <= 1
 0 <= z_1786 <= 1
 0 <= z_1787 <= 1
 0 <= z_1788 <= 1
 0 <= z_1789 <= 1
 0 <= z_1790 <= 1
 0 <= z_1791 <= 1
 0 <= z_1792 <= 1
 0 <= z_1793 <= 1
 0 <= z_1794 <= 1
 0 <= z_1795 <= 1
 0 <= z_1796 <= 1
 0 <= z_1797 <= 1
 0 <= z_1798 <= 1
 0 <= z_1799 <= 1
 0 <= z_1800 <= 1
 0 <= z_1801 <= 1
 0 <= z_1802 <= 1
 0 <= z_1803 <= 1
 0 <= z_1804 <= 1
 0 <= z_1805 <= 1
 0 <= z_1806 <= 1
 0 <= z_1807 <= 1
 0 <= z_1808 <= 1
 0 <= z_1809 <= 1
 0 <= z_1810 <= 1
 0 <= z_1811 <= 1
 0 <= z_1812 <= 1
 0 <= z_1813 <= 1
 0 <= z_1814 <= 1
 0 <= z_1815 <= 1
 0 <= z_1816 <= 1
 0 <= z_1817 <= 1
 0 <= z_1818 <= 1
 0 <= z_1819 <= 1
 0 <= z_1820 <= 1
 0 <= z_1821 <= 1
 0 <= z_1822 <= 1
 0 <= z_1823 <= 1
 0 <= z_1824 <= 1
 0 <= z_1825 <= 1
 0 <= z_1826 <= 1
 0 <= z_1827 <= 1
 0 <= z_1828 <= 1
 0 <= z_1829 <= 1
 0 <= z_1830 <= 1
 0 <= z_1831 <= 1
 0 <= z_1832 <= 1
 0 <= z_1833 <= 1
 0 <= z_1834 <= 1
 0 <= z_1835 <= 1
 0 <= z_1836 <= 1
 0 <= z_1837 <= 1
 0 <= z_1838 <= 1
 0 <= z_1839 <= 1
 0 <= z_1840 <= 1
 0 <= z_1841 <= 1
 0 <= z_1842 <= 1
 0 <= z_1843 <= 1
 0 <= z_1844 <= 1
 0 <= z_1845 <= 1
 0 <= z_1846 <= 1
 0 <= z_1847 <= 1
 0 <= z_1848 <= 1
 0 <= z_1849 <= 1
 0 <= z_1850 <= 1
 0 <= z_1851 <= 1
 0 <= z_1852 <= 1
 0 <= z_1853 <= 1
 0 <= z_1854 <= 1
 0 <= z_1855 <= 1
 0 <= z_1856 <= 1
 0 <= z_1857 <= 1
 0 <= z_1858 <= 1
 0 <= z_1859 <= 1
 0 <= z_1860 <= 1
 0 <= z_1861 <= 1
 0 <= z_1862 <= 1
 0 <= z_1863 <= 1
 0 <= z_1864 <= 1
 0 <= z_1865 <= 1
 0 <= z_1866 <= 1
 0 <= z_1867 <= 1
 0 <= z_1868 <= 1
 0 <= z_1869 <= 1
 0 <= z_1870 <= 1
 0 <= z_1871 <= 1
 0 <= z_1872 <= 1
 0 <= z_1873 <= 1
 0 <= z_1874 <= 1
 0 <= z_1875 <= 1
 0 <= z_1876 <= 1
 0 <= z_1877 <= 1
 0 <= z_1878 <= 1
 0 <= z_1879 <= 1
 0 <= z_1880 <= 1
 0 <= z_1881 <= 1
 0 <= z_1882 <= 1
 0 <= z_1883 <= 1
 0 <= z_1884 <= 1
 0 <= z_1885 <= 1
 0 <= z_1886 <= 1
 0 <= z_1887 <= 1
 0 <= z_1888 <= 1
 0 <= z_1889 <= 1
 0 <= z_1890 <= 1
 0 <= z_1891 <= 1
 0 <= z_1892 <= 1
 0 <= z_1893 <= 1
 0 <= z_1894 <= 1
 0 <= z_1895 <= 1
 0 <= z_1896 <= 1
 0 <= z_1897 <= 1
 0 <= z_1898 <= 1
 0 <= z_1899 <= 1
 0 <= z_1900 <= 1
 0 <= z_1901 <= 1
 0 <= z_1902 <= 1
 0 <= z_1903 <= 1
 0 <= z_1904 <= 1
 0 <= z_1905 <= 1
 0 <= z_1906 <= 1
 0 <= z_1907 <= 1
 0 <= z_1908 <= 1
 0 <= z_1909 <= 1
 0 <= z_1910 <= 1
 0 <= z_1911 <= 1
 0 <= z_1912 <= 1
 0 <= z_1913 <= 1
 0 <= z_1914 <= 1
 0 <= z_1915 <= 1
 0 <= z_1916 <= 1
 0 <= z_1917 <= 1
 0 <= z_1918 <= 1
 0 <= z_1919 <= 1
 0 <= z_1920 <= 1
 0 <= z_1921 <= 1
 0 <= z_1922 <= 1
 0 <= z_1923 <= 1
 0 <= z_1924 <= 1
 0 <= z_1925 <= 1
 0 <= z_1926 <= 1
 0 <= z_1927 <= 1
 0 <= z_1928 <= 1
 0 <= z_1929 <= 1
 0 <= z_1930 <= 1
 0 <= z_1931 <= 1
 0 <= z_1932 <= 1
 0 <= z_1933 <= 1
 0 <= z_1934 <= 1
 0 <= z_1935 <= 1
 0 <= z_1936 <= 1
 0 <= z_1937 <= 1
 0 <= z_1938 <= 1
 0 <= z_1939 <= 1
 0 <= z_1940 <= 1
 0 <= z_1941 <= 1
 0 <= z_1942 <= 1
 0 <= z_1943 <= 1
 0 <= z_1944 <= 1
 0 <= z_1945 <= 1
 0 <= z_1946 <= 1
 0 <= z_1947 <= 1
 0 <= z_1948 <= 1
 0 <= z_1949 <= 1
 0 <= z_1950 <= 1
 0 <= z_1951 <= 1
 0 <= z_1952 <= 1
 0 <= z_1953 <= 1
 0 <= z_1954 <= 1
 0 <= z_1955 <= 1
 0 <= z_1956 <= 1
 0 <= z_1957 <= 1
 0 <= z_1958 <= 1
 0 <= z_1959 <= 1
 0 <= z_1960 <= 1
 0 <= z_1961 <= 1
 0 <= z_1962 <= 1
 0 <= z_1963 <= 1
 0 <= z_1964 <= 1
 0 <= z_1965 <= 1
 0 <= z_1966 <= 1
 0 <= z_1967 <= 1
 0 <= z_1968 <= 1
 0 <= z_1969 <= 1
 0 <= z_1970 <= 1
 0 <= z_1971 <= 1
 0 <= z_1972 <= 1
 0 <= z_1973 <= 1
 0 <= z_1974 <= 1
 0 <= z_1975 <= 1
 0 <= z_1976 <= 1
 0 <= z_1977 <= 1
 0 <= z_1978 <= 1
 0 <= z_1979 <= 1
 0 <= z_1980 <= 1
 0 <= z_1981 <= 1
 0 <= z_1982 <= 1
 0 <= z_1983 <= 1
 0 <= z_1984 <= 1
 0 <= z_1985 <= 1
 0 <= z_1986 <= 1
 0 <= z_1987 <= 1
 0 <= z_1988 <= 1
 0 <= z_1989 <= 1
 0 <= z_1990 <= 1
 0 <= z_1991 <= 1
 0 <= z_1992 <= 1
 0 <= z_1993 <= 1
 0 <= z_1994 <= 1
 0 <= z_1995 <= 1
 0 <= z_1996 <= 1
 0 <= z_1997 <= 1
 0 <= z_1998 <= 1
 0 <= z_1999 <= 1
 0 <= z_2000 <= 1
 0 <= z_2001 <= 1
 0 <= z_2002 <= 1
 0 <= z_2003 <= 1
 0 <= z_2004 <= 1
 0 <= z_2005 <= 1
 0 <= z_2006 <= 1
 0 <= z_2007 <= 1
 0 <= z_2008 <= 1
 0 <= z_2009 <= 1
 0 <= z_2010 <= 1
 0 <= z_2011 <= 1
 0 <= z_2012 <= 1
 0 <= z_2013 <= 1
 0 <= z_2014 <= 1
 0 <= z_2015 <= 1
 0 <= z_2016 <= 1
 0 <= z_2017 <= 1
 0 <= z_2018 <= 1
 0 <= z_2019 <= 1
 0 <= z_2020 <= 1
 0 <= z_2021 <= 1
 0 <= z_2022 <= 1
 0 <= z_2023 <= 1
 0 <= z_2024 <= 1
 0 <= z_2025 <= 1
 0 <= z_2026 <= 1
 0 <= z_2027 <= 1
 0 <= z_2028 <= 1
 0 <= z_2029 <= 1
 0 <= z_2030 <= 1
 0 <= z_2031 <= 1
 0 <= z_2032 <= 1
 0 <= z_2033 <= 1
 0 <= z_2034 <= 1
 0 <= z_2035 <= 1
 0 <= z_2036 <= 1
 0 <= z_2037 <= 1
 0 <= z_2038 <= 1
 0 <= z_2039 <= 1
 0 <= z_2040 <= 1
 0 <= z_2041 <= 1
 0 <= z_2042 <= 1
 0 <= z_2043 <= 1
 0 <= z_2044 <= 1
 0 <= z_2045 <= 1
 0 <= z_2046 <= 1
 0 <= z_2047 <= 1
 0 <= z_2048 <= 1
 0 <= z_2049 <= 1
 0 <= z_2050 <= 1
 0 <= z_2051 <= 1
 0 <= z_2052 <= 1
 0 <= z_2053 <= 1
 0 <= z_2054 <= 1
 0 <= z_2055 <= 1
 0 <= z_2056 <= 1
 0 <= z_2057 <= 1
 0 <= z_2058 <= 1
 0 <= z_2059 <= 1
 0 <= z_2060 <= 1
 0 <= z_2061 <= 1
 0 <= z_2062 <= 1
 0 <= z_2063 <= 1
 0 <= z_2064 <= 1
 0 <= z_2065 <= 1
 0 <= z_2066 <= 1
 0 <= z_2067 <= 1
 0 <= z_2068 <= 1
 0 <= z_2069 <= 1
 0 <= z_2070 <= 1
 0 <= z_2071 <= 1
 0 <= z_2072 <= 1
 0 <= z_2073 <= 1
 0 <= z_2074 <= 1
 0 <= z_2075 <= 1
 0 <= z_2076 <= 1
 0 <= z_2077 <= 1
 0 <= z_2078 <= 1
 0 <= z_2079 <= 1
 0 <= z_2080 <= 1
 0 <= z_2081 <= 1
 0 <= z_2082 <= 1
 0 <= z_2083 <= 1
 0 <= z_2084 <= 1
 0 <= z_2085 <= 1
 0 <= z_2086 <= 1
 0 <= z_2087 <= 1
 0 <= z_2088 <= 1
 0 <= z_2089 <= 1
 0 <= z_2090 <= 1
 0 <= z_2091 <= 1
 0 <= z_2092 <= 1
 0 <= z_2093 <= 1
 0 <= z_2094 <= 1
 0 <= z_2095 <= 1
 0 <= z_2096 <= 1
 0 <= z_2097 <= 1
 0 <= z_2098 <= 1
 0 <= z_2099 <= 1
 0 <= z_2100 <= 1
 0 <= z_2101 <= 1
 0 <= z_2102 <= 1
 0 <= z_2103 <= 1
 0 <= z_2104 <= 1
 0 <= z_2105 <= 1
 0 <= z_2106 <= 1
 0 <= z_2107 <= 1
 0 <= z_2108 <= 1
 0 <= z_2109 <= 1
 0 <= z_2110 <= 1
 0 <= z_2111 <= 1
 0 <= z_2112 <= 1
 0 <= z_2113 <= 1
 0 <= z_2114 <= 1
 0 <= z_2115 <= 1
 0 <= z_2116 <= 1
 0 <= z_2117 <= 1
 0 <= z_2118 <= 1
 0 <= z_2119 <= 1
 0 <= z_2120 <= 1
 0 <= z_2121 <= 1
 0 <= z_2122 <= 1
 0 <= z_2123 <= 1
 0 <= z_2124 <= 1
 0 <= z_2125 <= 1
 0 <= z_2126 <= 1
 0 <= z_2127 <= 1
 0 <= z_2128 <= 1
 0 <= z_2129 <= 1
 0 <= z_2130 <= 1
 0 <= z_2131 <= 1
 0 <= z_2132 <= 1
 0 <= z_2133 <= 1
 0 <= z_2134 <= 1
 0 <= z_2135 <= 1
 0 <= z_2136 <= 1
 0 <= z_2137 <= 1
 0 <= z_2138 <= 1
 0 <= z_2139 <= 1
 0 <= z_2140 <= 1
 0 <= z_2141 <= 1
 0 <= z_2142 <= 1
 0 <= z_2143 <= 1
 0 <= z_2144 <= 1
 0 <= z_2145 <= 1
 0 <= z_2146 <= 1
 0 <= z_2147 <= 1
 0 <= z_2148 <= 1
 0 <= z_2149 <= 1
 0 <= z_2150 <= 1
 0 <= z_2151 <= 1
 0 <= z_2152 <= 1
 0 <= z_2153 <= 1
 0 <= z_2154 <= 1
 0 <= z_2155 <= 1
 0 <= z_2156 <= 1
 0 <= z_2157 <= 1
 0 <= z_2158 <= 1
 0 <= z_2159 <= 1
 0 <= z_2160 <= 1
 0 <= z_2161 <= 1
 0 <= z_2162 <= 1
 0 <= z_2163 <= 1
 0 <= z_2164 <= 1
 0 <= z_2165 <= 1
 0 <= z_2166 <= 1
 0 <= z_2167 <= 1
 0 <= z_2168 <= 1
 0 <= z_2169 <= 1
 0 <= z_2170 <= 1
 0 <= z_2171 <= 1
 0 <= z_2172 <= 1
 0 <= z_2173 <= 1
 0 <= z_2174 <= 1
 0 <= z_2175 <= 1
 0 <= z_2176 <= 1
 0 <= z_2177 <= 1
 0 <= z_2178 <= 1
 0 <= z_2179 <= 1
 0 <= z_2180 <= 1
 0 <= z_2181 <= 1
 0 <= z_2182 <= 1
 0 <= z_2183 <= 1
 0 <= z_2184 <= 1
 0 <= z_2185 <= 1
 0 <= z_2186 <= 1
 0 <= z_2187 <= 1
 0 <= z_2188 <= 1
 0 <= z_2189 <= 1
 0 <= z_2190 <= 1
 0 <= z_2191 <= 1
 0 <= z_2192 <= 1
 0 <= z_2193 <= 1
 0 <= z_2194 <= 1
 0 <= z_2195 <= 1
 0 <= z_2196 <= 1
 0 <= z_2197 <= 1
 0 <= z_2198 <= 1
 0 <= z_2199 <= 1
 0 <= z_2200 <= 1
 0 <= z_2201 <= 1
 0 <= z_2202 <= 1
 0 <= z_2203 <= 1
 0 <= z_2204 <= 1
 0 <= z_2205 <= 1
 0 <= z_2206 <= 1
 0 <= z_2207 <= 1
 0 <= z_2208 <= 1
 0 <= z_2209 <= 1
 0 <= z_2210 <= 1
 0 <= z_2211 <= 1
 0 <= z_2212 <= 1
 0 <= z_2213 <= 1
 0 <= z_2214 <= 1
 0 <= z_2215 <= 1
 0 <= z_2216 <= 1
 0 <= z_2217 <= 1
 0 <= z_2218 <= 1
 0 <= z_2219 <= 1
 0 <= z_2220 <= 1
 0 <= z_2221 <= 1
 0 <= z_2222 <= 1
 0 <= z_2223 <= 1
 0 <= z_2224 <= 1
 0 <= z_2225 <= 1
 0 <= z_2226 <= 1
 0 <= z_2227 <= 1
 0 <= z_2228 <= 1
 0 <= z_2229 <= 1
 0 <= z_2230 <= 1
 0 <= z_2231 <= 1
 0 <= z_2232 <= 1
 0 <= z_2233 <= 1
 0 <= z_2234 <= 1
 0 <= z_2235 <= 1
 0 <= z_2236 <= 1
 0 <= z_2237 <= 1
 0 <= z_2238 <= 1
 0 <= z_2239 <= 1
 0 <= z_2240 <= 1
 0 <= z_2241 <= 1
 0 <= z_2242 <= 1
 0 <= z_2243 <= 1
 0 <= z_2244 <= 1
 0 <= z_2245 <= 1
 0 <= z_2246 <= 1
 0 <= z_2247 <= 1
 0 <= z_2248 <= 1
 0 <= z_2249 <= 1
 0 <= z_2250 <= 1
 0 <= z_2251 <= 1
 0 <= z_2252 <= 1
 0 <= z_2253 <= 1
 0 <= z_2254 <= 1
 0 <= z_2255 <= 1
 0 <= z_2256 <= 1
 0 <= z_2257 <= 1
 0 <= z_2258 <= 1
 0 <= z_2259 <= 1
 0 <= z_2260 <= 1
 0 <= z_2261 <= 1
 0 <= z_2262 <= 1
 0 <= z_2263 <= 1
 0 <= z_2264 <= 1
 0 <= z_2265 <= 1
 0 <= z_2266 <= 1
 0 <= z_2267 <= 1
 0 <= z_2268 <= 1
 0 <= z_2269 <= 1
 0 <= z_2270 <= 1
 0 <= z_2271 <= 1
 0 <= z_2272 <= 1
 0 <= z_2273 <= 1
 0 <= z_2274 <= 1
 0 <= z_2275 <= 1
 0 <= z_2276 <= 1
 0 <= z_2277 <= 1
 0 <= z_2278 <= 1
 0 <= z_2279 <= 1
 0 <= z_2280 <= 1
 0 <= z_2281 <= 1
 0 <= z_2282 <= 1
 0 <= z_2283 <= 1
 0 <= z_2284 <= 1
 0 <= z_2285 <= 1
 0 <= z_2286 <= 1
 0 <= z_2287 <= 1
 0 <= z_2288 <= 1
 0 <= z_2289 <= 1
 0 <= z_2290 <= 1
 0 <= z_2291 <= 1
 0 <= z_2292 <= 1
 0 <= z_2293 <= 1
 0 <= z_2294 <= 1
 0 <= z_2295 <= 1
 0 <= z_2296 <= 1
 0 <= z_2297 <= 1
 0 <= z_2298 <= 1
 0 <= z_2299 <= 1
 0 <= z_2300 <= 1
 0 <= z_2301 <= 1
 0 <= z_2302 <= 1
 0 <= z_2303 <= 1
 0 <= z_2304 <= 1
 0 <= z_2305 <= 1
 0 <= z_2306 <= 1
 0 <= z_2307 <= 1
 0 <= z_2308 <= 1
 0 <= z_2309 <= 1
 0 <= z_2310 <= 1
 0 <= z_2311 <= 1
 0 <= z_2312 <= 1
 0 <= z_2313 <= 1
 0 <= z_2314 <= 1
 0 <= z_2315 <= 1
 0 <= z_2316 <= 1
 0 <= z_2317 <= 1
 0 <= z_2318 <= 1
 0 <= z_2319 <= 1
 0 <= z_2320 <= 1
 0 <= z_2321 <= 1
 0 <= z_2322 <= 1
 0 <= z_2323 <= 1
 0 <= z_2324 <= 1
 0 <= z_2325 <= 1
 0 <= z_2326 <= 1
 0 <= z_2327 <= 1
 0 <= z_2328 <= 1
 0 <= z_2329 <= 1
 0 <= z_2330 <= 1
 0 <= z_2331 <= 1
 0 <= z_2332 <= 1
 0 <= z_2333 <= 1
 0 <= z_2334 <= 1
 0 <= z_2335 <= 1
 0 <= z_2336 <= 1
 0 <= z_2337 <= 1
 0 <= z_2338 <= 1
 0 <= z_2339 <= 1
 0 <= z_2340 <= 1
 0 <= z_2341 <= 1
 0 <= z_2342 <= 1
 0 <= z_2343 <= 1
 0 <= z_2344 <= 1
 0 <= z_2345 <= 1
 0 <= z_2346 <= 1
 0 <= z_2347 <= 1
 0 <= z_2348 <= 1
 0 <= z_2349 <= 1
 0 <= z_2350 <= 1
 0 <= z_2351 <= 1
 0 <= z_2352 <= 1
 0 <= z_2353 <= 1
 0 <= z_2354 <= 1
 0 <= z_2355 <= 1
 0 <= z_2356 <= 1
 0 <= z_2357 <= 1
 0 <= z_2358 <= 1
 0 <= z_2359 <= 1
 0 <= z_2360 <= 1
 0 <= z_2361 <= 1
 0 <= z_2362 <= 1
 0 <= z_2363 <= 1
 0 <= z_2364 <= 1
 0 <= z_2365 <= 1
 0 <= z_2366 <= 1
 0 <= z_2367 <= 1
 0 <= z_2368 <= 1
 0 <= z_2369 <= 1
 0 <= z_2370 <= 1
 0 <= z_2371 <= 1
 0 <= z_2372 <= 1
 0 <= z_2373 <= 1
 0 <= z_2374 <= 1
 0 <= z_2375 <= 1
 0 <= z_2376 <= 1
 0 <= z_2377 <= 1
 0 <= z_2378 <= 1
 0 <= z_2379 <= 1
 0 <= z_2380 <= 1
 0 <= z_2381 <= 1
 0 <= z_2382 <= 1
 0 <= z_2383 <= 1
 0 <= z_2384 <= 1
 0 <= z_2385 <= 1
 0 <= z_2386 <= 1
 0 <= z_2387 <= 1
 0 <= z_2388 <= 1
 0 <= z_2389 <= 1
 0 <= z_2390 <= 1
 0 <= z_2391 <= 1
 0 <= z_2392 <= 1
 0 <= z_2393 <= 1
 0 <= z_2394 <= 1
 0 <= z_2395 <= 1
 0 <= z_2396 <= 1
 0 <= z_2397 <= 1
 0 <= z_2398 <= 1
 0 <= z_2399 <= 1
 0 <= z_2400 <= 1
 0 <= z_2401 <= 1
 0 <= z_2402 <= 1
 0 <= z_2403 <= 1
 0 <= z_2404 <= 1
 0 <= z_2405 <= 1
 0 <= z_2406 <= 1
 0 <= z_2407 <= 1
 0 <= z_2408 <= 1
 0 <= z_2409 <= 1
 0 <= z_2410 <= 1
 0 <= z_2411 <= 1
 0 <= z_2412 <= 1
 0 <= z_2413 <= 1
 0 <= z_2414 <= 1
 0 <= z_2415 <= 1
 0 <= z_2416 <= 1
 0 <= z_2417 <= 1
 0 <= z_2418 <= 1
 0 <= z_2419 <= 1
 0 <= z_2420 <= 1
 0 <= z_2421 <= 1
 0 <= z_2422 <= 1
 0 <= z_2423 <= 1
 0 <= z_2424 <= 1
 0 <= z_2425 <= 1
 0 <= z_2426 <= 1
 0 <= z_2427 <= 1
 0 <= z_2428 <= 1
 0 <= z_2429 <= 1
 0 <= z_2430 <= 1
 0 <= z_2431 <= 1
 0 <= z_2432 <= 1
 0 <= z_2433 <= 1
 0 <= z_2434 <= 1
 0 <= z_2435 <= 1
 0 <= z_2436 <= 1
 0 <= z_2437 <= 1
 0 <= z_2438 <= 1
 0 <= z_2439 <= 1
 0 <= z_2440 <= 1
 0 <= z_2441 <= 1
 0 <= z_2442 <= 1
 0 <= z_2443 <= 1
 0 <= z_2444 <= 1
 0 <= z_2445 <= 1
 0 <= z_2446 <= 1
 0 <= z_2447 <= 1
 0 <= z_2448 <= 1
 0 <= z_2449 <= 1
 0 <= z_2450 <= 1
 0 <= z_2451 <= 1
 0 <= z_2452 <= 1
 0 <= z_2453 <= 1
 0 <= z_2454 <= 1
 0 <= z_2455 <= 1
 0 <= z_2456 <= 1
 0 <= z_2457 <= 1
 0 <= z_2458 <= 1
 0 <= z_2459 <= 1
 0 <= z_2460 <= 1
 0 <= z_2461 <= 1
 0 <= z_2462 <= 1
 0 <= z_2463 <= 1
 0 <= z_2464 <= 1
 0 <= z_2465 <= 1
 0 <= z_2466 <= 1
 0 <= z_2467 <= 1
 0 <= z_2468 <= 1
 0 <= z_2469 <= 1
 0 <= z_2470 <= 1
 0 <= z_2471 <= 1
 0 <= z_2472 <= 1
 0 <= z_2473 <= 1
 0 <= z_2474 <= 1
 0 <= z_2475 <= 1
 0 <= z_2476 <= 1
 0 <= z_2477 <= 1
 0 <= z_2478 <= 1
 0 <= z_2479 <= 1
 0 <= z_2480 <= 1
 0 <= z_2481 <= 1
 0 <= z_2482 <= 1
 0 <= z_2483 <= 1
 0 <= z_2484 <= 1
 0 <= z_2485 <= 1
 0 <= z_2486 <= 1
 0 <= z_2487 <= 1
 0 <= z_2488 <= 1
 0 <= z_2489 <= 1
 0 <= z_2490 <= 1
 0 <= z_2491 <= 1
 0 <= z_2492 <= 1
 0 <= z_2493 <= 1
 0 <= z_2494 <= 1
 0 <= z_2495 <= 1
 0 <= z_2496 <= 1
 0 <= z_2497 <= 1
 0 <= z_2498 <= 1
 0 <= z_2499 <= 1
 0 <= z_2500 <= 1
 0 <= z_2501 <= 1
 0 <= z_2502 <= 1
 0 <= z_2503 <= 1
 0 <= z_2504 <= 1
 0 <= z_2505 <= 1
 0 <= z_2506 <= 1
 0 <= z_2507 <= 1
 0 <= z_2508 <= 1
 0 <= z_2509 <= 1
 0 <= z_2510 <= 1
 0 <= z_2511 <= 1
 0 <= z_2512 <= 1
 0 <= z_2513 <= 1
 0 <= z_2514 <= 1
 0 <= z_2515 <= 1
 0 <= z_2516 <= 1
 0 <= z_2517 <= 1
 0 <= z_2518 <= 1
 0 <= z_2519 <= 1
 0 <= z_2520 <= 1
 0 <= z_2521 <= 1
 0 <= z_2522 <= 1
 0 <= z_2523 <= 1
 0 <= z_2524 <= 1
 0 <= z_2525 <= 1
 0 <= z_2526 <= 1
 0 <= z_2527 <= 1
 0 <= z_2528 <= 1
 0 <= z_2529 <= 1
 0 <= z_2530 <= 1
 0 <= z_2531 <= 1
 0 <= z_2532 <= 1
 0 <= z_2533 <= 1
 0 <= z_2534 <= 1
 0 <= z_2535 <= 1
 0 <= z_2536 <= 1
 0 <= z_2537 <= 1
 0 <= z_2538 <= 1
 0 <= z_2539 <= 1
 0 <= z_2540 <= 1
 0 <= z_2541 <= 1
 0 <= z_2542 <= 1
 0 <= z_2543 <= 1
 0 <= z_2544 <= 1
 0 <= z_2545 <= 1
 0 <= z_2546 <= 1
 0 <= z_2547 <= 1
 0 <= z_2548 <= 1
 0 <= z_2549 <= 1
 0 <= z_2550 <= 1
 0 <= z_2551 <= 1
 0 <= z_2552 <= 1
 0 <= z_2553 <= 1
 0 <= z_2554 <= 1
 0 <= z_2555 <= 1
 0 <= z_2556 <= 1
 0 <= z_2557 <= 1
 0 <= z_2558 <= 1
 0 <= z_2559 <= 1
 0 <= z_2560 <= 1
 0 <= z_2561 <= 1
 0 <= z_2562 <= 1
 0 <= z_2563 <= 1
 0 <= z_2564 <= 1
 0 <= z_2565 <= 1
 0 <= z_2566 <= 1
 0 <= z_2567 <= 1
 0 <= z_2568 <= 1
 0 <= z_2569 <= 1
 0 <= z_2570 <= 1
 0 <= z_2571 <= 1
 0 <= z_2572 <= 1
 0 <= z_2573 <= 1
 0 <= z_2574 <= 1
 0 <= z_2575 <= 1
 0 <= z_2576 <= 1
 0 <= z_2577 <= 1
 0 <= z_2578 <= 1
 0 <= z_2579 <= 1
 0 <= z_2580 <= 1
 0 <= z_2581 <= 1
 0 <= z_2582 <= 1
 0 <= z_2583 <= 1
 0 <= z_2584 <= 1
 0 <= z_2585 <= 1
 0 <= z_2586 <= 1
 0 <= z_2587 <= 1
 0 <= z_2588 <= 1
 0 <= z_2589 <= 1
 0 <= z_2590 <= 1
 0 <= z_2591 <= 1
 0 <= z_2592 <= 1
 0 <= z_2593 <= 1
 0 <= z_2594 <= 1
 0 <= z_2595 <= 1
 0 <= z_2596 <= 1
 0 <= z_2597 <= 1
 0 <= z_2598 <= 1
 0 <= z_2599 <= 1
 0 <= z_2600 <= 1
 0 <= z_2601 <= 1
 0 <= z_2602 <= 1
 0 <= z_2603 <= 1
 0 <= z_2604 <= 1
 0 <= z_2605 <= 1
 0 <= z_2606 <= 1
 0 <= z_2607 <= 1
 0 <= z_2608 <= 1
 0 <= z_2609 <= 1
 0 <= z_2610 <= 1
 0 <= z_2611 <= 1
 0 <= z_2612 <= 1
 0 <= z_2613 <= 1
 0 <= z_2614 <= 1
 0 <= z_2615 <= 1
 0 <= z_2616 <= 1
 0 <= z_2617 <= 1
 0 <= z_2618 <= 1
 0 <= z_2619 <= 1
 0 <= z_2620 <= 1
 0 <= z_2621 <= 1
 0 <= z_2622 <= 1
 0 <= z_2623 <= 1
 0 <= z_2624 <= 1
 0 <= z_2625 <= 1
 0 <= z_2626 <= 1
 0 <= z_2627 <= 1
 0 <= z_2628 <= 1
 0 <= z_2629 <= 1
 0 <= z_2630 <= 1
 0 <= z_2631 <= 1
 0 <= z_2632 <= 1
 0 <= z_2633 <= 1
 0 <= z_2634 <= 1
 0 <= z_2635 <= 1
 0 <= z_2636 <= 1
 0 <= z_2637 <= 1
 0 <= z_2638 <= 1
 0 <= z_2639 <= 1
 0 <= z_2640 <= 1
 0 <= z_2641 <= 1
 0 <= z_2642 <= 1
 0 <= z_2643 <= 1
 0 <= z_2644 <= 1
 0 <= z_2645 <= 1
 0 <= z_2646 <= 1
 0 <= z_2647 <= 1
 0 <= z_2648 <= 1
 0 <= z_2649 <= 1
 0 <= z_2650 <= 1
 0 <= z_2651 <= 1
 0 <= z_2652 <= 1
 0 <= z_2653 <= 1
 0 <= z_2654 <= 1
 0 <= z_2655 <= 1
 0 <= z_2656 <= 1
 0 <= z_2657 <= 1
 0 <= z_2658 <= 1
 0 <= z_2659 <= 1
 0 <= z_2660 <= 1
 0 <= z_2661 <= 1
 0 <= z_2662 <= 1
 0 <= z_2663 <= 1
 0 <= z_2664 <= 1
 0 <= z_2665 <= 1
 0 <= z_2666 <= 1
 0 <= z_2667 <= 1
 0 <= z_2668 <= 1
 0 <= z_2669 <= 1
 0 <= z_2670 <= 1
 0 <= z_2671 <= 1
 0 <= z_2672 <= 1
 0 <= z_2673 <= 1
 0 <= z_2674 <= 1
 0 <= z_2675 <= 1
 0 <= z_2676 <= 1
 0 <= z_2677 <= 1
 0 <= z_2678 <= 1
 0 <= z_2679 <= 1
 0 <= z_2680 <= 1
 0 <= z_2681 <= 1
 0 <= z_2682 <= 1
 0 <= z_2683 <= 1
 0 <= z_2684 <= 1
 0 <= z_2685 <= 1
 0 <= z_2686 <= 1
 0 <= z_2687 <= 1
 0 <= z_2688 <= 1
 0 <= z_2689 <= 1
 0 <= z_2690 <= 1
 0 <= z_2691 <= 1
 0 <= z_2692 <= 1
 0 <= z_2693 <= 1
 0 <= z_2694 <= 1
 0 <= z_2695 <= 1
 0 <= z_2696 <= 1
 0 <= z_2697 <= 1
 0 <= z_2698 <= 1
 0 <= z_2699 <= 1
 0 <= z_2700 <= 1
 0 <= z_2701 <= 1
 0 <= z_2702 <= 1
 0 <= z_2703 <= 1
 0 <= z_2704 <= 1
 0 <= z_2705 <= 1
 0 <= z_2706 <= 1
 0 <= z_2707 <= 1
 0 <= z_2708 <= 1
 0 <= z_2709 <= 1
 0 <= z_2710 <= 1
 0 <= z_2711 <= 1
 0 <= z_2712 <= 1
 0 <= z_2713 <= 1
 0 <= z_2714 <= 1
 0 <= z_2715 <= 1
 0 <= z_2716 <= 1
 0 <= z_2717 <= 1
 0 <= z_2718 <= 1
 0 <= z_2719 <= 1
 0 <= z_2720 <= 1
 0 <= z_2721 <= 1
 0 <= z_2722 <= 1
 0 <= z_2723 <= 1
 0 <= z_2724 <= 1
 0 <= z_2725 <= 1
 0 <= z_2726 <= 1
 0 <= z_2727 <= 1
 0 <= z_2728 <= 1
 0 <= z_2729 <= 1
 0 <= z_2730 <= 1
 0 <= z_2731 <= 1
 0 <= z_2732 <= 1
 0 <= z_2733 <= 1
 0 <= z_2734 <= 1
 0 <= z_2735 <= 1
 0 <= z_2736 <= 1
 0 <= z_2737 <= 1
 0 <= z_2738 <= 1
 0 <= z_2739 <= 1
 0 <= z_2740 <= 1
 0 <= z_2741 <= 1
 0 <= z_2742 <= 1
 0 <= z_2743 <= 1
 0 <= z_2744 <= 1
 0 <= z_2745 <= 1
 0 <= z_2746 <= 1
 0 <= z_2747 <= 1
 0 <= z_2748 <= 1
 0 <= z_2749 <= 1
 0 <= z_2750 <= 1
 0 <= z_2751 <= 1
 0 <= z_2752 <= 1
 0 <= z_2753 <= 1
 0 <= z_2754 <= 1
 0 <= z_2755 <= 1
 0 <= z_2756 <= 1
 0 <= z_2757 <= 1
 0 <= z_2758 <= 1
 0 <= z_2759 <= 1
 0 <= z_2760 <= 1
 0 <= z_2761 <= 1
 0 <= z_2762 <= 1
 0 <= z_2763 <= 1
 0 <= z_2764 <= 1
 0 <= z_2765 <= 1
 0 <= z_2766 <= 1
 0 <= z_2767 <= 1
 0 <= z_2768 <= 1
 0 <= z_2769 <= 1
 0 <= z_2770 <= 1
 0 <= z_2771 <= 1
 0 <= z_2772 <= 1
 0 <= z_2773 <= 1
 0 <= z_2774 <= 1
 0 <= z_2775 <= 1
 0 <= z_2776 <= 1
 0 <= z_2777 <= 1
 0 <= z_2778 <= 1
 0 <= z_2779 <= 1
 0 <= z_2780 <= 1
 0 <= z_2781 <= 1
 0 <= z_2782 <= 1
 0 <= z_2783 <= 1
 0 <= z_2784 <= 1
 0 <= z_2785 <= 1
 0 <= z_2786 <= 1
 0 <= z_2787 <= 1
 0 <= z_2788 <= 1
 0 <= z_2789 <= 1
 0 <= z_2790 <= 1
 0 <= z_2791 <= 1
 0 <= z_2792 <= 1
 0 <= z_2793 <= 1
 0 <= z_2794 <= 1
 0 <= z_2795 <= 1
 0 <= z_2796 <= 1
 0 <= z_2797 <= 1
 0 <= z_2798 <= 1
 0 <= z_2799 <= 1
 0 <= z_2800 <= 1
 0 <= z_2801 <= 1
 0 <= z_2802 <= 1
 0 <= z_2803 <= 1
 0 <= z_2804 <= 1
 0 <= z_2805 <= 1
 0 <= z_2806 <= 1
 0 <= z_2807 <= 1
 0 <= z_2808 <= 1
 0 <= z_2809 <= 1
 0 <= z_2810 <= 1
 0 <= z_2811 <= 1
 0 <= z_2812 <= 1
 0 <= z_2813 <= 1
 0 <= z_2814 <= 1
 0 <= z_2815 <= 1
 0 <= z_2816 <= 1
 0 <= z_2817 <= 1
 0 <= z_2818 <= 1
 0 <= z_2819 <= 1
 0 <= z_2820 <= 1
 0 <= z_2821 <= 1
 0 <= z_2822 <= 1
 0 <= z_2823 <= 1
 0 <= z_2824 <= 1
 0 <= z_2825 <= 1
 0 <= z_2826 <= 1
 0 <= z_2827 <= 1
 0 <= z_2828 <= 1
 0 <= z_2829 <= 1
 0 <= z_2830 <= 1
 0 <= z_2831 <= 1
 0 <= z_2832 <= 1
 0 <= z_2833 <= 1
 0 <= z_2834 <= 1
 0 <= z_2835 <= 1
 0 <= z_2836 <= 1
 0 <= z_2837 <= 1
 0 <= z_2838 <= 1
 0 <= z_2839 <= 1
 0 <= z_2840 <= 1
 0 <= z_2841 <= 1
 0 <= z_2842 <= 1
 0 <= z_2843 <= 1
 0 <= z_2844 <= 1
 0 <= z_2845 <= 1
 0 <= z_2846 <= 1
 0 <= z_2847 <= 1
 0 <= z_2848 <= 1
 0 <= z_2849 <= 1
 0 <= z_2850 <= 1
 0 <= z_2851 <= 1
 0 <= z_2852 <= 1
 0 <= z_2853 <= 1
 0 <= z_2854 <= 1
 0 <= z_2855 <= 1
 0 <= z_2856 <= 1
 0 <= z_2857 <= 1
 0 <= z_2858 <= 1
 0 <= z_2859 <= 1
 0 <= z_2860 <= 1
 0 <= z_2861 <= 1
 0 <= z_2862 <= 1
 0 <= z_2863 <= 1
 0 <= z_2864 <= 1
 0 <= z_2865 <= 1
 0 <= z_2866 <= 1
 0 <= z_2867 <= 1
 0 <= z_2868 <= 1
 0 <= z_2869 <= 1
 0 <= z_2870 <= 1
 0 <= z_2871 <= 1
 0 <= z_2872 <= 1
 0 <= z_2873 <= 1
 0 <= z_2874 <= 1
 0 <= z_2875 <= 1
 0 <= z_2876 <= 1
 0 <= z_2877 <= 1
 0 <= z_2878 <= 1
 0 <= z_2879 <= 1
 0 <= z_2880 <= 1
 0 <= z_2881 <= 1
 0 <= z_2882 <= 1
 0 <= z_2883 <= 1
 0 <= z_2884 <= 1
 0 <= z_2885 <= 1
 0 <= z_2886 <= 1
 0 <= z_2887 <= 1
 0 <= z_2888 <= 1
 0 <= z_2889 <= 1
 0 <= z_2890 <= 1
 0 <= z_2891 <= 1
 0 <= z_2892 <= 1
 0 <= z_2893 <= 1
 0 <= z_2894 <= 1
 0 <= z_2895 <= 1
 0 <= z_2896 <= 1
 0 <= z_2897 <= 1
 0 <= z_2898 <= 1
 0 <= z_2899 <= 1
 0 <= z_2900 <= 1
 0 <= z_2901 <= 1
 0 <= z_2902 <= 1
 0 <= z_2903 <= 1
 0 <= z_2904 <= 1
 0 <= z_2905 <= 1
 0 <= z_2906 <= 1
 0 <= z_2907 <= 1
 0 <= z_2908 <= 1
 0 <= z_2909 <= 1
 0 <= z_2910 <= 1
 0 <= z_2911 <= 1
 0 <= z_2912 <= 1
 0 <= z_2913 <= 1
 0 <= z_2914 <= 1
 0 <= z_2915 <= 1
 0 <= z_2916 <= 1
 0 <= z_2917 <= 1
 0 <= z_2918 <= 1
 0 <= z_2919 <= 1
 0 <= z_2920 <= 1
 0 <= z_2921 <= 1
 0 <= z_2922 <= 1
 0 <= z_2923 <= 1
 0 <= z_2924 <= 1
 0 <= z_2925 <= 1
 0 <= z_2926 <= 1
 0 <= z_2927 <= 1
 0 <= z_2928 <= 1
 0 <= z_2929 <= 1
 0 <= z_2930 <= 1
 0 <= z_2931 <= 1
 0 <= z_2932 <= 1
 0 <= z_2933 <= 1
 0 <= z_2934 <= 1
 0 <= z_2935 <= 1
 0 <= z_2936 <= 1
 0 <= z_2937 <= 1
 0 <= z_2938 <= 1
 0 <= z_2939 <= 1
 0 <= z_2940 <= 1
 0 <= z_2941 <= 1
 0 <= z_2942 <= 1
 0 <= z_2943 <= 1
 0 <= z_2944 <= 1
 0 <= z_2945 <= 1
 0 <= z_2946 <= 1
 0 <= z_2947 <= 1
 0 <= z_2948 <= 1
 0 <= z_2949 <= 1
 0 <= z_2950 <= 1
 0 <= z_2951 <= 1
 0 <= z_2952 <= 1
 0 <= z_2953 <= 1
 0 <= z_2954 <= 1
 0 <= z_2955 <= 1
 0 <= z_2956 <= 1
 0 <= z_2957 <= 1
 0 <= z_2958 <= 1
 0 <= z_2959 <= 1
 0 <= z_2960 <= 1
 0 <= z_2961 <= 1
 0 <= z_2962 <= 1
 0 <= z_2963 <= 1
 0 <= z_2964 <= 1
 0 <= z_2965 <= 1
 0 <= z_2966 <= 1
 0 <= z_2967 <= 1
 0 <= z_2968 <= 1
 0 <= z_2969 <= 1
 0 <= z_2970 <= 1
 0 <= z_2971 <= 1
 0 <= z_2972 <= 1
 0 <= z_2973 <= 1
 0 <= z_2974 <= 1
 0 <= z_2975 <= 1
 0 <= z_2976 <= 1
 0 <= z_2977 <= 1
 0 <= z_2978 <= 1
 0 <= z_2979 <= 1
 0 <= z_2980 <= 1
 0 <= z_2981 <= 1
 0 <= z_2982 <= 1
 0 <= z_2983 <= 1
 0 <= z_2984 <= 1
 0 <= z_2985 <= 1
 0 <= z_2986 <= 1
 0 <= z_2987 <= 1
 0 <= z_2988 <= 1
 0 <= z_2989 <= 1
 0 <= z_2990 <= 1
 0 <= z_2991 <= 1
 0 <= z_2992 <= 1
 0 <= z_2993 <= 1
 0 <= z_2994 <= 1
 0 <= z_2995 <= 1
 0 <= z_2996 <= 1
 0 <= z_2997 <= 1
 0 <= z_2998 <= 1
 0 <= z_2999 <= 1
 0 <= z_3000 <= 1
 0 <= z_3001 <= 1
 0 <= z_3002 <= 1
 0 <= z_3003 <= 1
 0 <= z_3004 <= 1
 0 <= z_3005 <= 1
 0 <= z_3006 <= 1
 0 <= z_3007 <= 1
 0 <= z_3008 <= 1
 0 <= z_3009 <= 1
 0 <= z_3010 <= 1
 0 <= z_3011 <= 1
 0 <= z_3012 <= 1
 0 <= z_3013 <= 1
 0 <= z_3014 <= 1
 0 <= z_3015 <= 1
 0 <= z_3016 <= 1
 0 <= z_3017 <= 1
 0 <= z_3018 <= 1
 0 <= z_3019 <= 1
 0 <= z_3020 <= 1
 0 <= z_3021 <= 1
 0 <= z_3022 <= 1
 0 <= z_3023 <= 1
 0 <= z_3024 <= 1
 0 <= z_3025 <= 1
 0 <= z_3026 <= 1
 0 <= z_3027 <= 1
 0 <= z_3028 <= 1
 0 <= z_3029 <= 1
 0 <= z_3030 <= 1
 0 <= z_3031 <= 1
 0 <= z_3032 <= 1
 0 <= z_3033 <= 1
 0 <= z_3034 <= 1
 0 <= z_3035 <= 1
 0 <= z_3036 <= 1
 0 <= z_3037 <= 1
 0 <= z_3038 <= 1
 0 <= z_3039 <= 1
 0 <= z_3040 <= 1
 0 <= z_3041 <= 1
 0 <= z_3042 <= 1
 0 <= z_3043 <= 1
 0 <= z_3044 <= 1
 0 <= z_3045 <= 1
 0 <= z_3046 <= 1
 0 <= z_3047 <= 1
 0 <= z_3048 <= 1
 0 <= z_3049 <= 1
 0 <= z_3050 <= 1
 0 <= z_3051 <= 1
 0 <= z_3052 <= 1
 0 <= z_3053 <= 1
 0 <= z_3054 <= 1
 0 <= z_3055 <= 1
 0 <= z_3056 <= 1
 0 <= z_3057 <= 1
 0 <= z_3058 <= 1
 0 <= z_3059 <= 1
 0 <= z_3060 <= 1
 0 <= z_3061 <= 1
 0 <= z_3062 <= 1
 0 <= z_3063 <= 1
 0 <= z_3064 <= 1
 0 <= z_3065 <= 1
 0 <= z_3066 <= 1
 0 <= z_3067 <= 1
 0 <= z_3068 <= 1
 0 <= z_3069 <= 1
 0 <= z_3070 <= 1
 0 <= z_3071 <= 1
 0 <= z_3072 <= 1
 0 <= z_3073 <= 1
 0 <= z_3074 <= 1
 0 <= z_3075 <= 1
 0 <= z_3076 <= 1
 0 <= z_3077 <= 1
 0 <= z_3078 <= 1
 0 <= z_3079 <= 1
 0 <= z_3080 <= 1
 0 <= z_3081 <= 1
 0 <= z_3082 <= 1
 0 <= z_3083 <= 1
 0 <= z_3084 <= 1
 0 <= z_3085 <= 1
 0 <= z_3086 <= 1
 0 <= z_3087 <= 1
 0 <= z_3088 <= 1
 0 <= z_3089 <= 1
 0 <= z_3090 <= 1
 0 <= z_3091 <= 1
 0 <= z_3092 <= 1
 0 <= z_3093 <= 1
 0 <= z_3094 <= 1
 0 <= z_3095 <= 1
 0 <= z_3096 <= 1
 0 <= z_3097 <= 1
 0 <= z_3098 <= 1
 0 <= z_3099 <= 1
 0 <= z_3100 <= 1
 0 <= z_3101 <= 1
 0 <= z_3102 <= 1
 0 <= z_3103 <= 1
 0 <= z_3104 <= 1
 0 <= z_3105 <= 1
 0 <= z_3106 <= 1
 0 <= z_3107 <= 1
 0 <= z_3108 <= 1
 0 <= z_3109 <= 1
 0 <= z_3110 <= 1
 0 <= z_3111 <= 1
 0 <= z_3112 <= 1
 0 <= z_3113 <= 1
 0 <= z_3114 <= 1
 0 <= z_3115 <= 1
 0 <= z_3116 <= 1
 0 <= z_3117 <= 1
 0 <= z_3118 <= 1
 0 <= z_3119 <= 1
 0 <= z_3120 <= 1
 0 <= z_3121 <= 1
 0 <= z_3122 <= 1
 0 <= z_3123 <= 1
 0 <= z_3124 <= 1
 0 <= z_3125 <= 1
 0 <= z_3126 <= 1
 0 <= z_3127 <= 1
 0 <= z_3128 <= 1
 0 <= z_3129 <= 1
 0 <= z_3130 <= 1
 0 <= z_3131 <= 1
 0 <= z_3132 <= 1
 0 <= z_3133 <= 1
 0 <= z_3134 <= 1
 0 <= z_3135 <= 1
 0 <= z_3136 <= 1
 0 <= z_3137 <= 1
 0 <= z_3138 <= 1
 0 <= z_3139 <= 1
 0 <= z_3140 <= 1
 0 <= z_3141 <= 1
 0 <= z_3142 <= 1
 0 <= z_3143 <= 1
 0 <= z_3144 <= 1
 0 <= z_3145 <= 1
 0 <= z_3146 <= 1
 0 <= z_3147 <= 1
 0 <= z_3148 <= 1
 0 <= z_3149 <= 1
 0 <= z_3150 <= 1
 0 <= z_3151 <= 1
 0 <= z_3152 <= 1
 0 <= z_3153 <= 1
 0 <= z_3154 <= 1
 0 <= z_3155 <= 1
 0 <= z_3156 <= 1
 0 <= z_3157 <= 1
 0 <= z_3158 <= 1
 0 <= z_3159 <= 1
 0 <= z_3160 <= 1
 0 <= z_3161 <= 1
 0 <= z_3162 <= 1
 0 <= z_3163 <= 1
 0 <= z_3164 <= 1
 0 <= z_3165 <= 1
 0 <= z_3166 <= 1
 0 <= z_3167 <= 1
 0 <= z_3168 <= 1
 0 <= z_3169 <= 1
 0 <= z_3170 <= 1
 0 <= z_3171 <= 1
 0 <= z_3172 <= 1
 0 <= z_3173 <= 1
 0 <= z_3174 <= 1
 0 <= z_3175 <= 1
 0 <= z_3176 <= 1
 0 <= z_3177 <= 1
 0 <= z_3178 <= 1
 0 <= z_3179 <= 1
 0 <= z_3180 <= 1
 0 <= z_3181 <= 1
 0 <= z_3182 <= 1
 0 <= z_3183 <= 1
 0 <= z_3184 <= 1
 0 <= z_3185 <= 1
 0 <= z_3186 <= 1
 0 <= z_3187 <= 1
 0 <= z_3188 <= 1
 0 <= z_3189 <= 1
 0 <= z_3190 <= 1
 0 <= z_3191 <= 1
 0 <= z_3192 <= 1
 0 <= z_3193 <= 1
 0 <= z_3194 <= 1
 0 <= z_3195 <= 1
 0 <= z_3196 <= 1
 0 <= z_3197 <= 1
 0 <= z_3198 <= 1
 0 <= z_3199 <= 1
 0 <= z_3200 <= 1
 0 <= z_3201 <= 1
 0 <= z_3202 <= 1
 0 <= z_3203 <= 1
 0 <= z_3204 <= 1
 0 <= z_3205 <= 1
 0 <= z_3206 <= 1
 0 <= z_3207 <= 1
 0 <= z_3208 <= 1
 0 <= z_3209 <= 1
 0 <= z_3210 <= 1
 0 <= z_3211 <= 1
 0 <= z_3212 <= 1
 0 <= z_3213 <= 1
 0 <= z_3214 <= 1
 0 <= z_3215 <= 1
 0 <= z_3216 <= 1
 0 <= z_3217 <= 1
 0 <= z_3218 <= 1
 0 <= z_3219 <= 1
 0 <= z_3220 <= 1
 0 <= z_3221 <= 1
 0 <= z_3222 <= 1
 0 <= z_3223 <= 1
 0 <= z_3224 <= 1
 0 <= z_3225 <= 1
 0 <= z_3226 <= 1
 0 <= z_3227 <= 1
 0 <= z_3228 <= 1
 0 <= z_3229 <= 1
 0 <= z_3230 <= 1
 0 <= z_3231 <= 1
 0 <= z_3232 <= 1
 0 <= z_3233 <= 1
 0 <= z_3234 <= 1
 0 <= z_3235 <= 1
 0 <= z_3236 <= 1
 0 <= z_3237 <= 1
 0 <= z_3238 <= 1
 0 <= z_3239 <= 1
 0 <= z_3240 <= 1
 0 <= z_3241 <= 1
 0 <= z_3242 <= 1
 0 <= z_3243 <= 1
 0 <= z_3244 <= 1
 0 <= z_3245 <= 1
 0 <= z_3246 <= 1
 0 <= z_3247 <= 1
 0 <= z_3248 <= 1
 0 <= z_3249 <= 1
 0 <= z_3250 <= 1
 0 <= z_3251 <= 1
 0 <= z_3252 <= 1
 0 <= z_3253 <= 1
 0 <= z_3254 <= 1
 0 <= z_3255 <= 1
 0 <= z_3256 <= 1
 0 <= z_3257 <= 1
 0 <= z_3258 <= 1
 0 <= z_3259 <= 1
 0 <= z_3260 <= 1
 0 <= z_3261 <= 1
 0 <= z_3262 <= 1
 0 <= z_3263 <= 1
 0 <= z_3264 <= 1
 0 <= z_3265 <= 1
 0 <= z_3266 <= 1
 0 <= z_3267 <= 1
 0 <= z_3268 <= 1
 0 <= z_3269 <= 1
 0 <= z_3270 <= 1
 0 <= z_3271 <= 1
 0 <= z_3272 <= 1
 0 <= z_3273 <= 1
 0 <= z_3274 <= 1
 0 <= z_3275 <= 1
 0 <= z_3276 <= 1
 0 <= z_3277 <= 1
 0 <= z_3278 <= 1
 0 <= z_3279 <= 1
 0 <= z_3280 <= 1
 0 <= z_3281 <= 1
 0 <= z_3282 <= 1
 0 <= z_3283 <= 1
 0 <= z_3284 <= 1
 0 <= z_3285 <= 1
 0 <= z_3286 <= 1
 0 <= z_3287 <= 1
 0 <= z_3288 <= 1
 0 <= z_3289 <= 1
 0 <= z_3290 <= 1
 0 <= z_3291 <= 1
 0 <= z_3292 <= 1
 0 <= z_3293 <= 1
 0 <= z_3294 <= 1
 0 <= z_3295 <= 1
 0 <= z_3296 <= 1
 0 <= z_3297 <= 1
 0 <= z_3298 <= 1
 0 <= z_3299 <= 1
 0 <= z_3300 <= 1
 0 <= z_3301 <= 1
 0 <= z_3302 <= 1
 0 <= z_3303 <= 1
 0 <= z_3304 <= 1
 0 <= z_3305 <= 1
 0 <= z_3306 <= 1
 0 <= z_3307 <= 1
 0 <= z_3308 <= 1
 0 <= z_3309 <= 1
 0 <= z_3310 <= 1
 0 <= z_3311 <= 1
 0 <= z_3312 <= 1
 0 <= z_3313 <= 1
 0 <= z_3314 <= 1
 0 <= z_3315 <= 1
 0 <= z_3316 <= 1
 0 <= z_3317 <= 1
 0 <= z_3318 <= 1
 0 <= z_3319 <= 1
 0 <= z_3320 <= 1
 0 <= z_3321 <= 1
 0 <= z_3322 <= 1
 0 <= z_3323 <= 1
 0 <= z_3324 <= 1
 0 <= z_3325 <= 1
 0 <= z_3326 <= 1
 0 <= z_3327 <= 1
 0 <= z_3328 <= 1
 0 <= z_3329 <= 1
 0 <= z_3330 <= 1
 0 <= z_3331 <= 1
 0 <= z_3332 <= 1
 0 <= z_3333 <= 1
 0 <= z_3334 <= 1
 0 <= z_3335 <= 1
 0 <= z_3336 <= 1
 0 <= z_3337 <= 1
 0 <= z_3338 <= 1
 0 <= z_3339 <= 1
 0 <= z_3340 <= 1
 0 <= z_3341 <= 1
 0 <= z_3342 <= 1
 0 <= z_3343 <= 1
 0 <= z_3344 <= 1
 0 <= z_3345 <= 1
 0 <= z_3346 <= 1
 0 <= z_3347 <= 1
 0 <= z_3348 <= 1
 0 <= z_3349 <= 1
 0 <= z_3350 <= 1
 0 <= z_3351 <= 1
 0 <= z_3352 <= 1
 0 <= z_3353 <= 1
 0 <= z_3354 <= 1
 0 <= z_3355 <= 1
 0 <= z_3356 <= 1
 0 <= z_3357 <= 1
 0 <= z_3358 <= 1
 0 <= z_3359 <= 1
 0 <= z_3360 <= 1
 0 <= z_3361 <= 1
 0 <= z_3362 <= 1
 0 <= z_3363 <= 1
 0 <= z_3364 <= 1
 0 <= z_3365 <= 1
 0 <= z_3366 <= 1
 0 <= z_3367 <= 1
 0 <= z_3368 <= 1
 0 <= z_3369 <= 1
 0 <= z_3370 <= 1
 0 <= z_3371 <= 1
 0 <= z_3372 <= 1
 0 <= z_3373 <= 1
 0 <= z_3374 <= 1
 0 <= z_3375 <= 1
 0 <= z_3376 <= 1
 0 <= z_3377 <= 1
 0 <= z_3378 <= 1
 0 <= z_3379 <= 1
 0 <= z_3380 <= 1
 0 <= z_3381 <= 1
 0 <= z_3382 <= 1
 0 <= z_3383 <= 1
 0 <= z_3384 <= 1
 0 <= z_3385 <= 1
 0 <= z_3386 <= 1
 0 <= z_3387 <= 1
 0 <= z_3388 <= 1
 0 <= z_3389 <= 1
 0 <= z_3390 <= 1
 0 <= z_3391 <= 1
 0 <= z_3392 <= 1
 0 <= z_3393 <= 1
 0 <= z_3394 <= 1
 0 <= z_3395 <= 1
 0 <= z_3396 <= 1
 0 <= z_3397 <= 1
 0 <= z_3398 <= 1
 0 <= z_3399 <= 1
 0 <= z_3400 <= 1
 0 <= z_3401 <= 1
 0 <= z_3402 <= 1
 0 <= z_3403 <= 1
 0 <= z_3404 <= 1
 0 <= z_3405 <= 1
 0 <= z_3406 <= 1
 0 <= z_3407 <= 1
 0 <= z_3408 <= 1
 0 <= z_3409 <= 1
 0 <= z_3410 <= 1
 0 <= z_3411 <= 1
 0 <= z_3412 <= 1
 0 <= z_3413 <= 1
 0 <= z_3414 <= 1
 0 <= z_3415 <= 1
 0 <= z_3416 <= 1
 0 <= z_3417 <= 1
 0 <= z_3418 <= 1
 0 <= z_3419 <= 1
 0 <= z_3420 <= 1
 0 <= z_3421 <= 1
 0 <= z_3422 <= 1
 0 <= z_3423 <= 1
 0 <= z_3424 <= 1
 0 <= z_3425 <= 1
 0 <= z_3426 <= 1
 0 <= z_3427 <= 1
 0 <= z_3428 <= 1
 0 <= z_3429 <= 1
 0 <= z_3430 <= 1
 0 <= z_3431 <= 1
 0 <= z_3432 <= 1
 0 <= z_3433 <= 1
 0 <= z_3434 <= 1
 0 <= z_3435 <= 1
 0 <= z_3436 <= 1
 0 <= z_3437 <= 1
 0 <= z_3438 <= 1
 0 <= z_3439 <= 1
 0 <= z_3440 <= 1
 0 <= z_3441 <= 1
 0 <= z_3442 <= 1
 0 <= z_3443 <= 1
 0 <= z_3444 <= 1
 0 <= z_3445 <= 1
 0 <= z_3446 <= 1
 0 <= z_3447 <= 1
 0 <= z_3448 <= 1
 0 <= z_3449 <= 1
 0 <= z_3450 <= 1
 0 <= z_3451 <= 1
 0 <= z_3452 <= 1
 0 <= z_3453 <= 1
 0 <= z_3454 <= 1
 0 <= z_3455 <= 1
 0 <= z_3456 <= 1
 0 <= z_3457 <= 1
 0 <= z_3458 <= 1
 0 <= z_3459 <= 1
 0 <= z_3460 <= 1
 0 <= z_3461 <= 1
 0 <= z_3462 <= 1
 0 <= z_3463 <= 1
 0 <= z_3464 <= 1
 0 <= z_3465 <= 1
 0 <= z_3466 <= 1
 0 <= z_3467 <= 1
 0 <= z_3468 <= 1
 0 <= z_3469 <= 1
 0 <= z_3470 <= 1
 0 <= z_3471 <= 1
 0 <= z_3472 <= 1
 0 <= z_3473 <= 1
 0 <= z_3474 <= 1
 0 <= z_3475 <= 1
 0 <= z_3476 <= 1
 0 <= z_3477 <= 1
 0 <= z_3478 <= 1
 0 <= z_3479 <= 1
 0 <= z_3480 <= 1
 0 <= z_3481 <= 1
 0 <= z_3482 <= 1
 0 <= z_3483 <= 1
 0 <= z_3484 <= 1
 0 <= z_3485 <= 1
 0 <= z_3486 <= 1
 0 <= z_3487 <= 1
 0 <= z_3488 <= 1
 0 <= z_3489 <= 1
 0 <= z_3490 <= 1
 0 <= z_3491 <= 1
 0 <= z_3492 <= 1
 0 <= z_3493 <= 1
 0 <= z_3494 <= 1
 0 <= z_3495 <= 1
 0 <= z_3496 <= 1
 0 <= z_3497 <= 1
 0 <= z_3498 <= 1
 0 <= z_3499 <= 1
 0 <= z_3500 <= 1
 0 <= z_3501 <= 1
 0 <= z_3502 <= 1
 0 <= z_3503 <= 1
 0 <= z_3504 <= 1
 0 <= z_3505 <= 1
 0 <= z_3506 <= 1
 0 <= z_3507 <= 1
 0 <= z_3508 <= 1
 0 <= z_3509 <= 1
 0 <= z_3510 <= 1
 0 <= z_3511 <= 1
 0 <= z_3512 <= 1
 0 <= z_3513 <= 1
 0 <= z_3514 <= 1
 0 <= z_3515 <= 1
 0 <= z_3516 <= 1
 0 <= z_3517 <= 1
 0 <= z_3518 <= 1
 0 <= z_3519 <= 1
 0 <= z_3520 <= 1
 0 <= z_3521 <= 1
 0 <= z_3522 <= 1
 0 <= z_3523 <= 1
 0 <= z_3524 <= 1
 0 <= z_3525 <= 1
 0 <= z_3526 <= 1
 0 <= z_3527 <= 1
 0 <= z_3528 <= 1
 0 <= z_3529 <= 1
 0 <= z_3530 <= 1
 0 <= z_3531 <= 1
 0 <= z_3532 <= 1
 0 <= z_3533 <= 1
 0 <= z_3534 <= 1
 0 <= z_3535 <= 1
 0 <= z_3536 <= 1
 0 <= z_3537 <= 1
 0 <= z_3538 <= 1
 0 <= z_3539 <= 1
 0 <= z_3540 <= 1
 0 <= z_3541 <= 1
 0 <= z_3542 <= 1
 0 <= z_3543 <= 1
 0 <= z_3544 <= 1
 0 <= z_3545 <= 1
 0 <= z_3546 <= 1
 0 <= z_3547 <= 1
 0 <= z_3548 <= 1
 0 <= z_3549 <= 1
 0 <= z_3550 <= 1
 0 <= z_3551 <= 1
 0 <= z_3552 <= 1
 0 <= z_3553 <= 1
 0 <= z_3554 <= 1
 0 <= z_3555 <= 1
 0 <= z_3556 <= 1
 0 <= z_3557 <= 1
 0 <= z_3558 <= 1
 0 <= z_3559 <= 1
 0 <= z_3560 <= 1
 0 <= z_3561 <= 1
 0 <= z_3562 <= 1
 0 <= z_3563 <= 1
 0 <= z_3564 <= 1
 0 <= z_3565 <= 1
 0 <= z_3566 <= 1
 0 <= z_3567 <= 1
 0 <= z_3568 <= 1
 0 <= z_3569 <= 1
 0 <= z_3570 <= 1
 0 <= z_3571 <= 1
 0 <= z_3572 <= 1
 0 <= z_3573 <= 1
 0 <= z_3574 <= 1
 0 <= z_3575 <= 1
 0 <= z_3576 <= 1
 0 <= z_3577 <= 1
 0 <= z_3578 <= 1
 0 <= z_3579 <= 1
 0 <= z_3580 <= 1
 0 <= z_3581 <= 1
 0 <= z_3582 <= 1
 0 <= z_3583 <= 1
 0 <= z_3584 <= 1
 0 <= z_3585 <= 1
 0 <= z_3586 <= 1
 0 <= z_3587 <= 1
 0 <= z_3588 <= 1
 0 <= z_3589 <= 1
 0 <= z_3590 <= 1
 0 <= z_3591 <= 1
 0 <= z_3592 <= 1
 0 <= z_3593 <= 1
 0 <= z_3594 <= 1
 0 <= z_3595 <= 1
 0 <= z_3596 <= 1
 0 <= z_3597 <= 1
 0 <= z_3598 <= 1
 0 <= z_3599 <= 1
 0 <= z_3600 <= 1
 0 <= z_3601 <= 1
 0 <= z_3602 <= 1
 0 <= z_3603 <= 1
 0 <= z_3604 <= 1
 0 <= z_3605 <= 1
 0 <= z_3606 <= 1
 0 <= z_3607 <= 1
 0 <= z_3608 <= 1
 0 <= z_3609 <= 1
 0 <= z_3610 <= 1
 0 <= z_3611 <= 1
 0 <= z_3612 <= 1
 0 <= z_3613 <= 1
 0 <= z_3614 <= 1
 0 <= z_3615 <= 1
 0 <= z_3616 <= 1
 0 <= z_3617 <= 1
 0 <= z_3618 <= 1
 0 <= z_3619 <= 1
 0 <= z_3620 <= 1
 0 <= z_3621 <= 1
 0 <= z_3622 <= 1
 0 <= z_3623 <= 1
 0 <= z_3624 <= 1
 0 <= z_3625 <= 1
 0 <= z_3626 <= 1
 0 <= z_3627 <= 1
 0 <= z_3628 <= 1
 0 <= z_3629 <= 1
 0 <= z_3630 <= 1
 0 <= z_3631 <= 1
 0 <= z_3632 <= 1
 0 <= z_3633 <= 1
 0 <= z_3634 <= 1
 0 <= z_3635 <= 1
 0 <= z_3636 <= 1
 0 <= z_3637 <= 1
 0 <= z_3638 <= 1
 0 <= z_3639 <= 1
 0 <= z_3640 <= 1
 0 <= z_3641 <= 1
 0 <= z_3642 <= 1
 0 <= z_3643 <= 1
 0 <= z_3644 <= 1
 0 <= z_3645 <= 1
 0 <= z_3646 <= 1
 0 <= z_3647 <= 1
 0 <= z_3648 <= 1
 0 <= z_3649 <= 1
 0 <= z_3650 <= 1
 0 <= z_3651 <= 1
 0 <= z_3652 <= 1
 0 <= z_3653 <= 1
 0 <= z_3654 <= 1
 0 <= z_3655 <= 1
 0 <= z_3656 <= 1
 0 <= z_3657 <= 1
 0 <= z_3658 <= 1
 0 <= z_3659 <= 1
 0 <= z_3660 <= 1
 0 <= z_3661 <= 1
 0 <= z_3662 <= 1
 0 <= z_3663 <= 1
 0 <= z_3664 <= 1
 0 <= z_3665 <= 1
 0 <= z_3666 <= 1
 0 <= z_3667 <= 1
 0 <= z_3668 <= 1
 0 <= z_3669 <= 1
 0 <= z_3670 <= 1
 0 <= z_3671 <= 1
 0 <= z_3672 <= 1
 0 <= z_3673 <= 1
 0 <= z_3674 <= 1
 0 <= z_3675 <= 1
 0 <= z_3676 <= 1
 0 <= z_3677 <= 1
 0 <= z_3678 <= 1
 0 <= z_3679 <= 1
 0 <= z_3680 <= 1
 0 <= z_3681 <= 1
 0 <= z_3682 <= 1
 0 <= z_3683 <= 1
 0 <= z_3684 <= 1
 0 <= z_3685 <= 1
 0 <= z_3686 <= 1
 0 <= z_3687 <= 1
 0 <= z_3688 <= 1
 0 <= z_3689 <= 1
 0 <= z_3690 <= 1
 0 <= z_3691 <= 1
 0 <= z_3692 <= 1
 0 <= z_3693 <= 1
 0 <= z_3694 <= 1
 0 <= z_3695 <= 1
 0 <= z_3696 <= 1
 0 <= z_3697 <= 1
 0 <= z_3698 <= 1
 0 <= z_3699 <= 1
 0 <= z_3700 <= 1
 0 <= z_3701 <= 1
 0 <= z_3702 <= 1
 0 <= z_3703 <= 1
 0 <= z_3704 <= 1
 0 <= z_3705 <= 1
 0 <= z_3706 <= 1
 0 <= z_3707 <= 1
 0 <= z_3708 <= 1
 0 <= z_3709 <= 1
 0 <= z_3710 <= 1
 0 <= z_3711 <= 1
 0 <= z_3712 <= 1
 0 <= z_3713 <= 1
 0 <= z_3714 <= 1
 0 <= z_3715 <= 1
 0 <= z_3716 <= 1
 0 <= z_3717 <= 1
 0 <= z_3718 <= 1
 0 <= z_3719 <= 1
 0 <= z_3720 <= 1
 0 <= z_3721 <= 1
 0 <= z_3722 <= 1
 0 <= z_3723 <= 1
 0 <= z_3724 <= 1
 0 <= z_3725 <= 1
 0 <= z_3726 <= 1
 0 <= z_3727 <= 1
 0 <= z_3728 <= 1
 0 <= z_3729 <= 1
 0 <= z_3730 <= 1
 0 <= z_3731 <= 1
 0 <= z_3732 <= 1
 0 <= z_3733 <= 1
 0 <= z_3734 <= 1
 0 <= z_3735 <= 1
 0 <= z_3736 <= 1
 0 <= z_3737 <= 1
 0 <= z_3738 <= 1
 0 <= z_3739 <= 1
 0 <= z_3740 <= 1
 0 <= z_3741 <= 1
 0 <= z_3742 <= 1
 0 <= z_3743 <= 1
 0 <= z_3744 <= 1
 0 <= z_3745 <= 1
 0 <= z_3746 <= 1
 0 <= z_3747 <= 1
 0 <= z_3748 <= 1
 0 <= z_3749 <= 1
 0 <= z_3750 <= 1
 0 <= z_3751 <= 1
 0 <= z_3752 <= 1
 0 <= z_3753 <= 1
 0 <= z_3754 <= 1
 0 <= z_3755 <= 1
 0 <= z_3756 <= 1
 0 <= z_3757 <= 1
 0 <= z_3758 <= 1
 0 <= z_3759 <= 1
 0 <= z_3760 <= 1
 0 <= z_3761 <= 1
 0 <= z_3762 <= 1
 0 <= z_3763 <= 1
 0 <= z_3764 <= 1
 0 <= z_3765 <= 1
 0 <= z_3766 <= 1
 0 <= z_3767 <= 1
 0 <= z_3768 <= 1
 0 <= z_3769 <= 1
 0 <= z_3770 <= 1
 0 <= z_3771 <= 1
 0 <= z_3772 <= 1
 0 <= z_3773 <= 1
 0 <= z_3774 <= 1
 0 <= z_3775 <= 1
 0 <= z_3776 <= 1
 0 <= z_3777 <= 1
 0 <= z_3778 <= 1
 0 <= z_3779 <= 1
 0 <= z_3780 <= 1
 0 <= z_3781 <= 1
 0 <= z_3782 <= 1
 0 <= z_3783 <= 1
 0 <= z_3784 <= 1
 0 <= z_3785 <= 1
 0 <= z_3786 <= 1
 0 <= z_3787 <= 1
 0 <= z_3788 <= 1
 0 <= z_3789 <= 1
 0 <= z_3790 <= 1
 0 <= z_3791 <= 1
 0 <= z_3792 <= 1
 0 <= z_3793 <= 1
 0 <= z_3794 <= 1
 0 <= z_3795 <= 1
 0 <= z_3796 <= 1
 0 <= z_3797 <= 1
 0 <= z_3798 <= 1
 0 <= z_3799 <= 1
 0 <= z_3800 <= 1
 0 <= z_3801 <= 1
 0 <= z_3802 <= 1
 0 <= z_3803 <= 1
 0 <= z_3804 <= 1
 0 <= z_3805 <= 1
 0 <= z_3806 <= 1
 0 <= z_3807 <= 1
 0 <= z_3808 <= 1
 0 <= z_3809 <= 1
 0 <= z_3810 <= 1
 0 <= z_3811 <= 1
 0 <= z_3812 <= 1
 0 <= z_3813 <= 1
 0 <= z_3814 <= 1
 0 <= z_3815 <= 1
 0 <= z_3816 <= 1
 0 <= z_3817 <= 1
 0 <= z_3818 <= 1
 0 <= z_3819 <= 1
 0 <= z_3820 <= 1
 0 <= z_3821 <= 1
 0 <= z_3822 <= 1
 0 <= z_3823 <= 1
 0 <= z_3824 <= 1
 0 <= z_3825 <= 1
 0 <= z_3826 <= 1
 0 <= z_3827 <= 1
 0 <= z_3828 <= 1
 0 <= z_3829 <= 1
 0 <= z_3830 <= 1
 0 <= z_3831 <= 1
 0 <= z_3832 <= 1
 0 <= z_3833 <= 1
 0 <= z_3834 <= 1
 0 <= z_3835 <= 1
 0 <= z_3836 <= 1
 0 <= z_3837 <= 1
 0 <= z_3838 <= 1
 0 <= z_3839 <= 1
 0 <= z_3840 <= 1
 0 <= z_3841 <= 1
 0 <= z_3842 <= 1
 0 <= z_3843 <= 1
 0 <= z_3844 <= 1
 0 <= z_3845 <= 1
 0 <= z_3846 <= 1
 0 <= z_3847 <= 1
 0 <= z_3848 <= 1
 0 <= z_3849 <= 1
 0 <= z_3850 <= 1
 0 <= z_3851 <= 1
 0 <= z_3852 <= 1
 0 <= z_3853 <= 1
 0 <= z_3854 <= 1
 0 <= z_3855 <= 1
 0 <= z_3856 <= 1
 0 <= z_3857 <= 1
 0 <= z_3858 <= 1
 0 <= z_3859 <= 1
 0 <= z_3860 <= 1
 0 <= z_3861 <= 1
 0 <= z_3862 <= 1
 0 <= z_3863 <= 1
 0 <= z_3864 <= 1
 0 <= z_3865 <= 1
 0 <= z_3866 <= 1
 0 <= z_3867 <= 1
 0 <= z_3868 <= 1
 0 <= z_3869 <= 1
 0 <= z_3870 <= 1
 0 <= z_3871 <= 1
 0 <= z_3872 <= 1
 0 <= z_3873 <= 1
 0 <= z_3874 <= 1
 0 <= z_3875 <= 1
 0 <= z_3876 <= 1
 0 <= z_3877 <= 1
 0 <= z_3878 <= 1
 0 <= z_3879 <= 1
 0 <= z_3880 <= 1
 0 <= z_3881 <= 1
 0 <= z_3882 <= 1
 0 <= z_3883 <= 1
 0 <= z_3884 <= 1
 0 <= z_3885 <= 1
 0 <= z_3886 <= 1
 0 <= z_3887 <= 1
 0 <= z_3888 <= 1
 0 <= z_3889 <= 1
 0 <= z_3890 <= 1
 0 <= z_3891 <= 1
 0 <= z_3892 <= 1
 0 <= z_3893 <= 1
 0 <= z_3894 <= 1
 0 <= z_3895 <= 1
 0 <= z_3896 <= 1
 0 <= z_3897 <= 1
 0 <= z_3898 <= 1
 0 <= z_3899 <= 1
 0 <= z_3900 <= 1
 0 <= z_3901 <= 1
 0 <= z_3902 <= 1
 0 <= z_3903 <= 1
 0 <= z_3904 <= 1
 0 <= z_3905 <= 1
 0 <= z_3906 <= 1
 0 <= z_3907 <= 1
 0 <= z_3908 <= 1
 0 <= z_3909 <= 1
 0 <= z_3910 <= 1
 0 <= z_3911 <= 1
 0 <= z_3912 <= 1
 0 <= z_3913 <= 1
 0 <= z_3914 <= 1
 0 <= z_3915 <= 1
 0 <= z_3916 <= 1
 0 <= z_3917 <= 1
 0 <= z_3918 <= 1
 0 <= z_3919 <= 1
 0 <= z_3920 <= 1
 0 <= z_3921 <= 1
 0 <= z_3922 <= 1
 0 <= z_3923 <= 1
 0 <= z_3924 <= 1
 0 <= z_3925 <= 1
 0 <= z_3926 <= 1
 0 <= z_3927 <= 1
 0 <= z_3928 <= 1
 0 <= z_3929 <= 1
 0 <= z_3930 <= 1
 0 <= z_3931 <= 1
 0 <= z_3932 <= 1
 0 <= z_3933 <= 1
 0 <= z_3934 <= 1
 0 <= z_3935 <= 1
 0 <= z_3936 <= 1
 0 <= z_3937 <= 1
 0 <= z_3938 <= 1
 0 <= z_3939 <= 1
 0 <= z_3940 <= 1
 0 <= z_3941 <= 1
 0 <= z_3942 <= 1
 0 <= z_3943 <= 1
 0 <= z_3944 <= 1
 0 <= z_3945 <= 1
 0 <= z_3946 <= 1
 0 <= z_3947 <= 1
 0 <= z_3948 <= 1
 0 <= z_3949 <= 1
 0 <= z_3950 <= 1
 0 <= z_3951 <= 1
 0 <= z_3952 <= 1
 0 <= z_3953 <= 1
 0 <= z_3954 <= 1
 0 <= z_3955 <= 1
 0 <= z_3956 <= 1
 0 <= z_3957 <= 1
 0 <= z_3958 <= 1
 0 <= z_3959 <= 1
 0 <= z_3960 <= 1
 0 <= z_3961 <= 1
 0 <= z_3962 <= 1
 0 <= z_3963 <= 1
 0 <= z_3964 <= 1
 0 <= z_3965 <= 1
 0 <= z_3966 <= 1
 0 <= z_3967 <= 1
 0 <= z_3968 <= 1
 0 <= z_3969 <= 1
 0 <= z_3970 <= 1
 0 <= z_3971 <= 1
 0 <= z_3972 <= 1
 0 <= z_3973 <= 1
 0 <= z_3974 <= 1
 0 <= z_3975 <= 1
 0 <= z_3976 <= 1
 0 <= z_3977 <= 1
 0 <= z_3978 <= 1
 0 <= z_3979 <= 1
 0 <= z_3980 <= 1
 0 <= z_3981 <= 1
 0 <= z_3982 <= 1
 0 <= z_3983 <= 1
 0 <= z_3984 <= 1
 0 <= z_3985 <= 1
 0 <= z_3986 <= 1
 0 <= z_3987 <= 1
 0 <= z_3988 <= 1
 0 <= z_3989 <= 1
 0 <= z_3990 <= 1
 0 <= z_3991 <= 1
 0 <= z_3992 <= 1
 0 <= z_3993 <= 1
 0 <= z_3994 <= 1
 0 <= z_3995 <= 1
 0 <= z_3996 <= 1
 0 <= z_3997 <= 1
 0 <= z_3998 <= 1
 0 <= z_3999 <= 1
 0 <= z_4000 <= 1
 0 <= z_4001 <= 1
 0 <= z_4002 <= 1
 0 <= z_4003 <= 1
 0 <= z_4004 <= 1
 0 <= z_4005 <= 1
 0 <= z_4006 <= 1
 0 <= z_4007 <= 1
 0 <= z_4008 <= 1
 0 <= z_4009 <= 1
 0 <= z_4010 <= 1
 0 <= z_4011 <= 1
 0 <= z_4012 <= 1
 0 <= z_4013 <= 1
 0 <= z_4014 <= 1
 0 <= z_4015 <= 1
 0 <= z_4016 <= 1
 0 <= z_4017 <= 1
 0 <= z_4018 <= 1
 0 <= z_4019 <= 1
 0 <= z_4020 <= 1
 0 <= z_4021 <= 1
 0 <= z_4022 <= 1
 0 <= z_4023 <= 1
 0 <= z_4024 <= 1
 0 <= z_4025 <= 1
 0 <= z_4026 <= 1
 0 <= z_4027 <= 1
 0 <= z_4028 <= 1
 0 <= z_4029 <= 1
 0 <= z_4030 <= 1
 0 <= z_4031 <= 1
 0 <= z_4032 <= 1
 0 <= z_4033 <= 1
 0 <= z_4034 <= 1
 0 <= z_4035 <= 1
 0 <= z_4036 <= 1
 0 <= z_4037 <= 1
 0 <= z_4038 <= 1
 0 <= z_4039 <= 1
 0 <= z_4040 <= 1
 0 <= z_4041 <= 1
 0 <= z_4042 <= 1
 0 <= z_4043 <= 1
 0 <= z_4044 <= 1
 0 <= z_4045 <= 1
 0 <= z_4046 <= 1
 0 <= z_4047 <= 1
 0 <= z_4048 <= 1
 0 <= z_4049 <= 1
 0 <= z_4050 <= 1
 0 <= z_4051 <= 1
 0 <= z_4052 <= 1
 0 <= z_4053 <= 1
 0 <= z_4054 <= 1
 0 <= z_4055 <= 1
 0 <= z_4056 <= 1
 0 <= z_4057 <= 1
 0 <= z_4058 <= 1
 0 <= z_4059 <= 1
 0 <= z_4060 <= 1
 0 <= z_4061 <= 1
 0 <= z_4062 <= 1
 0 <= z_4063 <= 1
 0 <= z_4064 <= 1
 0 <= z_4065 <= 1
 0 <= z_4066 <= 1
 0 <= z_4067 <= 1
 0 <= z_4068 <= 1
 0 <= z_4069 <= 1
 0 <= z_4070 <= 1
 0 <= z_4071 <= 1
 0 <= z_4072 <= 1
 0 <= z_4073 <= 1
 0 <= z_4074 <= 1
 0 <= z_4075 <= 1
 0 <= z_4076 <= 1
 0 <= z_4077 <= 1
 0 <= z_4078 <= 1
 0 <= z_4079 <= 1
 0 <= z_4080 <= 1
 0 <= z_4081 <= 1
 0 <= z_4082 <= 1
 0 <= z_4083 <= 1
 0 <= z_4084 <= 1
 0 <= z_4085 <= 1
 0 <= z_4086 <= 1
 0 <= z_4087 <= 1
 0 <= z_4088 <= 1
 0 <= z_4089 <= 1
 0 <= z_4090 <= 1
 0 <= z_4091 <= 1
 0 <= z_4092 <= 1
 0 <= z_4093 <= 1
 0 <= z_4094 <= 1
 0 <= z_4095 <= 1
 0 <= z_4096 <= 1
 0 <= z_4097 <= 1
 0 <= z_4098 <= 1
 0 <= z_4099 <= 1
 0 <= z_4100 <= 1
 0 <= z_4101 <= 1
 0 <= z_4102 <= 1
 0 <= z_4103 <= 1
 0 <= z_4104 <= 1
 0 <= z_4105 <= 1
 0 <= z_4106 <= 1
 0 <= z_4107 <= 1
 0 <= z_4108 <= 1
 0 <= z_4109 <= 1
 0 <= z_4110 <= 1
 0 <= z_4111 <= 1
 0 <= z_4112 <= 1
 0 <= z_4113 <= 1
 0 <= z_4114 <= 1
 0 <= z_4115 <= 1
 0 <= z_4116 <= 1
 0 <= z_4117 <= 1
 0 <= z_4118 <= 1
 0 <= z_4119 <= 1
 0 <= z_4120 <= 1
 0 <= z_4121 <= 1
 0 <= z_4122 <= 1
 0 <= z_4123 <= 1
 0 <= z_4124 <= 1
 0 <= z_4125 <= 1
 0 <= z_4126 <= 1
 0 <= z_4127 <= 1
 0 <= z_4128 <= 1
 0 <= z_4129 <= 1
 0 <= z_4130 <= 1
 0 <= z_4131 <= 1
 0 <= z_4132 <= 1
 0 <= z_4133 <= 1
 0 <= z_4134 <= 1
 0 <= z_4135 <= 1
 0 <= z_4136 <= 1
 0 <= z_4137 <= 1
 0 <= z_4138 <= 1
 0 <= z_4139 <= 1
 0 <= z_4140 <= 1
 0 <= z_4141 <= 1
 0 <= z_4142 <= 1
 0 <= z_4143 <= 1
 0 <= z_4144 <= 1
 0 <= z_4145 <= 1
 0 <= z_4146 <= 1
 0 <= z_4147 <= 1
 0 <= z_4148 <= 1
 0 <= z_4149 <= 1
 0 <= z_4150 <= 1
 0 <= z_4151 <= 1
 0 <= z_4152 <= 1
 0 <= z_4153 <= 1
 0 <= z_4154 <= 1
 0 <= z_4155 <= 1
 0 <= z_4156 <= 1
 0 <= z_4157 <= 1
 0 <= z_4158 <= 1
 0 <= z_4159 <= 1
 0 <= z_4160 <= 1
 0 <= z_4161 <= 1
 0 <= z_4162 <= 1
 0 <= z_4163 <= 1
 0 <= z_4164 <= 1
 0 <= z_4165 <= 1
 0 <= z_4166 <= 1
 0 <= z_4167 <= 1
 0 <= z_4168 <= 1
 0 <= z_4169 <= 1
 0 <= z_4170 <= 1
 0 <= z_4171 <= 1
 0 <= z_4172 <= 1
 0 <= z_4173 <= 1
 0 <= z_4174 <= 1
 0 <= z_4175 <= 1
 0 <= z_4176 <= 1
 0 <= z_4177 <= 1
 0 <= z_4178 <= 1
 0 <= z_4179 <= 1
 0 <= z_4180 <= 1
 0 <= z_4181 <= 1
 0 <= z_4182 <= 1
 0 <= z_4183 <= 1
 0 <= z_4184 <= 1
 0 <= z_4185 <= 1
 0 <= z_4186 <= 1
 0 <= z_4187 <= 1
 0 <= z_4188 <= 1
 0 <= z_4189 <= 1
 0 <= z_4190 <= 1
 0 <= z_4191 <= 1
 0 <= z_4192 <= 1
 0 <= z_4193 <= 1
 0 <= z_4194 <= 1
 0 <= z_4195 <= 1
 0 <= z_4196 <= 1
 0 <= z_4197 <= 1
 0 <= z_4198 <= 1
 0 <= z_4199 <= 1
 0 <= z_4200 <= 1
 0 <= z_4201 <= 1
 0 <= z_4202 <= 1
 0 <= z_4203 <= 1
 0 <= z_4204 <= 1
 0 <= z_4205 <= 1
 0 <= z_4206 <= 1
 0 <= z_4207 <= 1
 0 <= z_4208 <= 1
 0 <= z_4209 <= 1
 0 <= z_4210 <= 1
 0 <= z_4211 <= 1
 0 <= z_4212 <= 1
 0 <= z_4213 <= 1
 0 <= z_4214 <= 1
 0 <= z_4215 <= 1
 0 <= z_4216 <= 1
 0 <= z_4217 <= 1
 0 <= z_4218 <= 1
 0 <= z_4219 <= 1
 0 <= z_4220 <= 1
 0 <= z_4221 <= 1
 0 <= z_4222 <= 1
 0 <= z_4223 <= 1
 0 <= z_4224 <= 1
 0 <= z_4225 <= 1
 0 <= z_4226 <= 1
 0 <= z_4227 <= 1
 0 <= z_4228 <= 1
 0 <= z_4229 <= 1
 0 <= z_4230 <= 1
 0 <= z_4231 <= 1
 0 <= z_4232 <= 1
 0 <= z_4233 <= 1
 0 <= z_4234 <= 1
 0 <= z_4235 <= 1
 0 <= z_4236 <= 1
 0 <= z_4237 <= 1
 0 <= z_4238 <= 1
 0 <= z_4239 <= 1
 0 <= z_4240 <= 1
 0 <= z_4241 <= 1
 0 <= z_4242 <= 1
 0 <= z_4243 <= 1
 0 <= z_4244 <= 1
 0 <= z_4245 <= 1
 0 <= z_4246 <= 1
 0 <= z_4247 <= 1
 0 <= z_4248 <= 1
 0 <= z_4249 <= 1
 0 <= z_4250 <= 1
 0 <= z_4251 <= 1
 0 <= z_4252 <= 1
 0 <= z_4253 <= 1
 0 <= z_4254 <= 1
 0 <= z_4255 <= 1
 0 <= z_4256 <= 1
 0 <= z_4257 <= 1
 0 <= z_4258 <= 1
 0 <= z_4259 <= 1
 0 <= z_4260 <= 1
 0 <= z_4261 <= 1
 0 <= z_4262 <= 1
 0 <= z_4263 <= 1
 0 <= z_4264 <= 1
 0 <= z_4265 <= 1
 0 <= z_4266 <= 1
 0 <= z_4267 <= 1
 0 <= z_4268 <= 1
 0 <= z_4269 <= 1
 0 <= z_4270 <= 1
 0 <= z_4271 <= 1
 0 <= z_4272 <= 1
 0 <= z_4273 <= 1
 0 <= z_4274 <= 1
 0 <= z_4275 <= 1
 0 <= z_4276 <= 1
 0 <= z_4277 <= 1
 0 <= z_4278 <= 1
 0 <= z_4279 <= 1
 0 <= z_4280 <= 1
 0 <= z_4281 <= 1
 0 <= z_4282 <= 1
 0 <= z_4283 <= 1
 0 <= z_4284 <= 1
 0 <= z_4285 <= 1
 0 <= z_4286 <= 1
 0 <= z_4287 <= 1
 0 <= z_4288 <= 1
 0 <= z_4289 <= 1
 0 <= z_4290 <= 1
 0 <= z_4291 <= 1
 0 <= z_4292 <= 1
 0 <= z_4293 <= 1
 0 <= z_4294 <= 1
 0 <= z_4295 <= 1
 0 <= z_4296 <= 1
 0 <= z_4297 <= 1
 0 <= z_4298 <= 1
 0 <= z_4299 <= 1
 0 <= z_4300 <= 1
 0 <= z_4301 <= 1
 0 <= z_4302 <= 1
 0 <= z_4303 <= 1
 0 <= z_4304 <= 1
 0 <= z_4305 <= 1
 0 <= z_4306 <= 1
 0 <= z_4307 <= 1
 0 <= z_4308 <= 1
 0 <= z_4309 <= 1
 0 <= z_4310 <= 1
 0 <= z_4311 <= 1
 0 <= z_4312 <= 1
 0 <= z_4313 <= 1
 0 <= z_4314 <= 1
 0 <= z_4315 <= 1
 0 <= z_4316 <= 1
 0 <= z_4317 <= 1
 0 <= z_4318 <= 1
 0 <= z_4319 <= 1
 0 <= z_4320 <= 1
 0 <= z_4321 <= 1
 0 <= z_4322 <= 1
 0 <= z_4323 <= 1
 0 <= z_4324 <= 1
 0 <= z_4325 <= 1
 0 <= z_4326 <= 1
 0 <= z_4327 <= 1
 0 <= z_4328 <= 1
 0 <= z_4329 <= 1
 0 <= z_4330 <= 1
 0 <= z_4331 <= 1
 0 <= z_4332 <= 1
 0 <= z_4333 <= 1
 0 <= z_4334 <= 1
 0 <= z_4335 <= 1
 0 <= z_4336 <= 1
 0 <= z_4337 <= 1
 0 <= z_4338 <= 1
 0 <= z_4339 <= 1
 0 <= z_4340 <= 1
 0 <= z_4341 <= 1
 0 <= z_4342 <= 1
 0 <= z_4343 <= 1
 0 <= z_4344 <= 1
 0 <= z_4345 <= 1
 0 <= z_4346 <= 1
 0 <= z_4347 <= 1
 0 <= z_4348 <= 1
 0 <= z_4349 <= 1
 0 <= z_4350 <= 1
 0 <= z_4351 <= 1
 0 <= z_4352 <= 1
 0 <= z_4353 <= 1
 0 <= z_4354 <= 1
 0 <= z_4355 <= 1
 0 <= z_4356 <= 1
 0 <= z_4357 <= 1
 0 <= z_4358 <= 1
 0 <= z_4359 <= 1
 0 <= z_4360 <= 1
 0 <= z_4361 <= 1
 0 <= z_4362 <= 1
 0 <= z_4363 <= 1
 0 <= z_4364 <= 1
 0 <= z_4365 <= 1
 0 <= z_4366 <= 1
 0 <= z_4367 <= 1
 0 <= z_4368 <= 1
 0 <= z_4369 <= 1
 0 <= z_4370 <= 1
 0 <= z_4371 <= 1
 0 <= z_4372 <= 1
 0 <= z_4373 <= 1
 0 <= z_4374 <= 1
 0 <= z_4375 <= 1
 0 <= z_4376 <= 1
 0 <= z_4377 <= 1
 0 <= z_4378 <= 1
 0 <= z_4379 <= 1
 0 <= z_4380 <= 1
 0 <= z_4381 <= 1
 0 <= z_4382 <= 1
 0 <= z_4383 <= 1
 0 <= z_4384 <= 1
 0 <= z_4385 <= 1
 0 <= z_4386 <= 1
 0 <= z_4387 <= 1
 0 <= z_4388 <= 1
 0 <= z_4389 <= 1
 0 <= z_4390 <= 1
 0 <= z_4391 <= 1
 0 <= z_4392 <= 1
 0 <= z_4393 <= 1
 0 <= z_4394 <= 1
 0 <= z_4395 <= 1
 0 <= z_4396 <= 1
 0 <= z_4397 <= 1
 0 <= z_4398 <= 1
 0 <= z_4399 <= 1
 0 <= z_4400 <= 1
 0 <= z_4401 <= 1
 0 <= z_4402 <= 1
 0 <= z_4403 <= 1
 0 <= z_4404 <= 1
 0 <= z_4405 <= 1
 0 <= z_4406 <= 1
 0 <= z_4407 <= 1
 0 <= z_4408 <= 1
 0 <= z_4409 <= 1
 0 <= z_4410 <= 1
 0 <= z_4411 <= 1
 0 <= z_4412 <= 1
 0 <= z_4413 <= 1
 0 <= z_4414 <= 1
 0 <= z_4415 <= 1
 0 <= z_4416 <= 1
 0 <= z_4417 <= 1
 0 <= z_4418 <= 1
 0 <= z_4419 <= 1
 0 <= z_4420 <= 1
 0 <= z_4421 <= 1
 0 <= z_4422 <= 1
 0 <= z_4423 <= 1
 0 <= z_4424 <= 1
 0 <= z_4425 <= 1
 0 <= z_4426 <= 1
 0 <= z_4427 <= 1
 0 <= z_4428 <= 1
 0 <= z_4429 <= 1
 0 <= z_4430 <= 1
 0 <= z_4431 <= 1
 0 <= z_4432 <= 1
 0 <= z_4433 <= 1
 0 <= z_4434 <= 1
 0 <= z_4435 <= 1
 0 <= z_4436 <= 1
 0 <= z_4437 <= 1
 0 <= z_4438 <= 1
 0 <= z_4439 <= 1
 0 <= z_4440 <= 1
 0 <= z_4441 <= 1
 0 <= z_4442 <= 1
 0 <= z_4443 <= 1
 0 <= z_4444 <= 1
 0 <= z_4445 <= 1
 0 <= z_4446 <= 1
 0 <= z_4447 <= 1
 0 <= z_4448 <= 1
 0 <= z_4449 <= 1
 0 <= z_4450 <= 1
 0 <= z_4451 <= 1
 0 <= z_4452 <= 1
 0 <= z_4453 <= 1
 0 <= z_4454 <= 1
 0 <= z_4455 <= 1
 0 <= z_4456 <= 1
 0 <= z_4457 <= 1
 0 <= z_4458 <= 1
 0 <= z_4459 <= 1
 0 <= z_4460 <= 1
 0 <= z_4461 <= 1
 0 <= z_4462 <= 1
 0 <= z_4463 <= 1
 0 <= z_4464 <= 1
 0 <= z_4465 <= 1
 0 <= z_4466 <= 1
 0 <= z_4467 <= 1
 0 <= z_4468 <= 1
 0 <= z_4469 <= 1
 0 <= z_4470 <= 1
 0 <= z_4471 <= 1
 0 <= z_4472 <= 1
 0 <= z_4473 <= 1
 0 <= z_4474 <= 1
 0 <= z_4475 <= 1
 0 <= z_4476 <= 1
 0 <= z_4477 <= 1
 0 <= z_4478 <= 1
 0 <= z_4479 <= 1
 0 <= z_4480 <= 1
 0 <= z_4481 <= 1
 0 <= z_4482 <= 1
 0 <= z_4483 <= 1
 0 <= z_4484 <= 1
 0 <= z_4485 <= 1
 0 <= z_4486 <= 1
 0 <= z_4487 <= 1
 0 <= z_4488 <= 1
 0 <= z_4489 <= 1
 0 <= z_4490 <= 1
 0 <= z_4491 <= 1
 0 <= z_4492 <= 1
 0 <= z_4493 <= 1
 0 <= z_4494 <= 1
 0 <= z_4495 <= 1
 0 <= z_4496 <= 1
 0 <= z_4497 <= 1
 0 <= z_4498 <= 1
 0 <= z_4499 <= 1
 0 <= z_4500 <= 1
 0 <= z_4501 <= 1
 0 <= z_4502 <= 1
 0 <= z_4503 <= 1
 0 <= z_4504 <= 1
 0 <= z_4505 <= 1
 0 <= z_4506 <= 1
 0 <= z_4507 <= 1
 0 <= z_4508 <= 1
 0 <= z_4509 <= 1
 0 <= z_4510 <= 1
 0 <= z_4511 <= 1
 0 <= z_4512 <= 1
 0 <= z_4513 <= 1
 0 <= z_4514 <= 1
 0 <= z_4515 <= 1
 0 <= z_4516 <= 1
 0 <= z_4517 <= 1
 0 <= z_4518 <= 1
 0 <= z_4519 <= 1
 0 <= z_4520 <= 1
 0 <= z_4521 <= 1
 0 <= z_4522 <= 1
 0 <= z_4523 <= 1
 0 <= z_4524 <= 1
 0 <= z_4525 <= 1
 0 <= z_4526 <= 1
 0 <= z_4527 <= 1
 0 <= z_4528 <= 1
 0 <= z_4529 <= 1
 0 <= z_4530 <= 1
 0 <= z_4531 <= 1
 0 <= z_4532 <= 1
 0 <= z_4533 <= 1
 0 <= z_4534 <= 1
 0 <= z_4535 <= 1
 0 <= z_4536 <= 1
 0 <= z_4537 <= 1
 0 <= z_4538 <= 1
 0 <= z_4539 <= 1
 0 <= z_4540 <= 1
 0 <= z_4541 <= 1
 0 <= z_4542 <= 1
 0 <= z_4543 <= 1
 0 <= z_4544 <= 1
 0 <= z_4545 <= 1
 0 <= z_4546 <= 1
 0 <= z_4547 <= 1
 0 <= z_4548 <= 1
 0 <= z_4549 <= 1
 0 <= z_4550 <= 1
 0 <= z_4551 <= 1
 0 <= z_4552 <= 1
 0 <= z_4553 <= 1
 0 <= z_4554 <= 1
 0 <= z_4555 <= 1
 0 <= z_4556 <= 1
 0 <= z_4557 <= 1
 0 <= z_4558 <= 1
 0 <= z_4559 <= 1
 0 <= z_4560 <= 1
 0 <= z_4561 <= 1
 0 <= z_4562 <= 1
 0 <= z_4563 <= 1
 0 <= z_4564 <= 1
 0 <= z_4565 <= 1
 0 <= z_4566 <= 1
 0 <= z_4567 <= 1
 0 <= z_4568 <= 1
 0 <= z_4569 <= 1
 0 <= z_4570 <= 1
 0 <= z_4571 <= 1
 0 <= z_4572 <= 1
 0 <= z_4573 <= 1
 0 <= z_4574 <= 1
 0 <= z_4575 <= 1
 0 <= z_4576 <= 1
 0 <= z_4577 <= 1
 0 <= z_4578 <= 1
 0 <= z_4579 <= 1
 0 <= z_4580 <= 1
 0 <= z_4581 <= 1
 0 <= z_4582 <= 1
 0 <= z_4583 <= 1
 0 <= z_4584 <= 1
 0 <= z_4585 <= 1
 0 <= z_4586 <= 1
 0 <= z_4587 <= 1
 0 <= z_4588 <= 1
 0 <= z_4589 <= 1
 0 <= z_4590 <= 1
 0 <= z_4591 <= 1
 0 <= z_4592 <= 1
 0 <= z_4593 <= 1
 0 <= z_4594 <= 1
 0 <= z_4595 <= 1
 0 <= z_4596 <= 1
 0 <= z_4597 <= 1
 0 <= z_4598 <= 1
 0 <= z_4599 <= 1
 0 <= z_4600 <= 1
 0 <= z_4601 <= 1
 0 <= z_4602 <= 1
 0 <= z_4603 <= 1
 0 <= z_4604 <= 1
 0 <= z_4605 <= 1
 0 <= z_4606 <= 1
 0 <= z_4607 <= 1
 0 <= z_4608 <= 1
 0 <= z_4609 <= 1
 0 <= z_4610 <= 1
 0 <= z_4611 <= 1
 0 <= z_4612 <= 1
 0 <= z_4613 <= 1
 0 <= z_4614 <= 1
 0 <= z_4615 <= 1
 0 <= z_4616 <= 1
 0 <= z_4617 <= 1
 0 <= z_4618 <= 1
 0 <= z_4619 <= 1
 0 <= z_4620 <= 1
 0 <= z_4621 <= 1
 0 <= z_4622 <= 1
 0 <= z_4623 <= 1
 0 <= z_4624 <= 1
 0 <= z_4625 <= 1
 0 <= z_4626 <= 1
 0 <= z_4627 <= 1
 0 <= z_4628 <= 1
 0 <= z_4629 <= 1
 0 <= z_4630 <= 1
 0 <= z_4631 <= 1
 0 <= z_4632 <= 1
 0 <= z_4633 <= 1
 0 <= z_4634 <= 1
 0 <= z_4635 <= 1
 0 <= z_4636 <= 1
 0 <= z_4637 <= 1
 0 <= z_4638 <= 1
 0 <= z_4639 <= 1
 0 <= z_4640 <= 1
 0 <= z_4641 <= 1
 0 <= z_4642 <= 1
 0 <= z_4643 <= 1
 0 <= z_4644 <= 1
 0 <= z_4645 <= 1
 0 <= z_4646 <= 1
 0 <= z_4647 <= 1
 0 <= z_4648 <= 1
 0 <= z_4649 <= 1
 0 <= z_4650 <= 1
 0 <= z_4651 <= 1
 0 <= z_4652 <= 1
 0 <= z_4653 <= 1
 0 <= z_4654 <= 1
 0 <= z_4655 <= 1
 0 <= z_4656 <= 1
 0 <= z_4657 <= 1
 0 <= z_4658 <= 1
 0 <= z_4659 <= 1
 0 <= z_4660 <= 1
 0 <= z_4661 <= 1
 0 <= z_4662 <= 1
 0 <= z_4663 <= 1
 0 <= z_4664 <= 1
 0 <= z_4665 <= 1
 0 <= z_4666 <= 1
 0 <= z_4667 <= 1
 0 <= z_4668 <= 1
 0 <= z_4669 <= 1
 0 <= z_4670 <= 1
 0 <= z_4671 <= 1
 0 <= z_4672 <= 1
 0 <= z_4673 <= 1
 0 <= z_4674 <= 1
 0 <= z_4675 <= 1
 0 <= z_4676 <= 1
 0 <= z_4677 <= 1
 0 <= z_4678 <= 1
 0 <= z_4679 <= 1
 0 <= z_4680 <= 1
 0 <= z_4681 <= 1
 0 <= z_4682 <= 1
 0 <= z_4683 <= 1
 0 <= z_4684 <= 1
 0 <= z_4685 <= 1
 0 <= z_4686 <= 1
 0 <= z_4687 <= 1
 0 <= z_4688 <= 1
 0 <= z_4689 <= 1
 0 <= z_4690 <= 1
 0 <= z_4691 <= 1
 0 <= z_4692 <= 1
 0 <= z_4693 <= 1
 0 <= z_4694 <= 1
 0 <= z_4695 <= 1
 0 <= z_4696 <= 1
 0 <= z_4697 <= 1
 0 <= z_4698 <= 1
 0 <= z_4699 <= 1
 0 <= z_4700 <= 1
 0 <= z_4701 <= 1
 0 <= z_4702 <= 1
 0 <= z_4703 <= 1
 0 <= z_4704 <= 1
 0 <= z_4705 <= 1
 0 <= z_4706 <= 1
 0 <= z_4707 <= 1
 0 <= z_4708 <= 1
 0 <= z_4709 <= 1
 0 <= z_4710 <= 1
 0 <= z_4711 <= 1
 0 <= z_4712 <= 1
 0 <= z_4713 <= 1
 0 <= z_4714 <= 1
 0 <= z_4715 <= 1
 0 <= z_4716 <= 1
 0 <= z_4717 <= 1
 0 <= z_4718 <= 1
 0 <= z_4719 <= 1
 0 <= z_4720 <= 1
 0 <= z_4721 <= 1
 0 <= z_4722 <= 1
 0 <= z_4723 <= 1
 0 <= z_4724 <= 1
 0 <= z_4725 <= 1
 0 <= z_4726 <= 1
 0 <= z_4727 <= 1
 0 <= z_4728 <= 1
 0 <= z_4729 <= 1
 0 <= z_4730 <= 1
 0 <= z_4731 <= 1
 0 <= z_4732 <= 1
 0 <= z_4733 <= 1
 0 <= z_4734 <= 1
 0 <= z_4735 <= 1
 0 <= z_4736 <= 1
 0 <= z_4737 <= 1
 0 <= z_4738 <= 1
 0 <= z_4739 <= 1
 0 <= z_4740 <= 1
 0 <= z_4741 <= 1
 0 <= z_4742 <= 1
 0 <= z_4743 <= 1
 0 <= z_4744 <= 1
 0 <= z_4745 <= 1
 0 <= z_4746 <= 1
 0 <= z_4747 <= 1
 0 <= z_4748 <= 1
 0 <= z_4749 <= 1
 0 <= z_4750 <= 1
 0 <= z_4751 <= 1
 0 <= z_4752 <= 1
 0 <= z_4753 <= 1
 0 <= z_4754 <= 1
 0 <= z_4755 <= 1
 0 <= z_4756 <= 1
 0 <= z_4757 <= 1
 0 <= z_4758 <= 1
 0 <= z_4759 <= 1
 0 <= z_4760 <= 1
 0 <= z_4761 <= 1
 0 <= z_4762 <= 1
 0 <= z_4763 <= 1
 0 <= z_4764 <= 1
 0 <= z_4765 <= 1
 0 <= z_4766 <= 1
 0 <= z_4767 <= 1
 0 <= z_4768 <= 1
 0 <= z_4769 <= 1
 0 <= z_4770 <= 1
 0 <= z_4771 <= 1
 0 <= z_4772 <= 1
 0 <= z_4773 <= 1
 0 <= z_4774 <= 1
 0 <= z_4775 <= 1
 0 <= z_4776 <= 1
 0 <= z_4777 <= 1
 0 <= z_4778 <= 1
 0 <= z_4779 <= 1
 0 <= z_4780 <= 1
 0 <= z_4781 <= 1
 0 <= z_4782 <= 1
 0 <= z_4783 <= 1
 0 <= z_4784 <= 1
 0 <= z_4785 <= 1
 0 <= z_4786 <= 1
 0 <= z_4787 <= 1
 0 <= z_4788 <= 1
 0 <= z_4789 <= 1
 0 <= z_4790 <= 1
 0 <= z_4791 <= 1
 0 <= z_4792 <= 1
 0 <= z_4793 <= 1
 0 <= z_4794 <= 1
 0 <= z_4795 <= 1
 0 <= z_4796 <= 1
 0 <= z_4797 <= 1
 0 <= z_4798 <= 1
 0 <= z_4799 <= 1
 0 <= z_4800 <= 1
 0 <= z_4801 <= 1
 0 <= z_4802 <= 1
 0 <= z_4803 <= 1
 0 <= z_4804 <= 1
 0 <= z_4805 <= 1
 0 <= z_4806 <= 1
 0 <= z_4807 <= 1
 0 <= z_4808 <= 1
 0 <= z_4809 <= 1
 0 <= z_4810 <= 1
 0 <= z_4811 <= 1
 0 <= z_4812 <= 1
 0 <= z_4813 <= 1
 0 <= z_4814 <= 1
 0 <= z_4815 <= 1
 0 <= z_4816 <= 1
 0 <= z_4817 <= 1
 0 <= z_4818 <= 1
 0 <= z_4819 <= 1
 0 <= z_4820 <= 1
 0 <= z_4821 <= 1
 0 <= z_4822 <= 1
 0 <= z_4823 <= 1
 0 <= z_4824 <= 1
 0 <= z_4825 <= 1
 0 <= z_4826 <= 1
 0 <= z_4827 <= 1
 0 <= z_4828 <= 1
 0 <= z_4829 <= 1
 0 <= z_4830 <= 1
 0 <= z_4831 <= 1
 0 <= z_4832 <= 1
 0 <= z_4833 <= 1
 0 <= z_4834 <= 1
 0 <= z_4835 <= 1
 0 <= z_4836 <= 1
 0 <= z_4837 <= 1
 0 <= z_4838 <= 1
 0 <= z_4839 <= 1
 0 <= z_4840 <= 1
 0 <= z_4841 <= 1
 0 <= z_4842 <= 1
 0 <= z_4843 <= 1
 0 <= z_4844 <= 1
 0 <= z_4845 <= 1
 0 <= z_4846 <= 1
 0 <= z_4847 <= 1
 0 <= z_4848 <= 1
 0 <= z_4849 <= 1
 0 <= z_4850 <= 1
 0 <= z_4851 <= 1
 0 <= z_4852 <= 1
 0 <= z_4853 <= 1
 0 <= z_4854 <= 1
 0 <= z_4855 <= 1
 0 <= z_4856 <= 1
 0 <= z_4857 <= 1
 0 <= z_4858 <= 1
 0 <= z_4859 <= 1
 0 <= z_4860 <= 1
 0 <= z_4861 <= 1
 0 <= z_4862 <= 1
 0 <= z_4863 <= 1
 0 <= z_4864 <= 1
 0 <= z_4865 <= 1
 0 <= z_4866 <= 1
 0 <= z_4867 <= 1
 0 <= z_4868 <= 1
 0 <= z_4869 <= 1
 0 <= z_4870 <= 1
 0 <= z_4871 <= 1
 0 <= z_4872 <= 1
 0 <= z_4873 <= 1
 0 <= z_4874 <= 1
 0 <= z_4875 <= 1
 0 <= z_4876 <= 1
 0 <= z_4877 <= 1
 0 <= z_4878 <= 1
 0 <= z_4879 <= 1
 0 <= z_4880 <= 1
 0 <= z_4881 <= 1
 0 <= z_4882 <= 1
 0 <= z_4883 <= 1
 0 <= z_4884 <= 1
 0 <= z_4885 <= 1
 0 <= z_4886 <= 1
 0 <= z_4887 <= 1
 0 <= z_4888 <= 1
 0 <= z_4889 <= 1
 0 <= z_4890 <= 1
 0 <= z_4891 <= 1
 0 <= z_4892 <= 1
 0 <= z_4893 <= 1
 0 <= z_4894 <= 1
 0 <= z_4895 <= 1
 0 <= z_4896 <= 1
 0 <= z_4897 <= 1
 0 <= z_4898 <= 1
 0 <= z_4899 <= 1
 0 <= z_4900 <= 1
 0 <= z_4901 <= 1
 0 <= z_4902 <= 1
 0 <= z_4903 <= 1
 0 <= z_4904 <= 1
 0 <= z_4905 <= 1
 0 <= z_4906 <= 1
 0 <= z_4907 <= 1
 0 <= z_4908 <= 1
 0 <= z_4909 <= 1
 0 <= z_4910 <= 1
 0 <= z_4911 <= 1
 0 <= z_4912 <= 1
 0 <= z_4913 <= 1
 0 <= z_4914 <= 1
 0 <= z_4915 <= 1
 0 <= z_4916 <= 1
 0 <= z_4917 <= 1
 0 <= z_4918 <= 1
 0 <= z_4919 <= 1
 0 <= z_4920 <= 1
 0 <= z_4921 <= 1
 0 <= z_4922 <= 1
 0 <= z_4923 <= 1
 0 <= z_4924 <= 1
 0 <= z_4925 <= 1
 0 <= z_4926 <= 1
 0 <= z_4927 <= 1
 0 <= z_4928 <= 1
 0 <= z_4929 <= 1
 0 <= z_4930 <= 1
 0 <= z_4931 <= 1
 0 <= z_4932 <= 1
 0 <= z_4933 <= 1
 0 <= z_4934 <= 1
 0 <= z_4935 <= 1
 0 <= z_4936 <= 1
 0 <= z_4937 <= 1
 0 <= z_4938 <= 1
 0 <= z_4939 <= 1
 0 <= z_4940 <= 1
 0 <= z_4941 <= 1
 0 <= z_4942 <= 1
 0 <= z_4943 <= 1
 0 <= z_4944 <= 1
 0 <= z_4945 <= 1
 0 <= z_4946 <= 1
 0 <= z_4947 <= 1
 0 <= z_4948 <= 1
 0 <= z_4949 <= 1
 0 <= z_4950 <= 1
 0 <= z_4951 <= 1
 0 <= z_4952 <= 1
 0 <= z_4953 <= 1
 0 <= z_4954 <= 1
 0 <= z_4955 <= 1
 0 <= z_4956 <= 1
 0 <= z_4957 <= 1
 0 <= z_4958 <= 1
 0 <= z_4959 <= 1
 0 <= z_4960 <= 1
 0 <= z_4961 <= 1
 0 <= z_4962 <= 1
 0 <= z_4963 <= 1
 0 <= z_4964 <= 1
 0 <= z_4965 <= 1
 0 <= z_4966 <= 1
 0 <= z_4967 <= 1
 0 <= z_4968 <= 1
 0 <= z_4969 <= 1
 0 <= z_4970 <= 1
 0 <= z_4971 <= 1
 0 <= z_4972 <= 1
 0 <= z_4973 <= 1
 0 <= z_4974 <= 1
 0 <= z_4975 <= 1
 0 <= z_4976 <= 1
 0 <= z_4977 <= 1
 0 <= z_4978 <= 1
 0 <= z_4979 <= 1
 0 <= z_4980 <= 1
 0 <= z_4981 <= 1
 0 <= z_4982 <= 1
 0 <= z_4983 <= 1
 0 <= z_4984 <= 1
 0 <= z_4985 <= 1
 0 <= z_4986 <= 1
 0 <= z_4987 <= 1
 0 <= z_4988 <= 1
 0 <= z_4989 <= 1
 0 <= z_4990 <= 1
 0 <= z_4991 <= 1
 0 <= z_4992 <= 1
 0 <= z_4993 <= 1
 0 <= z_4994 <= 1
 0 <= z_4995 <= 1
 0 <= z_4996 <= 1
 0 <= z_4997 <= 1
 0 <= z_4998 <= 1
 0 <= z_4999 <= 1

Binaries
 y_0 y_1 y_2 y_3 y_4 y_5 y_6 y_7 y_8 y_9 y_10 y_11 y_12 y_13 y_14 y_15 y_16 y_17
 y_18 y_19 y_20 y_21 y_22 y_23 y_24 y_25 y_26 y_27 y_28 y_29 y_30 y_31 y_32 y_33
 y_34 y_35 y_36 y_37 y_38 y_39 y_40 y_41 y_42 y_43 y_44 y_45 y_46 y_47 y_48 y_49
 y_50 y_51 y_52 y_53 y_54 y_55 y_56 y_57 y_58 y_59 y_60 y_61 y_62 y_63 y_64 y_65
 y_66 y_67 y_68 y_69 y_70 y_71 y_72 y_73 y_74 y_75 y_76 y_77 y_78 y_79 y_80 y_81
 y_82 y_83 y_84 y_85 y_86 y_87 y_88 y_89 y_90 y_91 y_92 y_93 y_94 y_95 y_96 y_97
 y_98 y_99 z_0 z_1 z_2 z_3 z_4 z_5 z_6 z_7 z_8 z_9 z_10 z_11 z_12 z_13 z_14 z_15
 z_16 z_17 z_18 z_19 z_20 z_21 z_22 z_23 z_24 z_25 z_26 z_27 z_28 z_29 z_30 z_31
 z_32 z_33 z_34 z_35 z_36 z_37 z_38 z_39 z_40 z_41 z_42 z_43 z_44 z_45 z_46 z_47
 z_48 z_49 z_50 z_51 z_52 z_53 z_54 z_55 z_56 z_57 z_58 z_59 z_60 z_61 z_62 z_63
 z_64 z_65 z_66 z_67 z_68 z_69 z_70 z_71 z_72 z_73 z_74 z_75 z_76 z_77 z_78 z_79
 z_80 z_81 z_82 z_83 z_84 z_85 z_86 z_87 z_88 z_89 z_90 z_91 z_92 z_93 z_94 z_95
 z_96 z_97 z_98 z_99 z_100 z_101 z_102 z_103 z_104 z_105 z_106 z_107 z_108 z_109
 z_110 z_111 z_112 z_113 z_114 z_115 z_116 z_117 z_118 z_119 z_120 z_121 z_122
 z_123 z_124 z_125 z_126 z_127 z_128 z_129 z_130 z_131 z_132 z_133 z_134 z_135
 z_136 z_137 z_138 z_139 z_140 z_141 z_142 z_143 z_144 z_145 z_146 z_147 z_148
 z_149 z_150 z_151 z_152 z_153 z_154 z_155 z_156 z_157 z_158 z_159 z_160 z_161
 z_162 z_163 z_164 z_165 z_166 z_167 z_168 z_169 z_170 z_171 z_172 z_173 z_174
 z_175 z_176 z_177 z_178 z_179 z_180 z_181 z_182 z_183 z_184 z_185 z_186 z_187
 z_188 z_189 z_190 z_191 z_192 z_193 z_194 z_195 z_196 z_197 z_198 z_199 z_200
 z_201 z_202 z_203 z_204 z_205 z_206 z_207 z_208 z_209 z_210 z_211 z_212 z_213
 z_214 z_215 z_216 z_217 z_218 z_219 z_220 z_221 z_222 z_223 z_224 z_225 z_226
 z_227 z_228 z_229 z_230 z_231 z_232 z_233 z_234 z_235 z_236 z_237 z_238 z_239
 z_240 z_241 z_242 z_243 z_244 z_245 z_246 z_247 z_248 z_249 z_250 z_251 z_252
 z_253 z_254 z_255 z_256 z_257 z_258 z_259 z_260 z_261 z_262 z_263 z_264 z_265
 z_266 z_267 z_268 z_269 z_270 z_271 z_272 z_273 z_274 z_275 z_276 z_277 z_278
 z_279 z_280 z_281 z_282 z_283 z_284 z_285 z_286 z_287 z_288 z_289 z_290 z_291
 z_292 z_293 z_294 z_295 z_296 z_297 z_298 z_299 z_300 z_301 z_302 z_303 z_304
 z_305 z_306 z_307 z_308 z_309 z_310 z_311 z_312 z_313 z_314 z_315 z_316 z_317
 z_318 z_319 z_320 z_321 z_322 z_323 z_324 z_325 z_326 z_327 z_328 z_329 z_330
 z_331 z_332 z_333 z_334 z_335 z_336 z_337 z_338 z_339 z_340 z_341 z_342 z_343
 z_344 z_345 z_346 z_347 z_348 z_349 z_350 z_351 z_352 z_353 z_354 z_355 z_356
 z_357 z_358 z_359 z_360 z_361 z_362 z_363 z_364 z_365 z_366 z_367 z_368 z_369
 z_370 z_371 z_372 z_373 z_374 z_375 z_376 z_377 z_378 z_379 z_380 z_381 z_382
 z_383 z_384 z_385 z_386 z_387 z_388 z_389 z_390 z_391 z_392 z_393 z_394 z_395
 z_396 z_397 z_398 z_399 z_400 z_401 z_402 z_403 z_404 z_405 z_406 z_407 z_408
 z_409 z_410 z_411 z_412 z_413 z_414 z_415 z_416 z_417 z_418 z_419 z_420 z_421
 z_422 z_423 z_424 z_425 z_426 z_427 z_428 z_429 z_430 z_431 z_432 z_433 z_434
 z_435 z_436 z_437 z_438 z_439 z_440 z_441 z_442 z_443 z_444 z_445 z_446 z_447
 z_448 z_449 z_450 z_451 z_452 z_453 z_454 z_455 z_456 z_457 z_458 z_459 z_460
 z_461 z_462 z_463 z_464 z_465 z_466 z_467 z_468 z_469 z_470 z_471 z_472 z_473
 z_474 z_475 z_476 z_477 z_478 z_479 z_480 z_481 z_482 z_483 z_484 z_485 z_486
 z_487 z_488 z_489 z_490 z_491 z_492 z_493 z_494 z_495 z_496 z_497 z_498 z_499
 z_500 z_501 z_502 z_503 z_504 z_505 z_506 z_507 z_508 z_509 z_510 z_511 z_512
 z_513 z_514 z_515 z_516 z_517 z_518 z_519 z_520 z_521 z_522 z_523 z_524 z_525
 z_526 z_527 z_528 z_529 z_530 z_531 z_532 z_533 z_534 z_535 z_536 z_537 z_538
 z_539 z_540 z_541 z_542 z_543 z_544 z_545 z_546 z_547 z_548 z_549 z_550 z_551
 z_552 z_553 z_554 z_555 z_556 z_557 z_558 z_559 z_560 z_561 z_562 z_563 z_564
 z_565 z_566 z_567 z_568 z_569 z_570 z_571 z_572 z_573 z_574 z_575 z_576 z_577
 z_578 z_579 z_580 z_581 z_582 z_583 z_584 z_585 z_586 z_587 z_588 z_589 z_590
 z_591 z_592 z_593 z_594 z_595 z_596 z_597 z_598 z_599 z_600 z_601 z_602 z_603
 z_604 z_605 z_606 z_607 z_608 z_609 z_610 z_611 z_612 z_613 z_614 z_615 z_616
 z_617 z_618 z_619 z_620 z_621 z_622 z_623 z_624 z_625 z_626 z_627 z_628 z_629
 z_630 z_631 z_632 z_633 z_634 z_635 z_636 z_637 z_638 z_639 z_640 z_641 z_642
 z_643 z_644 z_645 z_646 z_647 z_648 z_649 z_650 z_651 z_652 z_653 z_654 z_655
 z_656 z_657 z_658 z_659 z_660 z_661 z_662 z_663 z_664 z_665 z_666 z_667 z_668
 z_669 z_670 z_671 z_672 z_673 z_674 z_675 z_676 z_677 z_678 z_679 z_680 z_681
 z_682 z_683 z_684 z_685 z_686 z_687 z_688 z_689 z_690 z_691 z_692 z_693 z_694
 z_695 z_696 z_697 z_698 z_699 z_700 z_701 z_702 z_703 z_704 z_705 z_706 z_707
 z_708 z_709 z_710 z_711 z_712 z_713 z_714 z_715 z_716 z_717 z_718 z_719 z_720
 z_721 z_722 z_723 z_724 z_725 z_726 z_727 z_728 z_729 z_730 z_731 z_732 z_733
 z_734 z_735 z_736 z_737 z_738 z_739 z_740 z_741 z_742 z_743 z_744 z_745 z_746
 z_747 z_748 z_749 z_750 z_751 z_752 z_753 z_754 z_755 z_756 z_757 z_758 z_759
 z_760 z_761 z_762 z_763 z_764 z_765 z_766 z_767 z_768 z_769 z_770 z_771 z_772
 z_773 z_774 z_775 z_776 z_777 z_778 z_779 z_780 z_781 z_782 z_783 z_784 z_785
 z_786 z_787 z_788 z_789 z_790 z_791 z_792 z_793 z_794 z_795 z_796 z_797 z_798
 z_799 z_800 z_801 z_802 z_803 z_804 z_805 z_806 z_807 z_808 z_809 z_810 z_811
 z_812 z_813 z_814 z_815 z_816 z_817 z_818 z_819 z_820 z_821 z_822 z_823 z_824
 z_825 z_826 z_827 z_828 z_829 z_830 z_831 z_832 z_833 z_834 z_835 z_836 z_837
 z_838 z_839 z_840 z_841 z_842 z_843 z_844 z_845 z_846 z_847 z_848 z_849 z_850
 z_851 z_852 z_853 z_854 z_855 z_856 z_857 z_858 z_859 z_860 z_861 z_862 z_863
 z_864 z_865 z_866 z_867 z_868 z_869 z_870 z_871 z_872 z_873 z_874 z_875 z_876
 z_877 z_878 z_879 z_880 z_881 z_882 z_883 z_884 z_885 z_886 z_887 z_888 z_889
 z_890 z_891 z_892 z_893 z_894 z_895 z_896 z_897 z_898 z_899 z_900 z_901 z_902
 z_903 z_904 z_905 z_906 z_907 z_908 z_909 z_910 z_911 z_912 z_913 z_914 z_915
 z_916 z_917 z_918 z_919 z_920 z_921 z_922 z_923 z_924 z_925 z_926 z_927 z_928
 z_929 z_930 z_931 z_932 z_933 z_934 z_935 z_936 z_937 z_938 z_939 z_940 z_941
 z_942 z_943 z_944 z_945 z_946 z_947 z_948 z_949 z_950 z_951 z_952 z_953 z_954
 z_955 z_956 z_957 z_958 z_959 z_960 z_961 z_962 z_963 z_964 z_965 z_966 z_967
 z_968 z_969 z_970 z_971 z_972 z_973 z_974 z_975 z_976 z_977 z_978 z_979 z_980
 z_981 z_982 z_983 z_984 z_985 z_986 z_987 z_988 z_989 z_990 z_991 z_992 z_993
 z_994 z_995 z_996 z_997 z_998 z_999 z_1000 z_1001 z_1002 z_1003 z_1004 z_1005
 z_1006 z_1007 z_1008 z_1009 z_1010 z_1011 z_1012 z_1013 z_1014 z_1015 z_1016
 z_1017 z_1018 z_1019 z_1020 z_1021 z_1022 z_1023 z_1024 z_1025 z_1026 z_1027
 z_1028 z_1029 z_1030 z_1031 z_1032 z_1033 z_1034 z_1035 z_1036 z_1037 z_1038
 z_1039 z_1040 z_1041 z_1042 z_1043 z_1044 z_1045 z_1046 z_1047 z_1048 z_1049
 z_1050 z_1051 z_1052 z_1053 z_1054 z_1055 z_1056 z_1057 z_1058 z_1059 z_1060
 z_1061 z_1062 z_1063 z_1064 z_1065 z_1066 z_1067 z_1068 z_1069 z_1070 z_1071
 z_1072 z_1073 z_1074 z_1075 z_1076 z_1077 z_1078 z_1079 z_1080 z_1081 z_1082
 z_1083 z_1084 z_1085 z_1086 z_1087 z_1088 z_1089 z_1090 z_1091 z_1092 z_1093
 z_1094 z_1095 z_1096 z_1097 z_1098 z_1099 z_1100 z_1101 z_1102 z_1103 z_1104
 z_1105 z_1106 z_1107 z_1108 z_1109 z_1110 z_1111 z_1112 z_1113 z_1114 z_1115
 z_1116 z_1117 z_1118 z_1119 z_1120 z_1121 z_1122 z_1123 z_1124 z_1125 z_1126
 z_1127 z_1128 z_1129 z_1130 z_1131 z_1132 z_1133 z_1134 z_1135 z_1136 z_1137
 z_1138 z_1139 z_1140 z_1141 z_1142 z_1143 z_1144 z_1145 z_1146 z_1147 z_1148
 z_1149 z_1150 z_1151 z_1152 z_1153 z_1154 z_1155 z_1156 z_1157 z_1158 z_1159
 z_1160 z_1161 z_1162 z_1163 z_1164 z_1165 z_1166 z_1167 z_1168 z_1169 z_1170
 z_1171 z_1172 z_1173 z_1174 z_1175 z_1176 z_1177 z_1178 z_1179 z_1180 z_1181
 z_1182 z_1183 z_1184 z_1185 z_1186 z_1187 z_1188 z_1189 z_1190 z_1191 z_1192
 z_1193 z_1194 z_1195 z_1196 z_1197 z_1198 z_1199 z_1200 z_1201 z_1202 z_1203
 z_1204 z_1205 z_1206 z_1207 z_1208 z_1209 z_1210 z_1211 z_1212 z_1213 z_1214
 z_1215 z_1216 z_1217 z_1218 z_1219 z_1220 z_1221 z_1222 z_1223 z_1224 z_1225
 z_1226 z_1227 z_1228 z_1229 z_1230 z_1231 z_1232 z_1233 z_1234 z_1235 z_1236
 z_1237 z_1238 z_1239 z_1240 z_1241 z_1242 z_1243 z_1244 z_1245 z_1246 z_1247
 z_1248 z_1249 z_1250 z_1251 z_1252 z_1253 z_1254 z_1255 z_1256 z_1257 z_1258
 z_1259 z_1260 z_1261 z_1262 z_1263 z_1264 z_1265 z_1266 z_1267 z_1268 z_1269
 z_1270 z_1271 z_1272 z_1273 z_1274 z_1275 z_1276 z_1277 z_1278 z_1279 z_1280
 z_1281 z_1282 z_1283 z_1284 z_1285 z_1286 z_1287 z_1288 z_1289 z_1290 z_1291
 z_1292 z_1293 z_1294 z_1295 z_1296 z_1297 z_1298 z_1299 z_1300 z_1301 z_1302
 z_1303 z_1304 z_1305 z_1306 z_1307 z_1308 z_1309 z_1310 z_1311 z_1312 z_1313
 z_1314 z_1315 z_1316 z_1317 z_1318 z_1319 z_1320 z_1321 z_1322 z_1323 z_1324
 z_1325 z_1326 z_1327 z_1328 z_1329 z_1330 z_1331 z_1332 z_1333 z_1334 z_1335
 z_1336 z_1337 z_1338 z_1339 z_1340 z_1341 z_1342 z_1343 z_1344 z_1345 z_1346
 z_1347 z_1348 z_1349 z_1350 z_1351 z_1352 z_1353 z_1354 z_1355 z_1356 z_1357
 z_1358 z_1359 z_1360 z_1361 z_1362 z_1363 z_1364 z_1365 z_1366 z_1367 z_1368
 z_1369 z_1370 z_1371 z_1372 z_1373 z_1374 z_1375 z_1376 z_1377 z_1378 z_1379
 z_1380 z_1381 z_1382 z_1383 z_1384 z_1385 z_1386 z_1387 z_1388 z_1389 z_1390
 z_1391 z_1392 z_1393 z_1394 z_1395 z_1396 z_1397 z_1398 z_1399 z_1400 z_1401
 z_1402 z_1403 z_1404 z_1405 z_1406 z_1407 z_1408 z_1409 z_1410 z_1411 z_1412
 z_1413 z_1414 z_1415 z_1416 z_1417 z_1418 z_1419 z_1420 z_1421 z_1422 z_1423
 z_1424 z_1425 z_1426 z_1427 z_1428 z_1429 z_1430 z_1431 z_1432 z_1433 z_1434
 z_1435 z_1436 z_1437 z_1438 z_1439 z_1440 z_1441 z_1442 z_1443 z_1444 z_1445
 z_1446 z_1447 z_1448 z_1449 z_1450 z_1451 z_1452 z_1453 z_1454 z_1455 z_1456
 z_1457 z_1458 z_1459 z_1460 z_1461 z_1462 z_1463 z_1464 z_1465 z_1466 z_1467
 z_1468 z_1469 z_1470 z_1471 z_1472 z_1473 z_1474 z_1475 z_1476 z_1477 z_1478
 z_1479 z_1480 z_1481 z_1482 z_1483 z_1484 z_1485 z_1486 z_1487 z_1488 z_1489
 z_1490 z_1491 z_1492 z_1493 z_1494 z_1495 z_1496 z_1497 z_1498 z_1499 z_1500
 z_1501 z_1502 z_1503 z_1504 z_1505 z_1506 z_1507 z_1508 z_1509 z_1510 z_1511
 z_1512 z_1513 z_1514 z_1515 z_1516 z_1517 z_1518 z_1519 z_1520 z_1521 z_1522
 z_1523 z_1524 z_1525 z_1526 z_1527 z_1528 z_1529 z_1530 z_1531 z_1532 z_1533
 z_1534 z_1535 z_1536 z_1537 z_1538 z_1539 z_1540 z_1541 z_1542 z_1543 z_1544
 z_1545 z_1546 z_1547 z_1548 z_1549 z_1550 z_1551 z_1552 z_1553 z_1554 z_1555
 z_1556 z_1557 z_1558 z_1559 z_1560 z_1561 z_1562 z_1563 z_1564 z_1565 z_1566
 z_1567 z_1568 z_1569 z_1570 z_1571 z_1572 z_1573 z_1574 z_1575 z_1576 z_1577
 z_1578 z_1579 z_1580 z_1581 z_1582 z_1583 z_1584 z_1585 z_1586 z_1587 z_1588
 z_1589 z_1590 z_1591 z_1592 z_1593 z_1594 z_1595 z_1596 z_1597 z_1598 z_1599
 z_1600 z_1601 z_1602 z_1603 z_1604 z_1605 z_1606 z_1607 z_1608 z_1609 z_1610
 z_1611 z_1612 z_1613 z_1614 z_1615 z_1616 z_1617 z_1618 z_1619 z_1620 z_1621
 z_1622 z_1623 z_1624 z_1625 z_1626 z_1627 z_1628 z_1629 z_1630 z_1631 z_1632
 z_1633 z_1634 z_1635 z_1636 z_1637 z_1638 z_1639 z_1640 z_1641 z_1642 z_1643
 z_1644 z_1645 z_1646 z_1647 z_1648 z_1649 z_1650 z_1651 z_1652 z_1653 z_1654
 z_1655 z_1656 z_1657 z_1658 z_1659 z_1660 z_1661 z_1662 z_1663 z_1664 z_1665
 z_1666 z_1667 z_1668 z_1669 z_1670 z_1671 z_1672 z_1673 z_1674 z_1675 z_1676
 z_1677 z_1678 z_1679 z_1680 z_1681 z_1682 z_1683 z_1684 z_1685 z_1686 z_1687
 z_1688 z_1689 z_1690 z_1691 z_1692 z_1693 z_1694 z_1695 z_1696 z_1697 z_1698
 z_1699 z_1700 z_1701 z_1702 z_1703 z_1704 z_1705 z_1706 z_1707 z_1708 z_1709
 z_1710 z_1711 z_1712 z_1713 z_1714 z_1715 z_1716 z_1717 z_1718 z_1719 z_1720
 z_1721 z_1722 z_1723 z_1724 z_1725 z_1726 z_1727 z_1728 z_1729 z_1730 z_1731
 z_1732 z_1733 z_1734 z_1735 z_1736 z_1737 z_1738 z_1739 z_1740 z_1741 z_1742
 z_1743 z_1744 z_1745 z_1746 z_1747 z_1748 z_1749 z_1750 z_1751 z_1752 z_1753
 z_1754 z_1755 z_1756 z_1757 z_1758 z_1759 z_1760 z_1761 z_1762 z_1763 z_1764
 z_1765 z_1766 z_1767 z_1768 z_1769 z_1770 z_1771 z_1772 z_1773 z_1774 z_1775
 z_1776 z_1777 z_1778 z_1779 z_1780 z_1781 z_1782 z_1783 z_1784 z_1785 z_1786
 z_1787 z_1788 z_1789 z_1790 z_1791 z_1792 z_1793 z_1794 z_1795 z_1796 z_1797
 z_1798 z_1799 z_1800 z_1801 z_1802 z_1803 z_1804 z_1805 z_1806 z_1807 z_1808
 z_1809 z_1810 z_1811 z_1812 z_1813 z_1814 z_1815 z_1816 z_1817 z_1818 z_1819
 z_1820 z_1821 z_1822 z_1823 z_1824 z_1825 z_1826 z_1827 z_1828 z_1829 z_1830
 z_1831 z_1832 z_1833 z_1834 z_1835 z_1836 z_1837 z_1838 z_1839 z_1840 z_1841
 z_1842 z_1843 z_1844 z_1845 z_1846 z_1847 z_1848 z_1849 z_1850 z_1851 z_1852
 z_1853 z_1854 z_1855 z_1856 z_1857 z_1858 z_1859 z_1860 z_1861 z_1862 z_1863
 z_1864 z_1865 z_1866 z_1867 z_1868 z_1869 z_1870 z_1871 z_1872 z_1873 z_1874
 z_1875 z_1876 z_1877 z_1878 z_1879 z_1880 z_1881 z_1882 z_1883 z_1884 z_1885
 z_1886 z_1887 z_1888 z_1889 z_1890 z_1891 z_1892 z_1893 z_1894 z_1895 z_1896
 z_1897 z_1898 z_1899 z_1900 z_1901 z_1902 z_1903 z_1904 z_1905 z_1906 z_1907
 z_1908 z_1909 z_1910 z_1911 z_1912 z_1913 z_1914 z_1915 z_1916 z_1917 z_1918
 z_1919 z_1920 z_1921 z_1922 z_1923 z_1924 z_1925 z_1926 z_1927 z_1928 z_1929
 z_1930 z_1931 z_1932 z_1933 z_1934 z_1935 z_1936 z_1937 z_1938 z_1939 z_1940
 z_1941 z_1942 z_1943 z_1944 z_1945 z_1946 z_1947 z_1948 z_1949 z_1950 z_1951
 z_1952 z_1953 z_1954 z_1955 z_1956 z_1957 z_1958 z_1959 z_1960 z_1961 z_1962
 z_1963 z_1964 z_1965 z_1966 z_1967 z_1968 z_1969 z_1970 z_1971 z_1972 z_1973
 z_1974 z_1975 z_1976 z_1977 z_1978 z_1979 z_1980 z_1981 z_1982 z_1983 z_1984
 z_1985 z_1986 z_1987 z_1988 z_1989 z_1990 z_1991 z_1992 z_1993 z_1994 z_1995
 z_1996 z_1997 z_1998 z_1999 z_2000 z_2001 z_2002 z_2003 z_2004 z_2005 z_2006
 z_2007 z_2008 z_2009 z_2010 z_2011 z_2012 z_2013 z_2014 z_2015 z_2016 z_2017
 z_2018 z_2019 z_2020 z_2021 z_2022 z_2023 z_2024 z_2025 z_2026 z_2027 z_2028
 z_2029 z_2030 z_2031 z_2032 z_2033 z_2034 z_2035 z_2036 z_2037 z_2038 z_2039
 z_2040 z_2041 z_2042 z_2043 z_2044 z_2045 z_2046 z_2047 z_2048 z_2049 z_2050
 z_2051 z_2052 z_2053 z_2054 z_2055 z_2056 z_2057 z_2058 z_2059 z_2060 z_2061
 z_2062 z_2063 z_2064 z_2065 z_2066 z_2067 z_2068 z_2069 z_2070 z_2071 z_2072
 z_2073 z_2074 z_2075 z_2076 z_2077 z_2078 z_2079 z_2080 z_2081 z_2082 z_2083
 z_2084 z_2085 z_2086 z_2087 z_2088 z_2089 z_2090 z_2091 z_2092 z_2093 z_2094
 z_2095 z_2096 z_2097 z_2098 z_2099 z_2100 z_2101 z_2102 z_2103 z_2104 z_2105
 z_2106 z_2107 z_2108 z_2109 z_2110 z_2111 z_2112 z_2113 z_2114 z_2115 z_2116
 z_2117 z_2118 z_2119 z_2120 z_2121 z_2122 z_2123 z_2124 z_2125 z_2126 z_2127
 z_2128 z_2129 z_2130 z_2131 z_2132 z_2133 z_2134 z_2135 z_2136 z_2137 z_2138
 z_2139 z_2140 z_2141 z_2142 z_2143 z_2144 z_2145 z_2146 z_2147 z_2148 z_2149
 z_2150 z_2151 z_2152 z_2153 z_2154 z_2155 z_2156 z_2157 z_2158 z_2159 z_2160
 z_2161 z_2162 z_2163 z_2164 z_2165 z_2166 z_2167 z_2168 z_2169 z_2170 z_2171
 z_2172 z_2173 z_2174 z_2175 z_2176 z_2177 z_2178 z_2179 z_2180 z_2181 z_2182
 z_2183 z_2184 z_2185 z_2186 z_2187 z_2188 z_2189 z_2190 z_2191 z_2192 z_2193
 z_2194 z_2195 z_2196 z_2197 z_2198 z_2199 z_2200 z_2201 z_2202 z_2203 z_2204
 z_2205 z_2206 z_2207 z_2208 z_2209 z_2210 z_2211 z_2212 z_2213 z_2214 z_2215
 z_2216 z_2217 z_2218 z_2219 z_2220 z_2221 z_2222 z_2223 z_2224 z_2225 z_2226
 z_2227 z_2228 z_2229 z_2230 z_2231 z_2232 z_2233 z_2234 z_2235 z_2236 z_2237
 z_2238 z_2239 z_2240 z_2241 z_2242 z_2243 z_2244 z_2245 z_2246 z_2247 z_2248
 z_2249 z_2250 z_2251 z_2252 z_2253 z_2254 z_2255 z_2256 z_2257 z_2258 z_2259
 z_2260 z_2261 z_2262 z_2263 z_2264 z_2265 z_2266 z_2267 z_2268 z_2269 z_2270
 z_2271 z_2272 z_2273 z_2274 z_2275 z_2276 z_2277 z_2278 z_2279 z_2280 z_2281
 z_2282 z_2283 z_2284 z_2285 z_2286 z_2287 z_2288 z_2289 z_2290 z_2291 z_2292
 z_2293 z_2294 z_2295 z_2296 z_2297 z_2298 z_2299 z_2300 z_2301 z_2302 z_2303
 z_2304 z_2305 z_2306 z_2307 z_2308 z_2309 z_2310 z_2311 z_2312 z_2313 z_2314
 z_2315 z_2316 z_2317 z_2318 z_2319 z_2320 z_2321 z_2322 z_2323 z_2324 z_2325
 z_2326 z_2327 z_2328 z_2329 z_2330 z_2331 z_2332 z_2333 z_2334 z_2335 z_2336
 z_2337 z_2338 z_2339 z_2340 z_2341 z_2342 z_2343 z_2344 z_2345 z_2346 z_2347
 z_2348 z_2349 z_2350 z_2351 z_2352 z_2353 z_2354 z_2355 z_2356 z_2357 z_2358
 z_2359 z_2360 z_2361 z_2362 z_2363 z_2364 z_2365 z_2366 z_2367 z_2368 z_2369
 z_2370 z_2371 z_2372 z_2373 z_2374 z_2375 z_2376 z_2377 z_2378 z_2379 z_2380
 z_2381 z_2382 z_2383 z_2384 z_2385 z_2386 z_2387 z_2388 z_2389 z_2390 z_2391
 z_2392 z_2393 z_2394 z_2395 z_2396 z_2397 z_2398 z_2399 z_2400 z_2401 z_2402
 z_2403 z_2404 z_2405 z_2406 z_2407 z_2408 z_2409 z_2410 z_2411 z_2412 z_2413
 z_2414 z_2415 z_2416 z_2417 z_2418 z_2419 z_2420 z_2421 z_2422 z_2423 z_2424
 z_2425 z_2426 z_2427 z_2428 z_2429 z_2430 z_2431 z_2432 z_2433 z_2434 z_2435
 z_2436 z_2437 z_2438 z_2439 z_2440 z_2441 z_2442 z_2443 z_2444 z_2445 z_2446
 z_2447 z_2448 z_2449 z_2450 z_2451 z_2452 z_2453 z_2454 z_2455 z_2456 z_2457
 z_2458 z_2459 z_2460 z_2461 z_2462 z_2463 z_2464 z_2465 z_2466 z_2467 z_2468
 z_2469 z_2470 z_2471 z_2472 z_2473 z_2474 z_2475 z_2476 z_2477 z_2478 z_2479
 z_2480 z_2481 z_2482 z_2483 z_2484 z_2485 z_2486 z_2487 z_2488 z_2489 z_2490
 z_2491 z_2492 z_2493 z_2494 z_2495 z_2496 z_2497 z_2498 z_2499 z_2500 z_2501
 z_2502 z_2503 z_2504 z_2505 z_2506 z_2507 z_2508 z_2509 z_2510 z_2511 z_2512
 z_2513 z_2514 z_2515 z_2516 z_2517 z_2518 z_2519 z_2520 z_2521 z_2522 z_2523
 z_2524 z_2525 z_2526 z_2527 z_2528 z_2529 z_2530 z_2531 z_2532 z_2533 z_2534
 z_2535 z_2536 z_2537 z_2538 z_2539 z_2540 z_2541 z_2542 z_2543 z_2544 z_2545
 z_2546 z_2547 z_2548 z_2549 z_2550 z_2551 z_2552 z_2553 z_2554 z_2555 z_2556
 z_2557 z_2558 z_2559 z_2560 z_2561 z_2562 z_2563 z_2564 z_2565 z_2566 z_2567
 z_2568 z_2569 z_2570 z_2571 z_2572 z_2573 z_2574 z_2575 z_2576 z_2577 z_2578
 z_2579 z_2580 z_2581 z_2582 z_2583 z_2584 z_2585 z_2586 z_2587 z_2588 z_2589
 z_2590 z_2591 z_2592 z_2593 z_2594 z_2595 z_2596 z_2597 z_2598 z_2599 z_2600
 z_2601 z_2602 z_2603 z_2604 z_2605 z_2606 z_2607 z_2608 z_2609 z_2610 z_2611
 z_2612 z_2613 z_2614 z_2615 z_2616 z_2617 z_2618 z_2619 z_2620 z_2621 z_2622
 z_2623 z_2624 z_2625 z_2626 z_2627 z_2628 z_2629 z_2630 z_2631 z_2632 z_2633
 z_2634 z_2635 z_2636 z_2637 z_2638 z_2639 z_2640 z_2641 z_2642 z_2643 z_2644
 z_2645 z_2646 z_2647 z_2648 z_2649 z_2650 z_2651 z_2652 z_2653 z_2654 z_2655
 z_2656 z_2657 z_2658 z_2659 z_2660 z_2661 z_2662 z_2663 z_2664 z_2665 z_2666
 z_2667 z_2668 z_2669 z_2670 z_2671 z_2672 z_2673 z_2674 z_2675 z_2676 z_2677
 z_2678 z_2679 z_2680 z_2681 z_2682 z_2683 z_2684 z_2685 z_2686 z_2687 z_2688
 z_2689 z_2690 z_2691 z_2692 z_2693 z_2694 z_2695 z_2696 z_2697 z_2698 z_2699
 z_2700 z_2701 z_2702 z_2703 z_2704 z_2705 z_2706 z_2707 z_2708 z_2709 z_2710
 z_2711 z_2712 z_2713 z_2714 z_2715 z_2716 z_2717 z_2718 z_2719 z_2720 z_2721
 z_2722 z_2723 z_2724 z_2725 z_2726 z_2727 z_2728 z_2729 z_2730 z_2731 z_2732
 z_2733 z_2734 z_2735 z_2736 z_2737 z_2738 z_2739 z_2740 z_2741 z_2742 z_2743
 z_2744 z_2745 z_2746 z_2747 z_2748 z_2749 z_2750 z_2751 z_2752 z_2753 z_2754
 z_2755 z_2756 z_2757 z_2758 z_2759 z_2760 z_2761 z_2762 z_2763 z_2764 z_2765
 z_2766 z_2767 z_2768 z_2769 z_2770 z_2771 z_2772 z_2773 z_2774 z_2775 z_2776
 z_2777 z_2778 z_2779 z_2780 z_2781 z_2782 z_2783 z_2784 z_2785 z_2786 z_2787
 z_2788 z_2789 z_2790 z_2791 z_2792 z_2793 z_2794 z_2795 z_2796 z_2797 z_2798
 z_2799 z_2800 z_2801 z_2802 z_2803 z_2804 z_2805 z_2806 z_2807 z_2808 z_2809
 z_2810 z_2811 z_2812 z_2813 z_2814 z_2815 z_2816 z_2817 z_2818 z_2819 z_2820
 z_2821 z_2822 z_2823 z_2824 z_2825 z_2826 z_2827 z_2828 z_2829 z_2830 z_2831
 z_2832 z_2833 z_2834 z_2835 z_2836 z_2837 z_2838 z_2839 z_2840 z_2841 z_2842
 z_2843 z_2844 z_2845 z_2846 z_2847 z_2848 z_2849 z_2850 z_2851 z_2852 z_2853
 z_2854 z_2855 z_2856 z_2857 z_2858 z_2859 z_2860 z_2861 z_2862 z_2863 z_2864
 z_2865 z_2866 z_2867 z_2868 z_2869 z_2870 z_2871 z_2872 z_2873 z_2874 z_2875
 z_2876 z_2877 z_2878 z_2879 z_2880 z_2881 z_2882 z_2883 z_2884 z_2885 z_2886
 z_2887 z_2888 z_2889 z_2890 z_2891 z_2892 z_2893 z_2894 z_2895 z_2896 z_2897
 z_2898 z_2899 z_2900 z_2901 z_2902 z_2903 z_2904 z_2905 z_2906 z_2907 z_2908
 z_2909 z_2910 z_2911 z_2912 z_2913 z_2914 z_2915 z_2916 z_2917 z_2918 z_2919
 z_2920 z_2921 z_2922 z_2923 z_2924 z_2925 z_2926 z_2927 z_2928 z_2929 z_2930
 z_2931 z_2932 z_2933 z_2934 z_2935 z_2936 z_2937 z_2938 z_2939 z_2940 z_2941
 z_2942 z_2943 z_2944 z_2945 z_2946 z_2947 z_2948 z_2949 z_2950 z_2951 z_2952
 z_2953 z_2954 z_2955 z_2956 z_2957 z_2958 z_2959 z_2960 z_2961 z_2962 z_2963
 z_2964 z_2965 z_2966 z_2967 z_2968 z_2969 z_2970 z_2971 z_2972 z_2973 z_2974
 z_2975 z_2976 z_2977 z_2978 z_2979 z_2980 z_2981 z_2982 z_2983 z_2984 z_2985
 z_2986 z_2987 z_2988 z_2989 z_2990 z_2991 z_2992 z_2993 z_2994 z_2995 z_2996
 z_2997 z_2998 z_2999 z_3000 z_3001 z_3002 z_3003 z_3004 z_3005 z_3006 z_3007
 z_3008 z_3009 z_3010 z_3011 z_3012 z_3013 z_3014 z_3015 z_3016 z_3017 z_3018
 z_3019 z_3020 z_3021 z_3022 z_3023 z_3024 z_3025 z_3026 z_3027 z_3028 z_3029
 z_3030 z_3031 z_3032 z_3033 z_3034 z_3035 z_3036 z_3037 z_3038 z_3039 z_3040
 z_3041 z_3042 z_3043 z_3044 z_3045 z_3046 z_3047 z_3048 z_3049 z_3050 z_3051
 z_3052 z_3053 z_3054 z_3055 z_3056 z_3057 z_3058 z_3059 z_3060 z_3061 z_3062
 z_3063 z_3064 z_3065 z_3066 z_3067 z_3068 z_3069 z_3070 z_3071 z_3072 z_3073
 z_3074 z_3075 z_3076 z_3077 z_3078 z_3079 z_3080 z_3081 z_3082 z_3083 z_3084
 z_3085 z_3086 z_3087 z_3088 z_3089 z_3090 z_3091 z_3092 z_3093 z_3094 z_3095
 z_3096 z_3097 z_3098 z_3099 z_3100 z_3101 z_3102 z_3103 z_3104 z_3105 z_3106
 z_3107 z_3108 z_3109 z_3110 z_3111 z_3112 z_3113 z_3114 z_3115 z_3116 z_3117
 z_3118 z_3119 z_3120 z_3121 z_3122 z_3123 z_3124 z_3125 z_3126 z_3127 z_3128
 z_3129 z_3130 z_3131 z_3132 z_3133 z_3134 z_3135 z_3136 z_3137 z_3138 z_3139
 z_3140 z_3141 z_3142 z_3143 z_3144 z_3145 z_3146 z_3147 z_3148 z_3149 z_3150
 z_3151 z_3152 z_3153 z_3154 z_3155 z_3156 z_3157 z_3158 z_3159 z_3160 z_3161
 z_3162 z_3163 z_3164 z_3165 z_3166 z_3167 z_3168 z_3169 z_3170 z_3171 z_3172
 z_3173 z_3174 z_3175 z_3176 z_3177 z_3178 z_3179 z_3180 z_3181 z_3182 z_3183
 z_3184 z_3185 z_3186 z_3187 z_3188 z_3189 z_3190 z_3191 z_3192 z_3193 z_3194
 z_3195 z_3196 z_3197 z_3198 z_3199 z_3200 z_3201 z_3202 z_3203 z_3204 z_3205
 z_3206 z_3207 z_3208 z_3209 z_3210 z_3211 z_3212 z_3213 z_3214 z_3215 z_3216
 z_3217 z_3218 z_3219 z_3220 z_3221 z_3222 z_3223 z_3224 z_3225 z_3226 z_3227
 z_3228 z_3229 z_3230 z_3231 z_3232 z_3233 z_3234 z_3235 z_3236 z_3237 z_3238
 z_3239 z_3240 z_3241 z_3242 z_3243 z_3244 z_3245 z_3246 z_3247 z_3248 z_3249
 z_3250 z_3251 z_3252 z_3253 z_3254 z_3255 z_3256 z_3257 z_3258 z_3259 z_3260
 z_3261 z_3262 z_3263 z_3264 z_3265 z_3266 z_3267 z_3268 z_3269 z_3270 z_3271
 z_3272 z_3273 z_3274 z_3275 z_3276 z_3277 z_3278 z_3279 z_3280 z_3281 z_3282
 z_3283 z_3284 z_3285 z_3286 z_3287 z_3288 z_3289 z_3290 z_3291 z_3292 z_3293
 z_3294 z_3295 z_3296 z_3297 z_3298 z_3299 z_3300 z_3301 z_3302 z_3303 z_3304
 z_3305 z_3306 z_3307 z_3308 z_3309 z_3310 z_3311 z_3312 z_3313 z_3314 z_3315
 z_3316 z_3317 z_3318 z_3319 z_3320 z_3321 z_3322 z_3323 z_3324 z_3325 z_3326
 z_3327 z_3328 z_3329 z_3330 z_3331 z_3332 z_3333 z_3334 z_3335 z_3336 z_3337
 z_3338 z_3339 z_3340 z_3341 z_3342 z_3343 z_3344 z_3345 z_3346 z_3347 z_3348
 z_3349 z_3350 z_3351 z_3352 z_3353 z_3354 z_3355 z_3356 z_3357 z_3358 z_3359
 z_3360 z_3361 z_3362 z_3363 z_3364 z_3365 z_3366 z_3367 z_3368 z_3369 z_3370
 z_3371 z_3372 z_3373 z_3374 z_3375 z_3376 z_3377 z_3378 z_3379 z_3380 z_3381
 z_3382 z_3383 z_3384 z_3385 z_3386 z_3387 z_3388 z_3389 z_3390 z_3391 z_3392
 z_3393 z_3394 z_3395 z_3396 z_3397 z_3398 z_3399 z_3400 z_3401 z_3402 z_3403
 z_3404 z_3405 z_3406 z_3407 z_3408 z_3409 z_3410 z_3411 z_3412 z_3413 z_3414
 z_3415 z_3416 z_3417 z_3418 z_3419 z_3420 z_3421 z_3422 z_3423 z_3424 z_3425
 z_3426 z_3427 z_3428 z_3429 z_3430 z_3431 z_3432 z_3433 z_3434 z_3435 z_3436
 z_3437 z_3438 z_3439 z_3440 z_3441 z_3442 z_3443 z_3444 z_3445 z_3446 z_3447
 z_3448 z_3449 z_3450 z_3451 z_3452 z_3453 z_3454 z_3455 z_3456 z_3457 z_3458
 z_3459 z_3460 z_3461 z_3462 z_3463 z_3464 z_3465 z_3466 z_3467 z_3468 z_3469
 z_3470 z_3471 z_3472 z_3473 z_3474 z_3475 z_3476 z_3477 z_3478 z_3479 z_3480
 z_3481 z_3482 z_3483 z_3484 z_3485 z_3486 z_3487 z_3488 z_3489 z_3490 z_3491
 z_3492 z_3493 z_3494 z_3495 z_3496 z_3497 z_3498 z_3499 z_3500 z_3501 z_3502
 z_3503 z_3504 z_3505 z_3506 z_3507 z_3508 z_3509 z_3510 z_3511 z_3512 z_3513
 z_3514 z_3515 z_3516 z_3517 z_3518 z_3519 z_3520 z_3521 z_3522 z_3523 z_3524
 z_3525 z_3526 z_3527 z_3528 z_3529 z_3530 z_3531 z_3532 z_3533 z_3534 z_3535
 z_3536 z_3537 z_3538 z_3539 z_3540 z_3541 z_3542 z_3543 z_3544 z_3545 z_3546
 z_3547 z_3548 z_3549 z_3550 z_3551 z_3552 z_3553 z_3554 z_3555 z_3556 z_3557
 z_3558 z_3559 z_3560 z_3561 z_3562 z_3563 z_3564 z_3565 z_3566 z_3567 z_3568
 z_3569 z_3570 z_3571 z_3572 z_3573 z_3574 z_3575 z_3576 z_3577 z_3578 z_3579
 z_3580 z_3581 z_3582 z_3583 z_3584 z_3585 z_3586 z_3587 z_3588 z_3589 z_3590
 z_3591 z_3592 z_3593 z_3594 z_3595 z_3596 z_3597 z_3598 z_3599 z_3600 z_3601
 z_3602 z_3603 z_3604 z_3605 z_3606 z_3607 z_3608 z_3609 z_3610 z_3611 z_3612
 z_3613 z_3614 z_3615 z_3616 z_3617 z_3618 z_3619 z_3620 z_3621 z_3622 z_3623
 z_3624 z_3625 z_3626 z_3627 z_3628 z_3629 z_3630 z_3631 z_3632 z_3633 z_3634
 z_3635 z_3636 z_3637 z_3638 z_3639 z_3640 z_3641 z_3642 z_3643 z_3644 z_3645
 z_3646 z_3647 z_3648 z_3649 z_3650 z_3651 z_3652 z_3653 z_3654 z_3655 z_3656
 z_3657 z_3658 z_3659 z_3660 z_3661 z_3662 z_3663 z_3664 z_3665 z_3666 z_3667
 z_3668 z_3669 z_3670 z_3671 z_3672 z_3673 z_3674 z_3675 z_3676 z_3677 z_3678
 z_3679 z_3680 z_3681 z_3682 z_3683 z_3684 z_3685 z_3686 z_3687 z_3688 z_3689
 z_3690 z_3691 z_3692 z_3693 z_3694 z_3695 z_3696 z_3697 z_3698 z_3699 z_3700
 z_3701 z_3702 z_3703 z_3704 z_3705 z_3706 z_3707 z_3708 z_3709 z_3710 z_3711
 z_3712 z_3713 z_3714 z_3715 z_3716 z_3717 z_3718 z_3719 z_3720 z_3721 z_3722
 z_3723 z_3724 z_3725 z_3726 z_3727 z_3728 z_3729 z_3730 z_3731 z_3732 z_3733
 z_3734 z_3735 z_3736 z_3737 z_3738 z_3739 z_3740 z_3741 z_3742 z_3743 z_3744
 z_3745 z_3746 z_3747 z_3748 z_3749 z_3750 z_3751 z_3752 z_3753 z_3754 z_3755
 z_3756 z_3757 z_3758 z_3759 z_3760 z_3761 z_3762 z_3763 z_3764 z_3765 z_3766
 z_3767 z_3768 z_3769 z_3770 z_3771 z_3772 z_3773 z_3774 z_3775 z_3776 z_3777
 z_3778 z_3779 z_3780 z_3781 z_3782 z_3783 z_3784 z_3785 z_3786 z_3787 z_3788
 z_3789 z_3790 z_3791 z_3792 z_3793 z_3794 z_3795 z_3796 z_3797 z_3798 z_3799
 z_3800 z_3801 z_3802 z_3803 z_3804 z_3805 z_3806 z_3807 z_3808 z_3809 z_3810
 z_3811 z_3812 z_3813 z_3814 z_3815 z_3816 z_3817 z_3818 z_3819 z_3820 z_3821
 z_3822 z_3823 z_3824 z_3825 z_3826 z_3827 z_3828 z_3829 z_3830 z_3831 z_3832
 z_3833 z_3834 z_3835 z_3836 z_3837 z_3838 z_3839 z_3840 z_3841 z_3842 z_3843
 z_3844 z_3845 z_3846 z_3847 z_3848 z_3849 z_3850 z_3851 z_3852 z_3853 z_3854
 z_3855 z_3856 z_3857 z_3858 z_3859 z_3860 z_3861 z_3862 z_3863 z_3864 z_3865
 z_3866 z_3867 z_3868 z_3869 z_3870 z_3871 z_3872 z_3873 z_3874 z_3875 z_3876
 z_3877 z_3878 z_3879 z_3880 z_3881 z_3882 z_3883 z_3884 z_3885 z_3886 z_3887
 z_3888 z_3889 z_3890 z_3891 z_3892 z_3893 z_3894 z_3895 z_3896 z_3897 z_3898
 z_3899 z_3900 z_3901 z_3902 z_3903 z_3904 z_3905 z_3906 z_3907 z_3908 z_3909
 z_3910 z_3911 z_3912 z_3913 z_3914 z_3915 z_3916 z_3917 z_3918 z_3919 z_3920
 z_3921 z_3922 z_3923 z_3924 z_3925 z_3926 z_3927 z_3928 z_3929 z_3930 z_3931
 z_3932 z_3933 z_3934 z_3935 z_3936 z_3937 z_3938 z_3939 z_3940 z_3941 z_3942
 z_3943 z_3944 z_3945 z_3946 z_3947 z_3948 z_3949 z_3950 z_3951 z_3952 z_3953
 z_3954 z_3955 z_3956 z_3957 z_3958 z_3959 z_3960 z_3961 z_3962 z_3963 z_3964
 z_3965 z_3966 z_3967 z_3968 z_3969 z_3970 z_3971 z_3972 z_3973 z_3974 z_3975
 z_3976 z_3977 z_3978 z_3979 z_3980 z_3981 z_3982 z_3983 z_3984 z_3985 z_3986
 z_3987 z_3988 z_3989 z_3990 z_3991 z_3992 z_3993 z_3994 z_3995 z_3996 z_3997
 z_3998 z_3999 z_4000 z_4001 z_4002 z_4003 z_4004 z_4005 z_4006 z_4007 z_4008
 z_4009 z_4010 z_4011 z_4012 z_4013 z_4014 z_4015 z_4016 z_4017 z_4018 z_4019
 z_4020 z_4021 z_4022 z_4023 z_4024 z_4025 z_4026 z_4027 z_4028 z_4029 z_4030
 z_4031 z_4032 z_4033 z_4034 z_4035 z_4036 z_4037 z_4038 z_4039 z_4040 z_4041
 z_4042 z_4043 z_4044 z_4045 z_4046 z_4047 z_4048 z_4049 z_4050 z_4051 z_4052
 z_4053 z_4054 z_4055 z_4056 z_4057 z_4058 z_4059 z_4060 z_4061 z_4062 z_4063
 z_4064 z_4065 z_4066 z_4067 z_4068 z_4069 z_4070 z_4071 z_4072 z_4073 z_4074
 z_4075 z_4076 z_4077 z_4078 z_4079 z_4080 z_4081 z_4082 z_4083 z_4084 z_4085
 z_4086 z_4087 z_4088 z_4089 z_4090 z_4091 z_4092 z_4093 z_4094 z_4095 z_4096
 z_4097 z_4098 z_4099 z_4100 z_4101 z_4102 z_4103 z_4104 z_4105 z_4106 z_4107
 z_4108 z_4109 z_4110 z_4111 z_4112 z_4113 z_4114 z_4115 z_4116 z_4117 z_4118
 z_4119 z_4120 z_4121 z_4122 z_4123 z_4124 z_4125 z_4126 z_4127 z_4128 z_4129
 z_4130 z_4131 z_4132 z_4133 z_4134 z_4135 z_4136 z_4137 z_4138 z_4139 z_4140
 z_4141 z_4142 z_4143 z_4144 z_4145 z_4146 z_4147 z_4148 z_4149 z_4150 z_4151
 z_4152 z_4153 z_4154 z_4155 z_4156 z_4157 z_4158 z_4159 z_4160 z_4161 z_4162
 z_4163 z_4164 z_4165 z_4166 z_4167 z_4168 z_4169 z_4170 z_4171 z_4172 z_4173
 z_4174 z_4175 z_4176 z_4177 z_4178 z_4179 z_4180 z_4181 z_4182 z_4183 z_4184
 z_4185 z_4186 z_4187 z_4188 z_4189 z_4190 z_4191 z_4192 z_4193 z_4194 z_4195
 z_4196 z_4197 z_4198 z_4199 z_4200 z_4201 z_4202 z_4203 z_4204 z_4205 z_4206
 z_4207 z_4208 z_4209 z_4210 z_4211 z_4212 z_4213 z_4214 z_4215 z_4216 z_4217
 z_4218 z_4219 z_4220 z_4221 z_4222 z_4223 z_4224 z_4225 z_4226 z_4227 z_4228
 z_4229 z_4230 z_4231 z_4232 z_4233 z_4234 z_4235 z_4236 z_4237 z_4238 z_4239
 z_4240 z_4241 z_4242 z_4243 z_4244 z_4245 z_4246 z_4247 z_4248 z_4249 z_4250
 z_4251 z_4252 z_4253 z_4254 z_4255 z_4256 z_4257 z_4258 z_4259 z_4260 z_4261
 z_4262 z_4263 z_4264 z_4265 z_4266 z_4267 z_4268 z_4269 z_4270 z_4271 z_4272
 z_4273 z_4274 z_4275 z_4276 z_4277 z_4278 z_4279 z_4280 z_4281 z_4282 z_4283
 z_4284 z_4285 z_4286 z_4287 z_4288 z_4289 z_4290 z_4291 z_4292 z_4293 z_4294
 z_4295 z_4296 z_4297 z_4298 z_4299 z_4300 z_4301 z_4302 z_4303 z_4304 z_4305
 z_4306 z_4307 z_4308 z_4309 z_4310 z_4311 z_4312 z_4313 z_4314 z_4315 z_4316
 z_4317 z_4318 z_4319 z_4320 z_4321 z_4322 z_4323 z_4324 z_4325 z_4326 z_4327
 z_4328 z_4329 z_4330 z_4331 z_4332 z_4333 z_4334 z_4335 z_4336 z_4337 z_4338
 z_4339 z_4340 z_4341 z_4342 z_4343 z_4344 z_4345 z_4346 z_4347 z_4348 z_4349
 z_4350 z_4351 z_4352 z_4353 z_4354 z_4355 z_4356 z_4357 z_4358 z_4359 z_4360
 z_4361 z_4362 z_4363 z_4364 z_4365 z_4366 z_4367 z_4368 z_4369 z_4370 z_4371
 z_4372 z_4373 z_4374 z_4375 z_4376 z_4377 z_4378 z_4379 z_4380 z_4381 z_4382
 z_4383 z_4384 z_4385 z_4386 z_4387 z_4388 z_4389 z_4390 z_4391 z_4392 z_4393
 z_4394 z_4395 z_4396 z_4397 z_4398 z_4399 z_4400 z_4401 z_4402 z_4403 z_4404
 z_4405 z_4406 z_4407 z_4408 z_4409 z_4410 z_4411 z_4412 z_4413 z_4414 z_4415
 z_4416 z_4417 z_4418 z_4419 z_4420 z_4421 z_4422 z_4423 z_4424 z_4425 z_4426
 z_4427 z_4428 z_4429 z_4430 z_4431 z_4432 z_4433 z_4434 z_4435 z_4436 z_4437
 z_4438 z_4439 z_4440 z_4441 z_4442 z_4443 z_4444 z_4445 z_4446 z_4447 z_4448
 z_4449 z_4450 z_4451 z_4452 z_4453 z_4454 z_4455 z_4456 z_4457 z_4458 z_4459
 z_4460 z_4461 z_4462 z_4463 z_4464 z_4465 z_4466 z_4467 z_4468 z_4469 z_4470
 z_4471 z_4472 z_4473 z_4474 z_4475 z_4476 z_4477 z_4478 z_4479 z_4480 z_4481
 z_4482 z_4483 z_4484 z_4485 z_4486 z_4487 z_4488 z_4489 z_4490 z_4491 z_4492
 z_4493 z_4494 z_4495 z_4496 z_4497 z_4498 z_4499 z_4500 z_4501 z_4502 z_4503
 z_4504 z_4505 z_4506 z_4507 z_4508 z_4509 z_4510 z_4511 z_4512 z_4513 z_4514
 z_4515 z_4516 z_4517 z_4518 z_4519 z_4520 z_4521 z_4522 z_4523 z_4524 z_4525
 z_4526 z_4527 z_4528 z_4529 z_4530 z_4531 z_4532 z_4533 z_4534 z_4535 z_4536
 z_4537 z_4538 z_4539 z_4540 z_4541 z_4542 z_4543 z_4544 z_4545 z_4546 z_4547
 z_4548 z_4549 z_4550 z_4551 z_4552 z_4553 z_4554 z_4555 z_4556 z_4557 z_4558
 z_4559 z_4560 z_4561 z_4562 z_4563 z_4564 z_4565 z_4566 z_4567 z_4568 z_4569
 z_4570 z_4571 z_4572 z_4573 z_4574 z_4575 z_4576 z_4577 z_4578 z_4579 z_4580
 z_4581 z_4582 z_4583 z_4584 z_4585 z_4586 z_4587 z_4588 z_4589 z_4590 z_4591
 z_4592 z_4593 z_4594 z_4595 z_4596 z_4597 z_4598 z_4599 z_4600 z_4601 z_4602
 z_4603 z_4604 z_4605 z_4606 z_4607 z_4608 z_4609 z_4610 z_4611 z_4612 z_4613
 z_4614 z_4615 z_4616 z_4617 z_4618 z_4619 z_4620 z_4621 z_4622 z_4623 z_4624
 z_4625 z_4626 z_4627 z_4628 z_4629 z_4630 z_4631 z_4632 z_4633 z_4634 z_4635
 z_4636 z_4637 z_4638 z_4639 z_4640 z_4641 z_4642 z_4643 z_4644 z_4645 z_4646
 z_4647 z_4648 z_4649 z_4650 z_4651 z_4652 z_4653 z_4654 z_4655 z_4656 z_4657
 z_4658 z_4659 z_4660 z_4661 z_4662 z_4663 z_4664 z_4665 z_4666 z_4667 z_4668
 z_4669 z_4670 z_4671 z_4672 z_4673 z_4674 z_4675 z_4676 z_4677 z_4678 z_4679
 z_4680 z_4681 z_4682 z_4683 z_4684 z_4685 z_4686 z_4687 z_4688 z_4689 z_4690
 z_4691 z_4692 z_4693 z_4694 z_4695 z_4696 z_4697 z_4698 z_4699 z_4700 z_4701
 z_4702 z_4703 z_4704 z_4705 z_4706 z_4707 z_4708 z_4709 z_4710 z_4711 z_4712
 z_4713 z_4714 z_4715 z_4716 z_4717 z_4718 z_4719 z_4720 z_4721 z_4722 z_4723
 z_4724 z_4725 z_4726 z_4727 z_4728 z_4729 z_4730 z_4731 z_4732 z_4733 z_4734
 z_4735 z_4736 z_4737 z_4738 z_4739 z_4740 z_4741 z_4742 z_4743 z_4744 z_4745
 z_4746 z_4747 z_4748 z_4749 z_4750 z_4751 z_4752 z_4753 z_4754 z_4755 z_4756
 z_4757 z_4758 z_4759 z_4760 z_4761 z_4762 z_4763 z_4764 z_4765 z_4766 z_4767
 z_4768 z_4769 z_4770 z_4771 z_4772 z_4773 z_4774 z_4775 z_4776 z_4777 z_4778
 z_4779 z_4780 z_4781 z_4782 z_4783 z_4784 z_4785 z_4786 z_4787 z_4788 z_4789
 z_4790 z_4791 z_4792 z_4793 z_4794 z_4795 z_4796 z_4797 z_4798 z_4799 z_4800
 z_4801 z_4802 z_4803 z_4804 z_4805 z_4806 z_4807 z_4808 z_4809 z_4810 z_4811
 z_4812 z_4813 z_4814 z_4815 z_4816 z_4817 z_4818 z_4819 z_4820 z_4821 z_4822
 z_4823 z_4824 z_4825 z_4826 z_4827 z_4828 z_4829 z_4830 z_4831 z_4832 z_4833
 z_4834 z_4835 z_4836 z_4837 z_4838 z_4839 z_4840 z_4841 z_4842 z_4843 z_4844
 z_4845 z_4846 z_4847 z_4848 z_4849 z_4850 z_4851 z_4852 z_4853 z_4854 z_4855
 z_4856 z_4857 z_4858 z_4859 z_4860 z_4861 z_4862 z_4863 z_4864 z_4865 z_4866
 z_4867 z_4868 z_4869 z_4870 z_4871 z_4872 z_4873 z_4874 z_4875 z_4876 z_4877
 z_4878 z_4879 z_4880 z_4881 z_4882 z_4883 z_4884 z_4885 z_4886 z_4887 z_4888
 z_4889 z_4890 z_4891 z_4892 z_4893 z_4894 z_4895 z_4896 z_4897 z_4898 z_4899
 z_4900 z_4901 z_4902 z_4903 z_4904 z_4905 z_4906 z_4907 z_4908 z_4909 z_4910
 z_4911 z_4912 z_4913 z_4914 z_4915 z_4916 z_4917 z_4918 z_4919 z_4920 z_4921
 z_4922 z_4923 z_4924 z_4925 z_4926 z_4927 z_4928 z_4929 z_4930 z_4931 z_4932
 z_4933 z_4934 z_4935 z_4936 z_4937 z_4938 z_4939 z_4940 z_4941 z_4942 z_4943
 z_4944 z_4945 z_4946 z_4947 z_4948 z_4949 z_4950 z_4951 z_4952 z_4953 z_4954
 z_4955 z_4956 z_4957 z_4958 z_4959 z_4960 z_4961 z_4962 z_4963 z_4964 z_4965
 z_4966 z_4967 z_4968 z_4969 z_4970 z_4971 z_4972 z_4973 z_4974 z_4975 z_4976
 z_4977 z_4978 z_4979 z_4980 z_4981 z_4982 z_4983 z_4984 z_4985 z_4986 z_4987
 z_4988 z_4989 z_4990 z_4991 z_4992 z_4993 z_4994 z_4995 z_4996 z_4997 z_4998
 z_4999
End
