\ This file has been generated by DOcplex
\ ENCODING=ISO-8859-1
\Problem name: PLCP_CPLEX_GRID_PSCLP_n100_m1000_d1_100_f10_100_s1

Minimize
 obj: 75 y_0 + 40 y_1 + 69 y_2 + 32 y_3 + 16 y_4 + 80 y_5 + 36 y_6 + 38 y_7
      + 88 y_8 + 26 y_9 + 27 y_10 + 34 y_11 + 50 y_12 + 80 y_13 + 79 y_14
      + 28 y_15 + 11 y_16 + 16 y_17 + 52 y_18 + 31 y_19 + 85 y_20 + 29 y_21
      + 85 y_22 + 31 y_23 + 12 y_24 + 39 y_25 + 74 y_26 + 66 y_27 + 26 y_28
      + 96 y_29 + 47 y_30 + 91 y_31 + 35 y_32 + 69 y_33 + 76 y_34 + 95 y_35
      + 11 y_36 + 11 y_37 + 32 y_38 + 89 y_39 + 27 y_40 + 12 y_41 + 22 y_42
      + 31 y_43 + 46 y_44 + 54 y_45 + 12 y_46 + 47 y_47 + 24 y_48 + 54 y_49
      + 68 y_50 + 62 y_51 + 37 y_52 + 15 y_53 + 83 y_54 + 39 y_55 + 98 y_56
      + 56 y_57 + 58 y_58 + 77 y_59 + 51 y_60 + 58 y_61 + 67 y_62 + 39 y_63
      + 26 y_64 + 43 y_65 + 33 y_66 + 27 y_67 + 98 y_68 + 18 y_69 + 69 y_70
      + 79 y_71 + 74 y_72 + 44 y_73 + 63 y_74 + 19 y_75 + 89 y_76 + 65 y_77
      + 19 y_78 + 12 y_79 + 18 y_80 + 40 y_81 + 64 y_82 + 45 y_83 + 46 y_84
      + 46 y_85 + 37 y_86 + 97 y_87 + 55 y_88 + 49 y_89 + 74 y_90 + 59 y_91
      + 97 y_92 + 94 y_93 + 88 y_94 + 77 y_95 + 90 y_96 + 74 y_97 + 57 y_98
      + 88 y_99
Subject To
 c1: y_31 + y_37 + y_89 + y_99 - z_0 >= 0
 c2: y_7 + y_23 + y_31 + y_51 + y_62 + y_98 - z_1 >= 0
 c3: y_17 + y_53 + y_58 + y_63 + y_91 - z_2 >= 0
 c4: y_11 + y_19 + y_43 + y_52 + y_59 + y_67 + y_68 + y_69 - z_3 >= 0
 c5: y_2 + y_83 + y_84 + y_85 - z_4 >= 0
 c6: y_16 + y_39 + y_40 + y_54 + y_63 + y_66 + y_87 - z_5 >= 0
 c7: y_16 + y_39 + y_40 + y_54 + y_66 + y_87 - z_6 >= 0
 c8: y_16 + y_39 + y_42 + y_53 + y_54 + y_55 + y_63 + y_64 + y_66 - z_7 >= 0
 c9: y_22 + y_56 + y_65 - z_8 >= 0
 c10: y_9 + y_26 + y_67 + y_71 + y_97 - z_9 >= 0
 c11: y_4 + y_9 + y_19 + y_26 + y_32 + y_38 + y_44 + y_67 + y_69 - z_10 >= 0
 c12: y_15 + y_18 + y_21 + y_36 + y_41 + y_47 + y_95 - z_11 >= 0
 c13: y_4 + y_6 + y_32 + y_90 - z_12 >= 0
 c14: y_40 + y_92 - z_13 >= 0
 c15: y_5 + y_6 + y_34 + y_90 - z_14 >= 0
 c16: y_0 + y_27 + y_45 - z_15 >= 0
 c17: y_3 + y_19 + y_21 + y_33 + y_36 + y_38 + y_41 + y_43 + y_47 + y_48 + y_79
      - z_16 >= 0
 c18: y_25 + y_29 + y_35 + y_77 - z_17 >= 0
 c19: y_4 + y_5 + y_6 + y_32 + y_44 + y_90 - z_18 >= 0
 c20: y_2 + y_27 + y_42 + y_55 + y_83 - z_19 >= 0
 c21: y_17 + y_39 + y_53 + y_58 + y_63 + y_64 + y_91 - z_20 >= 0
 c22: y_16 + y_50 + y_54 + y_56 + y_58 + y_66 - z_21 >= 0
 c23: y_40 + y_54 + y_87 + y_92 - z_22 >= 0
 c24: y_25 + y_35 + y_40 + y_77 + y_92 - z_23 >= 0
 c25: y_3 + y_5 + y_20 + y_33 + y_34 + y_38 + y_44 + y_48 + y_61 + y_79 + y_93
      - z_24 >= 0
 c26: y_8 + y_17 + y_75 + y_96 - z_25 >= 0
 c27: y_50 + y_56 + y_65 - z_26 >= 0
 c28: y_5 + y_8 + y_17 + y_34 + y_75 + y_80 + y_96 - z_27 >= 0
 c29: y_0 + y_16 + y_39 + y_42 + y_53 + y_54 + y_55 + y_63 + y_64 - z_28 >= 0
 c30: y_40 + y_55 + y_92 - z_29 >= 0
 c31: y_37 + y_45 + y_73 + y_89 - z_30 >= 0
 c32: y_16 + y_39 + y_40 + y_54 + y_63 + y_66 + y_87 - z_31 >= 0
 c33: y_25 + y_29 + y_35 + y_50 + y_77 + y_87 - z_32 >= 0
 c34: y_3 + y_19 + y_21 + y_30 + y_38 + y_43 + y_52 + y_59 + y_94 - z_33 >= 0
 c35: y_40 + y_87 + y_92 - z_34 >= 0
 c36: y_12 + y_57 + y_72 + y_88 - z_35 >= 0
 c37: y_5 + y_8 + y_17 + y_34 + y_91 - z_36 >= 0
 c38: y_16 + y_39 + y_40 + y_54 + y_55 + y_63 + y_64 + y_66 + y_87 - z_37 >= 0
 c39: y_0 + y_27 + y_42 + y_55 + y_63 + y_64 - z_38 >= 0
 c40: y_56 + y_65 - z_39 >= 0
 c41: y_84 + y_85 - z_40 >= 0
 c42: y_0 + y_27 + y_42 + y_55 + y_64 - z_41 >= 0
 c43: y_12 + y_22 + y_32 + y_88 - z_42 >= 0
 c44: y_7 + y_31 + y_51 + y_62 + y_89 + y_98 + y_99 - z_43 >= 0
 c45: y_1 + y_8 + y_73 + y_75 + y_96 - z_44 >= 0
 c46: y_9 + y_11 + y_26 + y_67 + y_68 + y_69 + y_97 - z_45 >= 0
 c47: y_3 + y_19 + y_21 + y_33 + y_38 + y_41 + y_44 + y_48 + y_61 + y_79 - z_46
       >= 0
 c48: y_7 + y_23 + y_31 + y_51 + y_62 + y_89 + y_98 + y_99 - z_47 >= 0
 c49: y_2 + y_14 + y_42 + y_55 + y_82 + y_83 + y_85 - z_48 >= 0
 c50: y_96 - z_49 >= 0
 c51: y_19 + y_21 + y_30 + y_43 + y_48 + y_59 + y_94 - z_50 >= 0
 c52: y_7 + y_23 + y_31 + y_51 + y_62 + y_89 + y_98 + y_99 - z_51 >= 0
 c53: y_5 + y_34 + y_90 - z_52 >= 0
 c54: y_12 + y_57 + y_65 + y_72 + y_78 + y_88 - z_53 >= 0
 c55: y_0 + y_45 - z_54 >= 0
 c56: y_15 + y_18 + y_20 + y_21 + y_33 + y_36 + y_41 + y_47 + y_48 + y_61 + y_79
      + y_93 + y_95 - z_55 >= 0
 c57: y_16 + y_50 + y_54 + y_56 + y_58 + y_66 - z_56 >= 0
 c58: y_9 + y_11 + y_26 + y_38 + y_67 + y_68 + y_69 - z_57 >= 0
 c59: y_40 + y_87 + y_92 - z_58 >= 0
 c60: y_17 + y_53 + y_58 + y_63 + y_91 - z_59 >= 0
 c61: y_1 + y_37 + y_73 + y_89 + y_96 + y_99 - z_60 >= 0
 c62: y_13 + y_57 + y_60 + y_65 + y_72 + y_76 + y_78 + y_81 - z_61 >= 0
 c63: y_25 + y_29 + y_35 + y_50 + y_56 + y_77 + y_87 - z_62 >= 0
 c64: y_12 + y_57 + y_72 + y_88 - z_63 >= 0
 c65: y_21 + y_30 + y_36 + y_41 + y_43 + y_47 + y_48 + y_94 - z_64 >= 0
 c66: y_37 + y_45 - z_65 >= 0
 c67: y_1 + y_23 + y_31 + y_37 + y_73 + y_89 + y_98 + y_99 - z_66 >= 0
 c68: y_16 + y_50 + y_54 + y_56 + y_58 + y_66 - z_67 >= 0
 c69: y_3 + y_5 + y_33 + y_34 + y_38 + y_44 + y_90 - z_68 >= 0
 c70: y_16 + y_39 + y_40 + y_50 + y_54 + y_66 + y_87 - z_69 >= 0
 c71: y_13 + y_28 + y_60 + y_76 + y_81 - z_70 >= 0
 c72: y_9 + y_26 + y_67 + y_69 + y_71 + y_97 - z_71 >= 0
 c73: y_22 + y_50 + y_56 + y_65 - z_72 >= 0
 c74: y_29 - z_73 >= 0
 c75: y_15 + y_18 + y_21 + y_36 + y_41 + y_47 + y_48 + y_79 + y_94 - z_74 >= 0
 c76: y_16 + y_39 + y_50 + y_54 + y_66 + y_87 - z_75 >= 0
 c77: y_1 + y_8 + y_20 + y_46 + y_75 + y_80 + y_93 - z_76 >= 0
 c78: y_25 + y_29 + y_35 + y_50 + y_56 + y_66 + y_77 + y_87 - z_77 >= 0
 c79: y_37 + y_45 + y_73 + y_96 - z_78 >= 0
 c80: y_16 + y_25 + y_50 + y_54 + y_56 + y_66 + y_77 + y_87 - z_79 >= 0
 c81: y_16 + y_17 + y_39 + y_53 + y_58 + y_63 + y_91 - z_80 >= 0
 c82: y_0 + y_27 + y_42 + y_55 + y_64 - z_81 >= 0
 c83: y_12 + y_22 + y_57 + y_65 + y_72 + y_88 - z_82 >= 0
 c84: y_8 + y_73 + y_96 - z_83 >= 0
 c85: y_14 + y_27 + y_82 - z_84 >= 0
 c86: y_2 + y_14 + y_82 + y_83 + y_84 + y_85 - z_85 >= 0
 c87: y_25 + y_29 + y_35 + y_77 - z_86 >= 0
 c88: y_1 + y_31 + y_73 + y_89 + y_99 - z_87 >= 0
 c89: y_65 - z_88 >= 0
 c90: y_1 + y_31 + y_37 + y_73 + y_89 + y_99 - z_89 >= 0
 c91: y_12 + y_71 + y_88 - z_90 >= 0
 c92: y_37 + y_45 + y_89 - z_91 >= 0
 c93: y_4 + y_12 + y_22 + y_32 + y_88 - z_92 >= 0
 c94: y_2 + y_83 + y_84 + y_85 - z_93 >= 0
 c95: y_12 + y_57 + y_88 - z_94 >= 0
 c96: y_3 + y_4 + y_19 + y_26 + y_32 + y_33 + y_38 + y_44 + y_90 - z_95 >= 0
 c97: y_2 + y_40 + y_83 + y_85 + y_92 - z_96 >= 0
 c98: y_13 + y_28 + y_60 + y_76 + y_81 - z_97 >= 0
 c99: y_3 + y_15 + y_20 + y_21 + y_33 + y_34 + y_41 + y_48 + y_61 + y_79 + y_80
      + y_93 - z_98 >= 0
 c100: y_17 + y_39 + y_53 + y_58 + y_63 + y_64 + y_91 - z_99 >= 0
 c101: y_9 + y_26 + y_71 - z_100 >= 0
 c102: y_5 + y_17 + y_53 + y_58 + y_91 - z_101 >= 0
 c103: y_16 + y_39 + y_53 + y_54 + y_58 + y_63 + y_66 + y_91 - z_102 >= 0
 c104: y_3 + y_19 + y_21 + y_30 + y_36 + y_41 + y_43 + y_47 + y_48 + y_59 + y_94
       - z_103 >= 0
 c105: y_25 + y_29 + y_35 + y_50 + y_56 + y_66 + y_77 + y_87 - z_104 >= 0
 c106: y_17 + y_53 + y_58 + y_91 - z_105 >= 0
 c107: y_8 + y_17 + y_34 + y_96 - z_106 >= 0
 c108: y_3 + y_11 + y_19 + y_30 + y_38 + y_43 + y_52 + y_59 + y_67 + y_68 + y_69
       - z_107 >= 0
 c109: y_13 + y_28 + y_60 + y_76 + y_78 + y_81 - z_108 >= 0
 c110: y_2 + y_14 + y_82 + y_83 + y_84 + y_85 - z_109 >= 0
 c111: y_50 + y_56 + y_66 + y_87 - z_110 >= 0
 c112: y_0 + y_2 + y_27 + y_42 + y_55 + y_64 - z_111 >= 0
 c113: y_3 + y_19 + y_21 + y_33 + y_36 + y_41 + y_43 + y_47 + y_48 + y_79 + y_94
       - z_112 >= 0
 c114: y_3 + y_19 + y_21 + y_33 + y_38 + y_41 + y_43 + y_44 + y_48 + y_79
       - z_113 >= 0
 c115: y_35 + y_40 + y_92 - z_114 >= 0
 c116: y_3 + y_11 + y_19 + y_26 + y_33 + y_38 + y_43 + y_44 + y_67 + y_68 + y_69
       - z_115 >= 0
 c117: y_8 + y_15 + y_20 + y_46 + y_49 + y_74 + y_75 + y_80 + y_93 + y_95
       - z_116 >= 0
 c118: y_22 + y_56 + y_57 + y_65 + y_72 - z_117 >= 0
 c119: y_4 + y_9 + y_26 + y_32 + y_67 + y_69 - z_118 >= 0
 c120: y_9 + y_11 + y_26 + y_67 + y_68 + y_69 + y_97 - z_119 >= 0
 c121: y_1 + y_73 + y_96 - z_120 >= 0
 c122: y_12 + y_22 + y_57 + y_88 - z_121 >= 0
 c123: y_4 + y_6 + y_22 + y_32 + y_90 - z_122 >= 0
 c124: y_12 + y_22 + y_57 + y_88 - z_123 >= 0
 c125: y_25 + y_29 + y_35 + y_50 + y_56 + y_66 + y_77 + y_87 - z_124 >= 0
 c126: y_25 + y_29 + y_35 + y_77 - z_125 >= 0
 c127: y_6 + y_22 - z_126 >= 0
 c128: y_3 + y_19 + y_26 + y_33 + y_38 + y_44 + y_48 + y_69 - z_127 >= 0
 c129: y_3 + y_4 + y_9 + y_19 + y_26 + y_32 + y_38 + y_44 + y_67 + y_69 + y_90
       - z_128 >= 0
 c130: y_15 + y_18 + y_36 + y_41 + y_46 + y_47 + y_49 + y_74 + y_79 + y_95
       - z_129 >= 0
 c131: y_1 + y_8 + y_46 + y_49 + y_73 + y_75 + y_80 + y_95 - z_130 >= 0
 c132: y_16 + y_39 + y_42 + y_53 + y_54 + y_55 + y_63 + y_64 + y_66 - z_131 >= 
       0
 c133: y_35 + y_92 - z_132 >= 0
 c134: y_15 + y_18 + y_20 + y_21 + y_36 + y_41 + y_46 + y_47 + y_48 + y_61
       + y_75 + y_79 + y_80 + y_93 + y_95 - z_133 >= 0
 c135: y_8 + y_17 + y_34 + y_75 + y_80 + y_96 - z_134 >= 0
 c136: y_16 + y_39 + y_53 + y_58 + y_91 - z_135 >= 0
 c137: y_3 + y_19 + y_33 + y_38 + y_44 + y_48 + y_61 + y_79 - z_136 >= 0
 c138: y_1 + y_37 + y_73 + y_96 - z_137 >= 0
 c139: y_13 + y_28 + y_60 + y_76 - z_138 >= 0
 c140: y_9 + y_11 + y_26 + y_67 + y_68 + y_69 + y_97 - z_139 >= 0
 c141: y_4 + y_9 + y_26 + y_32 + y_67 + y_69 - z_140 >= 0
 c142: y_17 + y_96 - z_141 >= 0
 c143: y_28 - z_142 >= 0
 c144: y_22 + y_57 + y_65 + y_72 - z_143 >= 0
 c145: y_1 + y_8 + y_46 + y_49 + y_74 + y_75 + y_80 + y_95 - z_144 >= 0
 c146: y_12 + y_22 + y_57 + y_72 + y_88 - z_145 >= 0
 c147: y_1 + y_46 + y_49 + y_74 + y_75 + y_95 - z_146 >= 0
 c148: y_16 + y_39 + y_53 + y_54 + y_55 + y_58 + y_63 + y_64 + y_66 - z_147 >= 
       0
 c149: y_2 + y_14 + y_82 + y_83 + y_85 - z_148 >= 0
 c150: y_4 + y_9 + y_12 + y_32 + y_71 + y_88 - z_149 >= 0
 c151: y_1 + y_37 + y_73 + y_96 - z_150 >= 0
 c152: y_2 + y_14 + y_82 + y_83 + y_85 - z_151 >= 0
 c153: y_3 + y_5 + y_19 + y_33 + y_34 + y_38 + y_44 + y_48 + y_61 + y_79 - z_152
        >= 0
 c154: y_45 - z_153 >= 0
 c155: y_1 + y_23 + y_46 + y_49 + y_74 + y_98 - z_154 >= 0
 c156: y_30 + y_43 + y_52 + y_59 + y_94 - z_155 >= 0
 c157: y_15 + y_18 + y_36 + y_41 + y_46 + y_47 + y_49 + y_74 + y_95 - z_156 >= 
       0
 c158: y_5 + y_6 + y_34 + y_90 + y_91 - z_157 >= 0
 c159: y_7 + y_31 + y_37 + y_51 + y_89 + y_99 - z_158 >= 0
 c160: y_73 + y_96 - z_159 >= 0
 c161: y_46 + y_49 + y_74 - z_160 >= 0
 c162: y_0 + y_2 + y_14 + y_27 + y_42 + y_82 - z_161 >= 0
 c163: y_45 + y_96 - z_162 >= 0
 c164: y_8 + y_20 + y_46 + y_75 + y_80 + y_93 + y_95 - z_163 >= 0
 c165: y_1 + y_23 + y_31 + y_46 + y_73 + y_75 + y_89 + y_99 - z_164 >= 0
 c166: y_4 + y_6 + y_9 + y_26 + y_32 + y_38 + y_44 + y_90 - z_165 >= 0
 c167: y_25 + y_29 + y_35 + y_50 + y_56 + y_66 + y_77 + y_87 - z_166 >= 0
 c168: y_1 + y_23 + y_31 + y_46 + y_49 + y_73 + y_89 + y_98 + y_99 - z_167 >= 0
 c169: y_37 + y_45 + y_73 + y_96 - z_168 >= 0
 c170: y_5 + y_6 + y_34 + y_44 + y_90 - z_169 >= 0
 c171: y_5 + y_8 + y_17 + y_34 + y_75 + y_80 + y_93 - z_170 >= 0
 c172: y_25 + y_29 + y_35 + y_50 + y_56 + y_66 + y_77 + y_87 - z_171 >= 0
 c173: y_25 + y_29 + y_35 + y_77 + y_92 - z_172 >= 0
 c174: y_17 + y_53 + y_63 + y_91 + y_96 - z_173 >= 0
 c175: y_0 - z_174 >= 0
 c176: y_9 + y_12 + y_71 + y_88 - z_175 >= 0
 c177: y_25 + y_29 + y_35 + y_77 - z_176 >= 0
 c178: y_0 + y_27 + y_42 + y_55 + y_63 + y_64 - z_177 >= 0
 c179: y_17 + y_39 + y_53 + y_58 + y_63 + y_64 + y_91 - z_178 >= 0
 c180: y_12 + y_88 - z_179 >= 0
 c181: y_12 + y_22 + y_32 + y_88 - z_180 >= 0
 c182: y_67 + y_68 + y_97 - z_181 >= 0
 c183: y_8 + y_15 + y_20 + y_46 + y_61 + y_75 + y_79 + y_80 + y_93 + y_95
       - z_182 >= 0
 c184: y_17 + y_39 + y_53 + y_58 + y_63 + y_91 - z_183 >= 0
 c185: y_18 + y_21 + y_36 + y_41 + y_47 - z_184 >= 0
 c186: y_13 + y_28 + y_60 + y_76 + y_78 + y_81 - z_185 >= 0
 c187: y_8 + y_17 + y_96 - z_186 >= 0
 c188: y_57 + y_65 + y_72 - z_187 >= 0
 c189: y_46 + y_49 + y_74 + y_95 - z_188 >= 0
 c190: y_0 + y_17 + y_53 + y_63 + y_64 - z_189 >= 0
 c191: y_3 + y_15 + y_18 + y_20 + y_21 + y_33 + y_36 + y_41 + y_47 + y_48 + y_61
       + y_79 + y_93 + y_95 - z_190 >= 0
 c192: y_7 + y_31 + y_51 + y_62 + y_89 + y_98 - z_191 >= 0
 c193: y_1 + y_31 + y_37 + y_73 + y_89 + y_99 - z_192 >= 0
 c194: y_4 + y_6 + y_32 + y_90 - z_193 >= 0
 c195: y_4 + y_12 + y_22 + y_32 + y_88 - z_194 >= 0
 c196: y_0 + y_27 + y_45 - z_195 >= 0
 c197: y_7 + y_23 + y_31 + y_51 + y_62 + y_98 + y_99 - z_196 >= 0
 c198: y_4 + y_12 + y_32 + y_88 - z_197 >= 0
 c199: y_1 + y_73 + y_75 + y_96 + y_99 - z_198 >= 0
 c200: y_2 + y_14 + y_27 + y_42 + y_55 + y_82 + y_83 - z_199 >= 0
 c201: y_23 + y_49 + y_74 + y_98 - z_200 >= 0
 c202: y_6 + y_22 - z_201 >= 0
 c203: y_5 + y_17 + y_34 + y_58 + y_91 - z_202 >= 0
 c204: y_16 + y_40 + y_54 + y_66 + y_87 + y_92 - z_203 >= 0
 c205: y_56 + y_58 + y_91 - z_204 >= 0
 c206: y_46 + y_49 + y_74 + y_95 - z_205 >= 0
 c207: y_4 + y_9 + y_26 + y_32 + y_67 - z_206 >= 0
 c208: y_2 + y_83 + y_85 - z_207 >= 0
 c209: y_50 + y_56 + y_65 - z_208 >= 0
 c210: y_8 + y_17 + y_96 - z_209 >= 0
 c211: y_8 + y_17 + y_96 - z_210 >= 0
 c212: y_9 + y_71 - z_211 >= 0
 c213: y_16 + y_39 + y_50 + y_54 + y_56 + y_66 + y_87 - z_212 >= 0
 c214: y_10 - z_213 >= 0
 c215: y_24 + y_70 + y_86 - z_214 >= 0
 c216: y_8 + y_15 + y_20 + y_34 + y_46 + y_61 + y_75 + y_80 + y_93 + y_95
       - z_215 >= 0
 c217: y_7 + y_23 + y_31 + y_51 + y_62 + y_89 + y_98 + y_99 - z_216 >= 0
 c218: y_12 + y_32 + y_71 + y_88 - z_217 >= 0
 c219: y_15 + y_20 + y_21 + y_33 + y_34 + y_41 + y_47 + y_48 + y_61 + y_79
       + y_80 + y_93 + y_95 - z_218 >= 0
 c220: y_46 + y_49 + y_74 + y_95 - z_219 >= 0
 c221: y_12 + y_22 + y_57 + y_72 + y_78 + y_88 - z_220 >= 0
 c222: y_0 + y_27 + y_42 + y_55 + y_64 - z_221 >= 0
 c223: y_1 + y_31 + y_37 + y_73 + y_89 + y_99 - z_222 >= 0
 c224: y_16 + y_50 + y_56 + y_66 - z_223 >= 0
 c225: y_2 + y_14 + y_82 + y_83 + y_84 + y_85 - z_224 >= 0
 c226: y_37 + y_45 + y_73 + y_96 - z_225 >= 0
 c227: y_1 + y_23 + y_46 + y_49 + y_74 + y_98 - z_226 >= 0
 c228: y_12 + y_22 + y_57 + y_65 + y_72 + y_78 + y_88 - z_227 >= 0
 c229: y_13 + y_57 + y_60 + y_65 + y_72 + y_76 + y_78 + y_81 - z_228 >= 0
 c230: y_16 + y_25 + y_40 + y_54 + y_66 + y_87 + y_92 - z_229 >= 0
 c231: y_10 + y_13 + y_57 + y_60 + y_72 + y_76 + y_78 + y_81 - z_230 >= 0
 c232: y_83 + y_84 + y_85 - z_231 >= 0
 c233: y_13 + y_28 + y_60 + y_72 + y_76 + y_78 + y_81 - z_232 >= 0
 c234: y_5 + y_20 + y_33 + y_34 + y_44 + y_61 + y_90 + y_93 - z_233 >= 0
 c235: y_2 + y_82 + y_83 + y_84 + y_85 - z_234 >= 0
 c236: y_25 + y_35 + y_40 + y_77 + y_87 + y_92 - z_235 >= 0
 c237: y_4 + y_6 + y_32 + y_90 - z_236 >= 0
 c238: y_50 + y_56 - z_237 >= 0
 c239: y_30 + y_43 + y_52 + y_59 + y_94 - z_238 >= 0
 c240: y_16 + y_25 + y_40 + y_50 + y_54 + y_56 + y_66 + y_77 + y_87 - z_239 >= 
       0
 c241: y_12 + y_71 + y_88 - z_240 >= 0
 c242: y_1 + y_31 + y_37 + y_73 + y_89 + y_96 + y_99 - z_241 >= 0
 c243: y_18 + y_21 + y_30 + y_36 + y_47 + y_94 - z_242 >= 0
 c244: y_9 + y_71 - z_243 >= 0
 c245: y_4 + y_9 + y_26 + y_32 + y_38 + y_67 + y_69 - z_244 >= 0
 c246: y_16 + y_39 + y_42 + y_53 + y_54 + y_55 + y_63 + y_64 - z_245 >= 0
 c247: y_37 + y_45 + y_73 - z_246 >= 0
 c248: y_29 - z_247 >= 0
 c249: y_1 + y_23 + y_46 + y_49 + y_73 + y_75 + y_98 + y_99 - z_248 >= 0
 c250: y_8 + y_73 + y_75 + y_96 - z_249 >= 0
 c251: y_0 + y_2 + y_14 + y_27 + y_42 + y_55 - z_250 >= 0
 c252: y_0 + y_16 + y_39 + y_42 + y_54 + y_55 + y_63 + y_64 - z_251 >= 0
 c253: y_2 + y_40 + y_55 + y_83 + y_85 - z_252 >= 0
 c254: y_25 + y_29 + y_35 + y_77 + y_87 + y_92 - z_253 >= 0
 c255: y_10 + y_13 + y_60 + y_72 + y_76 + y_78 + y_81 - z_254 >= 0
 c256: y_13 + y_60 + y_65 + y_72 - z_255 >= 0
 c257: y_25 + y_29 + y_35 + y_77 + y_87 + y_92 - z_256 >= 0
 c258: y_7 + y_23 + y_31 + y_51 + y_62 + y_89 + y_98 + y_99 - z_257 >= 0
 c259: y_24 + y_52 + y_59 + y_70 + y_86 - z_258 >= 0
 c260: y_50 + y_56 + y_66 - z_259 >= 0
 c261: y_16 + y_25 + y_35 + y_40 + y_50 + y_54 + y_66 + y_77 + y_87 + y_92
       - z_260 >= 0
 c262: y_17 + y_39 + y_53 + y_58 + y_63 + y_91 - z_261 >= 0
 c263: y_1 + y_7 + y_23 + y_31 + y_49 + y_51 + y_98 + y_99 - z_262 >= 0
 c264: y_5 + y_17 + y_34 + y_91 - z_263 >= 0
 c265: y_16 + y_40 + y_54 + y_55 + y_92 - z_264 >= 0
 c266: y_4 + y_9 + y_19 + y_26 + y_32 + y_38 + y_44 + y_90 - z_265 >= 0
 c267: y_25 + y_29 + y_35 + y_77 - z_266 >= 0
 c268: y_0 + y_27 + y_42 - z_267 >= 0
 c269: y_4 + y_9 + y_12 + y_26 + y_32 + y_88 - z_268 >= 0
 c270: y_22 + y_50 + y_56 + y_65 - z_269 >= 0
 c271: y_8 + y_17 + y_75 + y_96 - z_270 >= 0
 c272: y_50 + y_56 - z_271 >= 0
 c273: y_16 + y_39 + y_42 + y_53 + y_54 + y_55 + y_63 + y_64 - z_272 >= 0
 c274: y_3 + y_11 + y_19 + y_26 + y_38 + y_43 + y_52 + y_67 + y_68 + y_69
       - z_273 >= 0
 c275: y_3 + y_4 + y_9 + y_19 + y_26 + y_33 + y_38 + y_44 + y_67 + y_69 - z_274
        >= 0
 c276: y_11 + y_24 + y_52 + y_68 + y_70 + y_86 + y_97 - z_275 >= 0
 c277: y_45 + y_96 - z_276 >= 0
 c278: y_3 + y_4 + y_19 + y_26 + y_32 + y_33 + y_38 + y_44 + y_90 - z_277 >= 0
 c279: y_15 + y_18 + y_20 + y_21 + y_36 + y_41 + y_46 + y_47 + y_48 + y_61
       + y_79 + y_80 + y_93 + y_95 - z_278 >= 0
 c280: y_22 + y_57 + y_65 + y_72 - z_279 >= 0
 c281: y_9 + y_12 + y_71 - z_280 >= 0
 c282: y_37 + y_45 - z_281 >= 0
 c283: y_15 + y_20 + y_41 + y_46 + y_47 + y_48 + y_61 + y_75 + y_79 + y_80
       + y_93 + y_95 - z_282 >= 0
 c284: y_31 + y_37 + y_89 + y_99 - z_283 >= 0
 c285: y_22 + y_65 - z_284 >= 0
 c286: y_13 + y_28 + y_60 + y_76 + y_81 - z_285 >= 0
 c287: y_71 - z_286 >= 0
 c288: y_3 + y_19 + y_26 + y_33 + y_38 + y_44 + y_69 - z_287 >= 0
 c289: y_0 + y_96 - z_288 >= 0
 c290: y_25 + y_29 + y_35 + y_50 + y_77 - z_289 >= 0
 c291: y_4 + y_9 + y_12 + y_32 + y_88 - z_290 >= 0
 c292: y_83 + y_84 + y_85 - z_291 >= 0
 c293: y_10 + y_57 + y_60 + y_72 + y_76 + y_78 + y_81 - z_292 >= 0
 c294: y_8 + y_17 + y_96 - z_293 >= 0
 c295: y_24 + y_52 + y_59 + y_70 + y_86 - z_294 >= 0
 c296: y_2 + y_14 + y_82 + y_83 + y_85 - z_295 >= 0
 c297: y_3 + y_5 + y_15 + y_20 + y_33 + y_34 + y_41 + y_48 + y_61 + y_79 + y_80
       + y_93 - z_296 >= 0
 c298: y_85 + y_92 - z_297 >= 0
 c299: y_8 + y_15 + y_20 + y_34 + y_61 + y_75 + y_80 + y_93 + y_95 - z_298 >= 0
 c300: y_1 + y_23 + y_46 + y_49 + y_74 + y_98 - z_299 >= 0
 c301: y_11 + y_52 + y_59 + y_67 + y_68 + y_69 + y_97 - z_300 >= 0
 c302: y_2 + y_14 + y_82 + y_83 + y_84 + y_85 - z_301 >= 0
 c303: y_22 + y_57 + y_65 + y_72 - z_302 >= 0
 c304: y_40 + y_83 + y_85 + y_92 - z_303 >= 0
 c305: y_16 + y_39 + y_40 + y_42 + y_54 + y_55 + y_63 + y_64 - z_304 >= 0
 c306: y_11 + y_24 + y_30 + y_43 + y_52 + y_59 + y_70 - z_305 >= 0
 c307: y_40 + y_83 + y_85 + y_92 - z_306 >= 0
 c308: y_7 + y_31 + y_37 + y_51 + y_62 + y_89 + y_99 - z_307 >= 0
 c309: y_3 + y_19 + y_33 + y_38 + y_44 + y_48 + y_90 - z_308 >= 0
 c310: y_6 + y_58 + y_91 - z_309 >= 0
 c311: y_16 + y_39 + y_53 + y_54 + y_55 + y_58 + y_63 + y_64 + y_66 - z_310 >= 
       0
 c312: y_25 + y_35 + y_40 + y_66 + y_77 + y_87 + y_92 - z_311 >= 0
 c313: y_12 + y_88 - z_312 >= 0
 c314: y_9 + y_26 + y_67 + y_68 + y_69 + y_97 - z_313 >= 0
 c315: y_11 + y_24 + y_43 + y_52 + y_59 + y_68 + y_70 + y_86 - z_314 >= 0
 c316: y_16 + y_25 + y_40 + y_50 + y_54 + y_56 + y_66 + y_87 - z_315 >= 0
 c317: y_17 + y_53 + y_91 + y_96 - z_316 >= 0
 c318: y_21 + y_30 + y_36 + y_43 + y_47 + y_94 - z_317 >= 0
 c319: y_40 + y_83 + y_85 + y_92 - z_318 >= 0
 c320: y_9 + y_71 - z_319 >= 0
 c321: y_50 + y_56 + y_65 - z_320 >= 0
 c322: y_25 + y_29 + y_50 + y_56 + y_77 - z_321 >= 0
 c323: y_4 + y_6 + y_22 + y_32 + y_90 - z_322 >= 0
 c324: y_71 + y_97 - z_323 >= 0
 c325: y_12 + y_71 + y_88 - z_324 >= 0
 c326: y_11 + y_52 + y_67 + y_68 + y_69 + y_97 - z_325 >= 0
 c327: y_1 + y_73 + y_96 - z_326 >= 0
 c328: y_7 + y_23 + y_31 + y_51 + y_62 + y_89 + y_98 + y_99 - z_327 >= 0
 c329: y_13 + y_28 + y_60 + y_76 + y_81 - z_328 >= 0
 c330: y_25 + y_29 + y_35 + y_50 + y_54 + y_56 + y_66 + y_77 + y_87 - z_329 >= 
       0
 c331: y_2 + y_14 + y_82 + y_83 + y_84 + y_85 - z_330 >= 0
 c332: y_4 + y_5 + y_6 + y_32 + y_44 + y_90 - z_331 >= 0
 c333: y_8 + y_20 + y_34 + y_75 + y_80 + y_93 + y_96 - z_332 >= 0
 c334: y_16 + y_39 + y_53 + y_58 + y_91 - z_333 >= 0
 c335: y_45 + y_96 - z_334 >= 0
 c336: y_2 + y_14 + y_27 + y_82 + y_83 - z_335 >= 0
 c337: y_0 + y_27 + y_42 + y_55 + y_63 + y_64 - z_336 >= 0
 c338: y_29 + y_77 - z_337 >= 0
 c339: y_0 + y_27 + y_42 + y_55 + y_63 + y_64 - z_338 >= 0
 c340: y_1 + y_23 + y_46 + y_49 + y_74 + y_98 - z_339 >= 0
 c341: y_1 + y_7 + y_23 + y_31 + y_37 + y_51 + y_73 + y_89 + y_98 + y_99 - z_340
        >= 0
 c342: y_8 + y_17 + y_73 + y_96 - z_341 >= 0
 c343: y_5 + y_34 + y_61 + y_93 - z_342 >= 0
 c344: y_5 + y_34 - z_343 >= 0
 c345: y_35 + y_40 + y_92 - z_344 >= 0
 c346: y_17 + y_73 + y_96 - z_345 >= 0
 c347: y_13 + y_57 + y_60 + y_72 + y_76 + y_78 + y_81 - z_346 >= 0
 c348: y_3 + y_11 + y_19 + y_26 + y_38 + y_43 + y_52 + y_59 + y_67 + y_68 + y_69
       - z_347 >= 0
 c349: y_1 + y_31 + y_37 + y_73 + y_89 + y_99 - z_348 >= 0
 c350: y_9 + y_26 + y_38 + y_67 + y_68 + y_69 - z_349 >= 0
 c351: y_65 - z_350 >= 0
 c352: y_2 + y_83 + y_84 + y_85 - z_351 >= 0
 c353: y_16 + y_50 + y_54 + y_56 + y_66 - z_352 >= 0
 c354: y_12 + y_22 + y_57 + y_65 + y_72 + y_88 - z_353 >= 0
 c355: y_46 + y_49 + y_74 + y_95 - z_354 >= 0
 c356: y_4 + y_9 + y_12 + y_32 + y_88 - z_355 >= 0
 c357: y_1 + y_23 + y_49 + y_74 + y_98 - z_356 >= 0
 c358: y_10 + y_12 + y_57 + y_72 + y_78 + y_88 - z_357 >= 0
 c359: y_5 + y_8 + y_20 + y_34 + y_61 + y_75 + y_80 + y_93 - z_358 >= 0
 c360: y_2 + y_14 + y_27 + y_42 + y_55 + y_82 + y_83 - z_359 >= 0
 c361: y_8 + y_17 + y_75 + y_96 - z_360 >= 0
 c362: y_1 + y_23 + y_31 + y_37 + y_73 + y_89 + y_98 + y_99 - z_361 >= 0
 c363: y_85 + y_92 - z_362 >= 0
 c364: y_5 + y_8 + y_17 + y_34 + y_80 - z_363 >= 0
 c365: y_1 + y_8 + y_46 + y_73 + y_75 + y_99 - z_364 >= 0
 c366: - z_365 >= 0
 c367: y_2 + y_14 + y_82 + y_83 + y_85 - z_366 >= 0
 c368: y_12 + y_22 + y_57 + y_72 + y_88 - z_367 >= 0
 c369: y_58 - z_368 >= 0
 c370: y_25 + y_35 + y_40 + y_77 + y_87 + y_92 - z_369 >= 0
 c371: y_3 + y_19 + y_21 + y_30 + y_33 + y_36 + y_38 + y_41 + y_43 + y_47 + y_48
       + y_94 - z_370 >= 0
 c372: y_25 + y_35 + y_40 + y_77 + y_87 + y_92 - z_371 >= 0
 c373: y_1 + y_31 + y_37 + y_73 + y_89 + y_96 + y_99 - z_372 >= 0
 c374: y_22 - z_373 >= 0
 c375: y_22 + y_50 + y_56 + y_65 - z_374 >= 0
 c376: y_25 + y_35 + y_40 + y_77 + y_87 + y_92 - z_375 >= 0
 c377: y_0 + y_27 + y_42 - z_376 >= 0
 c378: y_37 + y_45 + y_73 + y_96 - z_377 >= 0
 c379: y_6 + y_58 + y_90 + y_91 - z_378 >= 0
 c380: y_22 + y_57 + y_65 + y_72 - z_379 >= 0
 c381: y_4 + y_6 + y_9 + y_26 + y_32 + y_90 - z_380 >= 0
 c382: y_65 - z_381 >= 0
 c383: y_0 + y_17 + y_53 + y_63 + y_64 - z_382 >= 0
 c384: y_25 + y_29 + y_50 + y_56 + y_66 + y_77 + y_87 - z_383 >= 0
 c385: y_2 + y_83 + y_85 - z_384 >= 0
 c386: y_57 + y_65 + y_72 - z_385 >= 0
 c387: y_24 + y_70 + y_86 - z_386 >= 0
 c388: y_3 + y_19 + y_21 + y_33 + y_38 + y_43 + y_44 + y_48 + y_69 - z_387 >= 0
 c389: y_8 + y_34 + y_75 + y_80 + y_93 + y_96 - z_388 >= 0
 c390: y_13 + y_28 + y_60 + y_76 - z_389 >= 0
 c391: y_7 + y_31 + y_37 + y_89 + y_99 - z_390 >= 0
 c392: y_11 + y_24 + y_43 + y_52 + y_59 + y_67 + y_68 + y_69 + y_70 + y_86
       + y_97 - z_391 >= 0
 c393: y_30 + y_43 + y_52 + y_59 + y_70 + y_94 - z_392 >= 0
 c394: y_5 + y_8 + y_20 + y_34 + y_61 + y_75 + y_80 + y_93 - z_393 >= 0
 c395: y_15 + y_20 + y_21 + y_33 + y_36 + y_41 + y_47 + y_48 + y_61 + y_79
       + y_80 + y_93 + y_95 - z_394 >= 0
 c396: y_1 + y_31 + y_37 + y_45 + y_73 + y_89 + y_99 - z_395 >= 0
 c397: y_29 + y_50 + y_56 + y_65 - z_396 >= 0
 c398: y_2 + y_83 + y_85 - z_397 >= 0
 c399: y_16 + y_39 + y_53 + y_54 + y_55 + y_63 + y_64 + y_66 - z_398 >= 0
 c400: y_4 + y_6 + y_32 + y_90 - z_399 >= 0
 c401: y_5 + y_34 + y_44 + y_61 + y_90 + y_93 - z_400 >= 0
 c402: y_0 + y_17 + y_39 + y_53 + y_63 + y_64 + y_91 - z_401 >= 0
 c403: y_25 + y_29 + y_35 + y_77 - z_402 >= 0
 c404: y_57 + y_65 + y_72 - z_403 >= 0
 c405: y_17 + y_39 + y_53 + y_58 + y_63 + y_64 + y_91 - z_404 >= 0
 c406: y_4 + y_9 + y_19 + y_26 + y_32 + y_38 + y_44 + y_67 + y_69 - z_405 >= 0
 c407: y_12 + y_22 + y_57 + y_65 + y_72 + y_88 - z_406 >= 0
 c408: y_53 + y_58 + y_91 - z_407 >= 0
 c409: y_29 - z_408 >= 0
 c410: y_11 + y_52 + y_59 + y_67 + y_68 + y_69 + y_97 - z_409 >= 0
 c411: y_7 + y_23 + y_31 + y_51 + y_62 + y_98 - z_410 >= 0
 c412: y_16 + y_39 + y_50 + y_54 + y_56 + y_58 + y_66 + y_87 - z_411 >= 0
 c413: y_12 + y_22 + y_57 + y_72 + y_88 - z_412 >= 0
 c414: y_3 + y_15 + y_18 + y_20 + y_21 + y_33 + y_36 + y_41 + y_47 + y_48 + y_61
       + y_79 + y_93 + y_95 - z_413 >= 0
 c415: y_1 + y_8 + y_46 + y_49 + y_73 + y_75 + y_80 + y_95 - z_414 >= 0
 c416: y_29 + y_50 + y_56 + y_65 - z_415 >= 0
 c417: y_25 + y_29 + y_35 + y_50 + y_56 + y_77 - z_416 >= 0
 c418: y_18 + y_46 + y_49 + y_74 + y_95 - z_417 >= 0
 c419: y_11 + y_24 + y_43 + y_52 + y_59 + y_68 + y_69 + y_70 + y_86 - z_418 >= 
       0
 c420: y_11 + y_19 + y_38 + y_43 + y_52 + y_59 + y_67 + y_68 + y_69 + y_97
       - z_419 >= 0
 c421: y_6 + y_22 - z_420 >= 0
 c422: y_5 + y_6 + y_90 - z_421 >= 0
 c423: y_23 + y_49 + y_74 + y_98 - z_422 >= 0
 c424: y_2 + y_14 + y_82 + y_83 + y_84 + y_85 - z_423 >= 0
 c425: y_13 + y_28 + y_60 + y_76 + y_81 - z_424 >= 0
 c426: y_7 + y_23 + y_31 + y_51 + y_62 + y_89 + y_98 + y_99 - z_425 >= 0
 c427: y_12 + y_71 + y_88 - z_426 >= 0
 c428: y_13 + y_57 + y_60 + y_65 + y_72 + y_76 + y_78 - z_427 >= 0
 c429: y_73 + y_96 - z_428 >= 0
 c430: y_12 + y_71 + y_88 - z_429 >= 0
 c431: y_6 + y_90 - z_430 >= 0
 c432: y_8 + y_15 + y_20 + y_46 + y_49 + y_61 + y_75 + y_79 + y_80 + y_93 + y_95
       - z_431 >= 0
 c433: y_16 + y_25 + y_40 + y_50 + y_54 + y_56 + y_66 + y_77 + y_87 - z_432 >= 
       0
 c434: y_1 + y_37 + y_73 + y_96 - z_433 >= 0
 c435: y_24 + y_52 + y_59 + y_70 + y_86 - z_434 >= 0
 c436: y_58 + y_91 - z_435 >= 0
 c437: y_21 + y_30 + y_36 + y_41 + y_43 + y_47 + y_48 + y_94 - z_436 >= 0
 c438: y_2 + y_14 + y_82 + y_83 + y_84 + y_85 - z_437 >= 0
 c439: y_1 + y_7 + y_23 + y_31 + y_51 + y_62 + y_89 + y_98 + y_99 - z_438 >= 0
 c440: y_11 + y_24 + y_30 + y_43 + y_52 + y_59 + y_70 + y_94 - z_439 >= 0
 c441: y_2 + y_82 + y_83 + y_84 + y_85 - z_440 >= 0
 c442: y_7 + y_23 + y_51 + y_98 - z_441 >= 0
 c443: y_25 + y_29 + y_35 + y_77 - z_442 >= 0
 c444: y_12 + y_22 + y_57 + y_65 + y_72 + y_88 - z_443 >= 0
 c445: y_16 + y_39 + y_40 + y_54 + y_63 + y_66 + y_87 - z_444 >= 0
 c446: y_85 + y_92 - z_445 >= 0
 c447: y_0 + y_16 + y_39 + y_42 + y_53 + y_54 + y_55 + y_63 + y_64 - z_446 >= 0
 c448: y_0 + y_2 + y_27 + y_42 + y_55 - z_447 >= 0
 c449: y_5 + y_8 + y_20 + y_34 + y_61 + y_75 + y_80 + y_93 - z_448 >= 0
 c450: y_37 + y_45 - z_449 >= 0
 c451: y_16 + y_17 + y_39 + y_53 + y_58 + y_63 + y_64 + y_91 - z_450 >= 0
 c452: y_24 + y_70 + y_86 - z_451 >= 0
 c453: y_18 + y_21 + y_30 + y_36 + y_41 + y_43 + y_47 + y_48 + y_94 - z_452 >= 
       0
 c454: y_10 + y_57 + y_60 + y_72 + y_76 + y_78 + y_81 - z_453 >= 0
 c455: y_0 + y_27 + y_42 + y_55 + y_64 - z_454 >= 0
 c456: y_9 + y_11 + y_19 + y_26 + y_38 + y_67 + y_68 + y_69 - z_455 >= 0
 c457: y_29 - z_456 >= 0
 c458: y_1 + y_23 + y_46 + y_49 + y_74 + y_95 + y_98 - z_457 >= 0
 c459: y_24 + y_52 + y_70 + y_86 + y_97 - z_458 >= 0
 c460: y_4 + y_9 + y_26 + y_32 + y_67 + y_69 - z_459 >= 0
 c461: y_11 + y_24 + y_30 + y_43 + y_52 + y_59 + y_68 + y_70 - z_460 >= 0
 c462: y_1 + y_23 + y_46 + y_49 + y_74 + y_75 + y_95 - z_461 >= 0
 c463: y_4 + y_6 + y_32 + y_90 - z_462 >= 0
 c464: y_11 + y_43 + y_52 + y_59 + y_67 + y_68 + y_69 - z_463 >= 0
 c465: y_13 + y_60 + y_65 + y_72 + y_76 - z_464 >= 0
 c466: y_15 + y_18 + y_20 + y_21 + y_33 + y_36 + y_41 + y_47 + y_48 + y_61
       + y_79 + y_93 + y_95 - z_465 >= 0
 c467: y_17 + y_53 + y_58 + y_91 - z_466 >= 0
 c468: y_1 + y_7 + y_23 + y_31 + y_51 + y_62 + y_89 + y_98 + y_99 - z_467 >= 0
 c469: y_18 + y_21 + y_36 + y_41 + y_47 + y_94 - z_468 >= 0
 c470: y_13 + y_57 + y_60 + y_65 + y_72 + y_76 + y_78 + y_81 - z_469 >= 0
 c471: y_12 + y_22 + y_57 + y_65 + y_72 + y_88 - z_470 >= 0
 c472: y_37 + y_45 - z_471 >= 0
 c473: y_4 + y_5 + y_6 + y_32 + y_44 + y_90 - z_472 >= 0
 c474: y_16 + y_39 + y_53 + y_54 + y_58 + y_91 - z_473 >= 0
 c475: y_5 + y_8 + y_20 + y_34 + y_61 + y_79 + y_80 + y_93 - z_474 >= 0
 c476: y_9 + y_71 + y_97 - z_475 >= 0
 c477: y_8 + y_20 + y_34 + y_61 + y_75 + y_80 + y_93 - z_476 >= 0
 c478: y_15 + y_18 + y_20 + y_21 + y_36 + y_41 + y_47 + y_61 + y_79 + y_93
       + y_95 - z_477 >= 0
 c479: y_3 + y_4 + y_9 + y_19 + y_26 + y_32 + y_38 + y_44 + y_67 + y_69 - z_478
        >= 0
 c480: y_0 + y_17 + y_39 + y_53 + y_63 + y_64 - z_479 >= 0
 c481: y_2 + y_40 + y_55 + y_83 + y_85 + y_92 - z_480 >= 0
 c482: y_22 + y_65 - z_481 >= 0
 c483: y_16 + y_40 + y_54 + y_66 + y_87 + y_92 - z_482 >= 0
 c484: y_13 - z_483 >= 0
 c485: y_12 + y_71 + y_88 - z_484 >= 0
 c486: y_12 + y_22 + y_57 + y_88 - z_485 >= 0
 c487: y_40 + y_83 + y_85 + y_92 - z_486 >= 0
 c488: y_10 + y_13 + y_28 + y_60 + y_76 + y_78 + y_81 - z_487 >= 0
 c489: y_17 + y_96 - z_488 >= 0
 c490: y_16 + y_50 + y_54 + y_56 + y_66 + y_87 - z_489 >= 0
 c491: y_4 + y_9 + y_26 + y_32 + y_90 - z_490 >= 0
 c492: y_1 + y_7 + y_23 + y_31 + y_37 + y_51 + y_62 + y_89 + y_98 + y_99 - z_491
        >= 0
 c493: y_12 + y_22 + y_32 + y_88 - z_492 >= 0
 c494: y_0 + y_17 + y_53 + y_63 + y_64 - z_493 >= 0
 c495: y_12 + y_71 + y_88 - z_494 >= 0
 c496: y_7 + y_23 + y_31 + y_51 + y_62 + y_89 + y_98 + y_99 - z_495 >= 0
 c497: y_16 + y_39 + y_40 + y_54 + y_63 + y_66 + y_87 - z_496 >= 0
 c498: y_12 + y_22 + y_57 + y_65 + y_72 + y_88 - z_497 >= 0
 c499: y_6 + y_58 + y_90 + y_91 - z_498 >= 0
 c500: y_4 + y_6 + y_26 + y_32 + y_44 + y_90 - z_499 >= 0
 c501: y_0 + y_45 - z_500 >= 0
 c502: y_37 + y_45 - z_501 >= 0
 c503: y_46 + y_49 + y_74 + y_95 - z_502 >= 0
 c504: y_0 + y_27 + y_42 + y_55 + y_63 + y_64 - z_503 >= 0
 c505: y_16 + y_39 + y_50 + y_54 + y_56 + y_58 + y_66 - z_504 >= 0
 c506: y_8 + y_20 + y_46 + y_75 + y_80 + y_93 - z_505 >= 0
 c507: y_0 + y_45 - z_506 >= 0
 c508: y_25 + y_29 + y_35 + y_40 + y_77 + y_87 + y_92 - z_507 >= 0
 c509: y_0 + y_2 + y_14 + y_27 + y_42 + y_82 - z_508 >= 0
 c510: y_25 + y_29 + y_35 + y_77 + y_87 + y_92 - z_509 >= 0
 c511: y_0 + y_96 - z_510 >= 0
 c512: y_0 + y_27 + y_42 - z_511 >= 0
 c513: y_2 + y_40 + y_83 + y_85 + y_92 - z_512 >= 0
 c514: y_16 + y_39 + y_40 + y_54 + y_55 + y_66 + y_87 + y_92 - z_513 >= 0
 c515: y_25 + y_35 + y_77 + y_92 - z_514 >= 0
 c516: y_0 + y_64 - z_515 >= 0
 c517: y_8 + y_15 + y_20 + y_34 + y_41 + y_48 + y_61 + y_75 + y_79 + y_80 + y_93
       + y_95 - z_516 >= 0
 c518: y_10 + y_13 + y_57 + y_60 + y_72 + y_76 + y_78 + y_81 - z_517 >= 0
 c519: y_1 + y_23 + y_46 + y_49 + y_74 + y_98 + y_99 - z_518 >= 0
 c520: y_16 + y_39 + y_50 + y_54 + y_56 + y_58 + y_66 + y_87 - z_519 >= 0
 c521: y_57 + y_65 + y_72 - z_520 >= 0
 c522: y_10 + y_13 + y_28 + y_60 + y_76 + y_78 + y_81 - z_521 >= 0
 c523: y_8 + y_17 + y_73 + y_96 - z_522 >= 0
 c524: y_4 + y_9 + y_19 + y_26 + y_38 + y_44 + y_67 + y_69 - z_523 >= 0
 c525: y_7 + y_31 + y_37 + y_51 + y_89 + y_99 - z_524 >= 0
 c526: y_1 + y_8 + y_73 + y_75 + y_96 - z_525 >= 0
 c527: y_3 + y_4 + y_19 + y_26 + y_32 + y_33 + y_38 + y_44 + y_90 - z_526 >= 0
 c528: y_13 + y_28 + y_60 + y_76 + y_81 - z_527 >= 0
 c529: y_1 + y_23 + y_31 + y_46 + y_49 + y_73 + y_89 + y_98 + y_99 - z_528 >= 0
 c530: y_6 + y_22 - z_529 >= 0
 c531: y_2 + y_83 + y_85 - z_530 >= 0
 c532: y_0 + y_27 + y_42 + y_55 + y_64 - z_531 >= 0
 c533: y_7 + y_23 + y_31 + y_51 + y_62 + y_98 - z_532 >= 0
 c534: y_5 + y_8 + y_15 + y_20 + y_34 + y_61 + y_75 + y_80 + y_93 - z_533 >= 0
 c535: y_2 + y_14 + y_82 + y_83 + y_84 + y_85 - z_534 >= 0
 c536: y_10 + y_13 + y_60 + y_76 + y_78 + y_81 - z_535 >= 0
 c537: - z_536 >= 0
 c538: - z_537 >= 0
 c539: y_17 + y_39 + y_53 + y_58 + y_63 + y_91 - z_538 >= 0
 c540: y_17 + y_96 - z_539 >= 0
 c541: y_4 + y_6 + y_12 + y_22 + y_32 + y_88 - z_540 >= 0
 c542: y_4 + y_6 + y_32 + y_44 + y_90 - z_541 >= 0
 c543: y_12 + y_71 + y_88 - z_542 >= 0
 c544: y_1 + y_46 + y_49 + y_74 + y_75 + y_80 + y_95 - z_543 >= 0
 c545: y_21 + y_30 + y_36 + y_43 + y_47 + y_94 - z_544 >= 0
 c546: y_57 + y_65 + y_72 - z_545 >= 0
 c547: y_13 + y_28 + y_60 + y_76 + y_78 + y_81 - z_546 >= 0
 c548: y_25 + y_29 + y_35 + y_77 + y_87 + y_92 - z_547 >= 0
 c549: y_10 + y_13 + y_28 + y_60 + y_72 + y_76 + y_78 + y_81 - z_548 >= 0
 c550: y_23 + y_49 + y_74 + y_98 - z_549 >= 0
 c551: y_3 + y_11 + y_19 + y_26 + y_33 + y_38 + y_43 + y_44 + y_67 + y_68 + y_69
       - z_550 >= 0
 c552: y_4 + y_9 + y_26 + y_32 + y_71 - z_551 >= 0
 c553: y_0 + y_27 + y_42 + y_55 + y_63 + y_64 - z_552 >= 0
 c554: y_17 + y_39 + y_53 + y_58 + y_63 + y_91 - z_553 >= 0
 c555: y_0 + y_2 + y_27 + y_42 + y_55 - z_554 >= 0
 c556: y_10 + y_13 + y_28 + y_60 + y_76 + y_78 + y_81 - z_555 >= 0
 c557: y_0 + y_39 + y_42 + y_53 + y_55 + y_63 + y_64 - z_556 >= 0
 c558: y_1 + y_23 + y_46 + y_49 + y_73 + y_75 - z_557 >= 0
 c559: y_0 + y_27 + y_42 + y_55 + y_63 + y_64 - z_558 >= 0
 c560: y_40 + y_87 + y_92 - z_559 >= 0
 c561: y_18 + y_21 + y_36 + y_41 + y_47 + y_48 + y_94 - z_560 >= 0
 c562: y_4 + y_6 + y_32 + y_90 - z_561 >= 0
 c563: y_24 + y_52 + y_59 + y_70 + y_86 - z_562 >= 0
 c564: y_25 + y_29 + y_35 + y_40 + y_50 + y_66 + y_77 + y_87 + y_92 - z_563 >= 
       0
 c565: y_10 + y_12 + y_57 + y_78 + y_88 - z_564 >= 0
 c566: y_10 + y_12 + y_57 + y_72 + y_78 + y_88 - z_565 >= 0
 c567: y_10 + y_57 + y_60 + y_72 + y_76 + y_78 + y_81 - z_566 >= 0
 c568: y_7 + y_23 + y_31 + y_51 + y_62 + y_89 + y_98 + y_99 - z_567 >= 0
 c569: y_17 + y_39 + y_53 + y_58 + y_63 + y_91 - z_568 >= 0
 c570: y_4 + y_5 + y_6 + y_32 + y_44 + y_90 - z_569 >= 0
 c571: y_0 + y_27 + y_42 + y_55 + y_63 + y_64 - z_570 >= 0
 c572: y_17 + y_53 + y_96 - z_571 >= 0
 c573: y_0 + y_17 + y_39 + y_53 + y_63 + y_64 - z_572 >= 0
 c574: y_4 + y_5 + y_6 + y_32 + y_44 + y_90 - z_573 >= 0
 c575: y_83 + y_85 - z_574 >= 0
 c576: y_16 + y_40 + y_54 + y_55 + y_66 + y_87 + y_92 - z_575 >= 0
 c577: y_13 + y_28 + y_60 + y_76 + y_81 - z_576 >= 0
 c578: y_40 + y_92 - z_577 >= 0
 c579: y_2 + y_14 + y_27 + y_82 - z_578 >= 0
 c580: y_13 + y_28 + y_60 + y_76 - z_579 >= 0
 c581: y_16 + y_39 + y_40 + y_54 + y_63 + y_66 + y_87 - z_580 >= 0
 c582: y_3 + y_19 + y_33 + y_38 + y_44 + y_48 + y_61 + y_79 - z_581 >= 0
 c583: y_16 + y_50 + y_54 + y_56 + y_66 + y_87 - z_582 >= 0
 c584: y_16 + y_40 + y_54 + y_66 + y_87 + y_92 - z_583 >= 0
 c585: y_92 - z_584 >= 0
 c586: y_17 + y_96 - z_585 >= 0
 c587: y_4 + y_6 + y_32 + y_90 - z_586 >= 0
 c588: y_10 + y_13 + y_28 + y_60 + y_72 + y_76 + y_78 + y_81 - z_587 >= 0
 c589: y_0 + y_27 + y_45 - z_588 >= 0
 c590: y_1 + y_8 + y_46 + y_73 + y_75 + y_80 - z_589 >= 0
 c591: y_16 + y_39 + y_53 + y_58 + y_91 - z_590 >= 0
 c592: y_45 - z_591 >= 0
 c593: y_3 + y_5 + y_20 + y_33 + y_34 + y_44 + y_48 + y_61 + y_79 + y_80 + y_93
       - z_592 >= 0
 c594: y_16 + y_17 + y_39 + y_53 + y_54 + y_58 + y_63 + y_91 - z_593 >= 0
 c595: y_11 + y_67 + y_68 + y_97 - z_594 >= 0
 c596: y_5 + y_33 + y_34 + y_44 + y_61 + y_90 + y_93 - z_595 >= 0
 c597: y_11 + y_52 + y_68 + y_86 + y_97 - z_596 >= 0
 c598: y_4 + y_5 + y_6 + y_32 + y_44 + y_90 - z_597 >= 0
 c599: y_13 + y_28 + y_60 + y_76 + y_81 - z_598 >= 0
 c600: y_1 + y_23 + y_31 + y_46 + y_73 + y_75 + y_89 + y_99 - z_599 >= 0
 c601: y_9 + y_71 - z_600 >= 0
 c602: y_4 + y_6 + y_22 + y_32 + y_90 - z_601 >= 0
 c603: y_12 + y_71 - z_602 >= 0
 c604: y_15 + y_18 + y_36 + y_41 + y_46 + y_47 + y_49 + y_74 + y_95 - z_603 >= 
       0
 c605: y_2 + y_14 + y_27 + y_42 + y_55 + y_82 + y_83 - z_604 >= 0
 c606: y_0 + y_39 + y_42 + y_53 + y_55 + y_63 + y_64 - z_605 >= 0
 c607: y_8 + y_20 + y_75 + y_80 + y_93 + y_96 - z_606 >= 0
 c608: y_2 + y_82 + y_83 + y_84 + y_85 - z_607 >= 0
 c609: y_5 + y_6 + y_90 - z_608 >= 0
 c610: y_58 + y_91 - z_609 >= 0
 c611: y_30 + y_43 + y_52 + y_59 + y_94 - z_610 >= 0
 c612: y_10 + y_12 + y_57 + y_72 + y_78 + y_81 + y_88 - z_611 >= 0
 c613: y_0 + y_17 + y_53 + y_63 + y_64 - z_612 >= 0
 c614: y_1 + y_23 + y_31 + y_37 + y_73 + y_89 + y_98 + y_99 - z_613 >= 0
 c615: y_5 + y_20 + y_34 + y_61 + y_80 + y_93 - z_614 >= 0
 c616: y_17 + y_53 + y_58 + y_91 - z_615 >= 0
 c617: y_11 + y_24 + y_30 + y_43 + y_52 + y_59 + y_70 - z_616 >= 0
 c618: y_2 + y_14 + y_82 + y_83 - z_617 >= 0
 c619: y_4 + y_6 + y_32 + y_90 - z_618 >= 0
 c620: y_10 + y_13 + y_57 + y_60 + y_72 + y_76 + y_78 + y_81 - z_619 >= 0
 c621: y_1 + y_23 + y_31 + y_46 + y_49 + y_73 + y_89 + y_98 + y_99 - z_620 >= 0
 c622: y_17 + y_39 + y_53 + y_58 + y_63 + y_91 - z_621 >= 0
 c623: y_5 + y_17 + y_34 + y_53 + y_58 + y_91 - z_622 >= 0
 c624: y_18 + y_36 + y_47 + y_74 + y_95 - z_623 >= 0
 c625: y_13 + y_28 + y_60 + y_76 + y_81 - z_624 >= 0
 c626: y_50 + y_56 - z_625 >= 0
 c627: y_45 - z_626 >= 0
 c628: y_8 + y_20 + y_34 + y_61 + y_75 + y_80 + y_93 - z_627 >= 0
 c629: y_45 - z_628 >= 0
 c630: y_5 + y_17 + y_53 + y_58 + y_91 - z_629 >= 0
 c631: y_13 + y_28 + y_60 + y_72 + y_76 + y_78 + y_81 - z_630 >= 0
 c632: y_10 + y_57 + y_72 + y_78 + y_81 - z_631 >= 0
 c633: y_13 + y_28 + y_60 + y_76 + y_81 - z_632 >= 0
 c634: y_58 + y_91 - z_633 >= 0
 c635: y_5 + y_8 + y_17 + y_34 + y_80 + y_93 - z_634 >= 0
 c636: y_16 + y_39 + y_53 + y_54 + y_58 + y_63 + y_66 + y_91 - z_635 >= 0
 c637: y_25 + y_50 + y_56 + y_66 + y_87 - z_636 >= 0
 c638: y_83 + y_85 + y_92 - z_637 >= 0
 c639: y_0 + y_27 + y_39 + y_42 + y_55 + y_63 + y_64 - z_638 >= 0
 c640: y_11 + y_24 + y_52 + y_67 + y_68 + y_69 + y_70 + y_86 + y_97 - z_639 >= 
       0
 c641: y_4 + y_6 + y_32 + y_90 - z_640 >= 0
 c642: y_12 + y_57 + y_72 + y_88 - z_641 >= 0
 c643: y_31 + y_37 + y_89 - z_642 >= 0
 c644: y_24 + y_70 + y_86 - z_643 >= 0
 c645: y_4 + y_9 + y_26 + y_32 + y_90 - z_644 >= 0
 c646: y_16 + y_50 + y_54 + y_56 + y_58 + y_66 - z_645 >= 0
 c647: y_17 + y_53 + y_96 - z_646 >= 0
 c648: y_8 + y_15 + y_20 + y_34 + y_46 + y_61 + y_75 + y_80 + y_93 + y_95
       - z_647 >= 0
 c649: y_25 + y_29 + y_35 + y_50 + y_77 + y_87 + y_92 - z_648 >= 0
 c650: y_13 + y_28 + y_60 + y_72 + y_76 + y_78 + y_81 - z_649 >= 0
 c651: y_1 + y_8 + y_46 + y_73 + y_75 + y_96 - z_650 >= 0
 c652: y_25 + y_50 + y_56 + y_66 + y_87 - z_651 >= 0
 c653: y_2 + y_14 + y_27 + y_82 - z_652 >= 0
 c654: y_3 + y_19 + y_26 + y_33 + y_38 + y_44 + y_67 + y_69 - z_653 >= 0
 c655: y_16 + y_39 + y_53 + y_54 + y_58 + y_63 + y_66 + y_87 + y_91 - z_654 >= 
       0
 c656: y_15 + y_18 + y_36 + y_41 + y_46 + y_47 + y_49 + y_74 + y_95 - z_655 >= 
       0
 c657: y_1 + y_37 + y_73 + y_96 - z_656 >= 0
 c658: y_3 + y_11 + y_19 + y_33 + y_38 + y_43 + y_44 + y_48 + y_67 + y_69
       - z_657 >= 0
 c659: y_50 + y_56 + y_58 - z_658 >= 0
 c660: y_1 + y_73 + y_96 - z_659 >= 0
 c661: y_0 + y_2 + y_14 + y_27 + y_42 + y_55 + y_82 - z_660 >= 0
 c662: y_9 + y_71 + y_97 - z_661 >= 0
 c663: y_37 + y_73 + y_96 - z_662 >= 0
 c664: y_6 + y_22 - z_663 >= 0
 c665: y_17 + y_53 + y_63 + y_64 + y_96 - z_664 >= 0
 c666: y_58 + y_91 - z_665 >= 0
 c667: y_30 + y_43 + y_52 + y_59 + y_94 - z_666 >= 0
 c668: y_16 + y_40 + y_54 + y_55 + y_66 + y_87 + y_92 - z_667 >= 0
 c669: y_30 + y_43 + y_52 + y_59 + y_94 - z_668 >= 0
 c670: y_7 + y_31 + y_37 + y_51 + y_62 + y_89 + y_99 - z_669 >= 0
 c671: y_4 + y_6 + y_12 + y_22 + y_32 + y_88 + y_90 - z_670 >= 0
 c672: y_83 + y_85 + y_92 - z_671 >= 0
 c673: y_13 + y_28 + y_60 + y_76 - z_672 >= 0
 c674: y_37 + y_45 + y_73 + y_96 - z_673 >= 0
 c675: y_4 + y_5 + y_6 + y_33 + y_34 + y_44 + y_90 - z_674 >= 0
 c676: y_22 + y_57 + y_65 + y_72 - z_675 >= 0
 c677: y_0 + y_2 + y_14 + y_27 + y_42 + y_55 - z_676 >= 0
 c678: y_1 + y_31 + y_37 + y_73 + y_89 + y_99 - z_677 >= 0
 c679: y_2 + y_14 + y_27 + y_82 - z_678 >= 0
 c680: y_9 + y_11 + y_26 + y_67 + y_68 + y_69 + y_97 - z_679 >= 0
 c681: y_73 + y_96 - z_680 >= 0
 c682: y_13 + y_28 + y_60 - z_681 >= 0
 c683: y_8 + y_15 + y_20 + y_46 + y_49 + y_61 + y_75 + y_79 + y_80 + y_93 + y_95
       - z_682 >= 0
 c684: y_3 + y_11 + y_19 + y_38 + y_43 + y_52 + y_59 + y_67 + y_68 + y_69
       - z_683 >= 0
 c685: y_2 + y_40 + y_55 + y_83 + y_85 + y_92 - z_684 >= 0
 c686: y_25 + y_35 + y_40 + y_77 + y_87 + y_92 - z_685 >= 0
 c687: y_16 + y_17 + y_39 + y_53 + y_54 + y_58 + y_63 + y_64 + y_91 - z_686 >= 
       0
 c688: y_11 + y_24 + y_52 + y_59 + y_67 + y_68 + y_69 + y_70 + y_86 + y_97
       - z_687 >= 0
 c689: y_15 + y_18 + y_21 + y_36 + y_41 + y_47 + y_79 + y_95 - z_688 >= 0
 c690: y_15 + y_18 + y_20 + y_21 + y_33 + y_36 + y_41 + y_47 + y_48 + y_61
       + y_79 + y_80 + y_93 + y_95 - z_689 >= 0
 c691: y_8 + y_15 + y_20 + y_34 + y_46 + y_61 + y_75 + y_79 + y_80 + y_93 + y_95
       - z_690 >= 0
 c692: y_9 + y_12 + y_71 + y_88 - z_691 >= 0
 c693: y_13 + y_28 + y_60 + y_76 - z_692 >= 0
 c694: y_13 + y_60 - z_693 >= 0
 c695: y_12 + y_22 + y_57 + y_65 + y_72 + y_88 - z_694 >= 0
 c696: y_92 - z_695 >= 0
 c697: y_7 + y_23 + y_31 + y_51 + y_62 + y_89 + y_98 + y_99 - z_696 >= 0
 c698: y_9 + y_71 - z_697 >= 0
 c699: y_16 + y_39 + y_40 + y_42 + y_54 + y_55 + y_63 + y_64 - z_698 >= 0
 c700: y_4 + y_6 + y_32 + y_90 - z_699 >= 0
 c701: y_18 + y_21 + y_36 + y_41 + y_47 + y_94 - z_700 >= 0
 c702: y_25 + y_29 + y_35 + y_40 + y_77 + y_87 + y_92 - z_701 >= 0
 c703: y_3 + y_5 + y_19 + y_33 + y_34 + y_38 + y_44 + y_48 + y_61 + y_90 - z_702
        >= 0
 c704: y_7 + y_23 + y_31 + y_37 + y_51 + y_62 + y_89 + y_98 + y_99 - z_703 >= 0
 c705: y_16 + y_17 + y_39 + y_53 + y_54 + y_58 + y_63 + y_64 + y_91 - z_704 >= 
       0
 c706: y_16 + y_40 + y_54 + y_66 + y_87 + y_92 - z_705 >= 0
 c707: y_11 + y_43 + y_52 + y_59 + y_67 + y_68 + y_69 + y_97 - z_706 >= 0
 c708: y_16 + y_39 + y_40 + y_54 + y_55 + y_66 + y_87 + y_92 - z_707 >= 0
 c709: y_1 + y_7 + y_23 + y_31 + y_49 + y_51 + y_89 + y_98 + y_99 - z_708 >= 0
 c710: y_13 - z_709 >= 0
 c711: y_13 - z_710 >= 0
 c712: y_10 + y_13 + y_28 + y_60 + y_72 + y_76 + y_78 + y_81 - z_711 >= 0
 c713: y_2 + y_14 + y_82 + y_83 + y_85 - z_712 >= 0
 c714: y_8 + y_17 + y_75 + y_80 + y_96 - z_713 >= 0
 c715: y_18 + y_21 + y_36 + y_41 + y_47 + y_94 - z_714 >= 0
 c716: y_11 + y_24 + y_30 + y_43 + y_52 + y_59 + y_67 + y_68 + y_69 + y_70
       - z_715 >= 0
 c717: y_31 + y_37 + y_89 + y_99 - z_716 >= 0
 c718: y_0 + y_14 + y_27 + y_42 + y_82 - z_717 >= 0
 c719: y_15 + y_18 + y_21 + y_33 + y_36 + y_41 + y_47 + y_48 + y_61 + y_79
       + y_95 - z_718 >= 0
 c720: y_13 + y_28 + y_60 + y_76 - z_719 >= 0
 c721: y_3 + y_19 + y_21 + y_30 + y_38 + y_43 + y_48 + y_52 + y_59 + y_94
       - z_720 >= 0
 c722: y_4 + y_12 + y_22 + y_32 + y_88 - z_721 >= 0
 c723: y_23 + y_46 + y_49 + y_74 + y_95 - z_722 >= 0
 c724: y_17 + y_39 + y_53 + y_58 + y_63 + y_91 - z_723 >= 0
 c725: y_1 + y_7 + y_23 + y_31 + y_51 + y_89 + y_98 + y_99 - z_724 >= 0
 c726: y_25 + y_29 + y_35 + y_77 + y_87 + y_92 - z_725 >= 0
 c727: y_37 + y_45 + y_73 + y_89 + y_99 - z_726 >= 0
 c728: y_11 + y_19 + y_38 + y_43 + y_52 + y_59 + y_67 + y_68 + y_69 - z_727 >= 
       0
 c729: y_1 + y_7 + y_23 + y_31 + y_51 + y_73 + y_89 + y_98 + y_99 - z_728 >= 0
 c730: y_50 + y_56 + y_66 - z_729 >= 0
 c731: y_37 + y_45 + y_73 + y_96 - z_730 >= 0
 c732: y_11 + y_26 + y_43 + y_52 + y_59 + y_67 + y_68 + y_69 + y_97 - z_731 >= 
       0
 c733: y_25 + y_29 + y_35 + y_50 + y_56 + y_77 - z_732 >= 0
 c734: y_11 + y_24 + y_43 + y_52 + y_59 + y_67 + y_68 + y_69 + y_70 + y_86
       + y_97 - z_733 >= 0
 c735: y_2 + y_14 + y_27 + y_82 - z_734 >= 0
 c736: y_2 + y_14 + y_27 + y_42 + y_55 + y_82 + y_83 - z_735 >= 0
 c737: y_13 + y_57 + y_60 + y_72 + y_76 + y_78 + y_81 - z_736 >= 0
 c738: y_1 + y_8 + y_46 + y_49 + y_74 + y_75 + y_80 + y_95 - z_737 >= 0
 c739: y_10 + y_12 + y_57 + y_72 + y_78 + y_88 - z_738 >= 0
 c740: y_21 + y_30 + y_36 + y_41 + y_43 + y_47 + y_94 - z_739 >= 0
 c741: y_11 + y_19 + y_30 + y_43 + y_52 + y_59 + y_94 - z_740 >= 0
 c742: y_2 + y_14 + y_82 + y_83 + y_84 + y_85 - z_741 >= 0
 c743: y_16 + y_25 + y_40 + y_50 + y_54 + y_66 + y_77 + y_87 + y_92 - z_742 >= 
       0
 c744: y_27 + y_45 - z_743 >= 0
 c745: y_71 - z_744 >= 0
 c746: y_1 + y_23 + y_46 + y_49 + y_73 + y_75 + y_98 + y_99 - z_745 >= 0
 c747: y_11 + y_24 + y_43 + y_52 + y_59 + y_68 + y_70 + y_86 - z_746 >= 0
 c748: y_17 + y_53 + y_58 + y_63 + y_91 - z_747 >= 0
 c749: y_31 + y_37 + y_89 - z_748 >= 0
 c750: y_18 + y_21 + y_30 + y_36 + y_41 + y_47 + y_94 - z_749 >= 0
 c751: y_10 + y_72 + y_76 + y_78 + y_81 - z_750 >= 0
 c752: y_13 + y_57 + y_65 + y_72 - z_751 >= 0
 c753: y_15 + y_18 + y_21 + y_36 + y_41 + y_47 + y_48 + y_79 - z_752 >= 0
 c754: y_9 + y_71 - z_753 >= 0
 c755: y_12 + y_22 + y_57 + y_65 + y_72 + y_88 - z_754 >= 0
 c756: y_6 + y_58 + y_90 + y_91 - z_755 >= 0
 c757: y_4 + y_12 + y_22 + y_32 + y_88 - z_756 >= 0
 c758: y_8 + y_15 + y_20 + y_46 + y_49 + y_61 + y_74 + y_75 + y_80 + y_93 + y_95
       - z_757 >= 0
 c759: y_5 + y_8 + y_17 + y_34 + y_91 - z_758 >= 0
 c760: y_4 + y_6 + y_26 + y_32 + y_38 + y_44 + y_90 - z_759 >= 0
 c761: y_13 + y_28 + y_60 + y_76 + y_81 - z_760 >= 0
 c762: y_25 + y_29 + y_35 + y_50 + y_56 + y_77 + y_87 - z_761 >= 0
 c763: y_2 + y_82 + y_83 + y_84 + y_85 - z_762 >= 0
 c764: y_46 + y_49 + y_74 + y_95 - z_763 >= 0
 c765: y_7 + y_23 + y_51 + y_98 - z_764 >= 0
 c766: y_7 + y_23 + y_31 + y_51 + y_62 + y_89 + y_98 + y_99 - z_765 >= 0
 c767: y_13 + y_65 + y_72 - z_766 >= 0
 c768: y_9 + y_11 + y_26 + y_67 + y_68 + y_69 + y_97 - z_767 >= 0
 c769: y_10 + y_13 + y_28 + y_60 + y_76 + y_78 + y_81 - z_768 >= 0
 c770: y_22 + y_57 + y_65 + y_72 + y_88 - z_769 >= 0
 c771: y_5 + y_20 + y_33 + y_34 + y_44 + y_61 + y_80 + y_93 - z_770 >= 0
 c772: y_1 + y_8 + y_73 + y_75 + y_96 - z_771 >= 0
 c773: y_10 + y_12 + y_57 + y_72 + y_88 - z_772 >= 0
 c774: y_5 + y_8 + y_15 + y_20 + y_34 + y_61 + y_75 + y_79 + y_80 + y_93 - z_773
        >= 0
 c775: y_7 + y_23 + y_31 + y_37 + y_51 + y_62 + y_89 + y_98 + y_99 - z_774 >= 0
 c776: y_21 + y_30 + y_36 + y_41 + y_43 + y_47 + y_94 - z_775 >= 0
 c777: y_1 + y_7 + y_31 + y_37 + y_73 + y_89 + y_98 + y_99 - z_776 >= 0
 c778: y_11 + y_24 + y_52 + y_59 + y_67 + y_68 + y_69 + y_70 + y_86 + y_97
       - z_777 >= 0
 c779: y_1 + y_31 + y_37 + y_73 + y_89 + y_99 - z_778 >= 0
 c780: y_1 + y_8 + y_73 + y_75 + y_96 - z_779 >= 0
 c781: y_8 + y_73 + y_75 + y_96 - z_780 >= 0
 c782: y_18 + y_46 + y_49 + y_74 + y_95 - z_781 >= 0
 c783: y_1 + y_37 + y_73 + y_96 - z_782 >= 0
 c784: y_1 + y_8 + y_46 + y_49 + y_74 + y_75 + y_80 + y_95 - z_783 >= 0
 c785: y_1 + y_7 + y_23 + y_31 + y_49 + y_51 + y_89 + y_98 + y_99 - z_784 >= 0
 c786: y_10 + y_12 + y_57 + y_72 + y_78 + y_88 - z_785 >= 0
 c787: y_15 + y_20 + y_41 + y_46 + y_49 + y_61 + y_75 + y_79 + y_80 + y_93
       + y_95 - z_786 >= 0
 c788: y_97 - z_787 >= 0
 c789: y_4 + y_9 + y_26 + y_32 + y_71 - z_788 >= 0
 c790: y_25 + y_29 + y_50 + y_56 + y_77 - z_789 >= 0
 c791: y_3 + y_5 + y_19 + y_20 + y_33 + y_34 + y_38 + y_44 + y_48 + y_61 + y_79
       + y_93 - z_790 >= 0
 c792: y_10 + y_12 + y_57 + y_72 + y_78 + y_81 + y_88 - z_791 >= 0
 c793: y_25 + y_29 + y_35 + y_50 + y_56 + y_66 + y_77 + y_87 - z_792 >= 0
 c794: y_12 + y_71 + y_88 - z_793 >= 0
 c795: y_1 + y_7 + y_23 + y_31 + y_37 + y_51 + y_62 + y_89 + y_98 + y_99 - z_794
        >= 0
 c796: y_9 + y_26 + y_67 + y_69 - z_795 >= 0
 c797: y_5 + y_15 + y_20 + y_33 + y_34 + y_41 + y_48 + y_61 + y_79 + y_80 + y_93
       - z_796 >= 0
 c798: y_16 + y_39 + y_40 + y_53 + y_54 + y_63 + y_66 + y_87 - z_797 >= 0
 c799: y_50 + y_56 + y_66 - z_798 >= 0
 c800: y_10 + y_12 + y_57 + y_72 + y_78 + y_88 - z_799 >= 0
 c801: y_22 + y_57 + y_65 + y_72 + y_78 + y_88 - z_800 >= 0
 c802: y_8 + y_15 + y_20 + y_34 + y_46 + y_61 + y_75 + y_79 + y_80 + y_93 + y_95
       - z_801 >= 0
 c803: y_9 + y_26 + y_71 - z_802 >= 0
 c804: y_50 + y_56 + y_66 - z_803 >= 0
 c805: y_11 + y_24 + y_43 + y_52 + y_59 + y_67 + y_68 + y_69 + y_70 - z_804 >= 
       0
 c806: y_4 + y_5 + y_6 + y_32 + y_90 - z_805 >= 0
 c807: y_17 + y_39 + y_53 + y_58 + y_63 + y_91 - z_806 >= 0
 c808: y_2 + y_40 + y_83 + y_85 + y_92 - z_807 >= 0
 c809: y_46 + y_49 + y_74 + y_95 - z_808 >= 0
 c810: y_5 + y_17 + y_34 + y_58 + y_91 - z_809 >= 0
 c811: y_1 + y_8 + y_73 + y_75 + y_96 - z_810 >= 0
 c812: y_22 + y_57 + y_65 + y_72 + y_78 + y_88 - z_811 >= 0
 c813: y_3 + y_15 + y_20 + y_21 + y_33 + y_36 + y_41 + y_47 + y_48 + y_61 + y_79
       + y_80 + y_93 - z_812 >= 0
 c814: y_15 + y_18 + y_36 + y_41 + y_46 + y_47 + y_49 + y_74 + y_79 + y_95
       - z_813 >= 0
 c815: y_9 + y_11 + y_26 + y_67 + y_68 + y_69 + y_97 - z_814 >= 0
 c816: y_12 + y_22 + y_57 + y_65 + y_72 + y_88 - z_815 >= 0
 c817: y_31 + y_37 + y_89 + y_99 - z_816 >= 0
 c818: y_13 + y_28 + y_60 + y_76 + y_81 - z_817 >= 0
 c819: y_4 + y_6 + y_32 + y_44 + y_90 - z_818 >= 0
 c820: y_4 + y_6 + y_22 + y_32 + y_90 - z_819 >= 0
 c821: y_3 + y_5 + y_19 + y_20 + y_33 + y_34 + y_38 + y_44 + y_48 + y_61 + y_79
       + y_93 - z_820 >= 0
 c822: y_28 + y_60 + y_76 - z_821 >= 0
 c823: y_11 + y_19 + y_30 + y_38 + y_43 + y_52 + y_59 + y_67 + y_68 + y_69
       - z_822 >= 0
 c824: y_11 + y_24 + y_43 + y_52 + y_59 + y_67 + y_68 + y_69 + y_70 - z_823 >= 
       0
 c825: y_1 + y_8 + y_73 + y_75 + y_96 - z_824 >= 0
 c826: y_4 + y_5 + y_6 + y_32 + y_90 - z_825 >= 0
 c827: y_4 + y_5 + y_6 + y_32 + y_44 + y_90 - z_826 >= 0
 c828: y_1 + y_23 + y_31 + y_46 + y_49 + y_73 + y_89 + y_98 + y_99 - z_827 >= 0
 c829: y_22 + y_50 + y_56 - z_828 >= 0
 c830: y_17 + y_53 + y_96 - z_829 >= 0
 c831: y_24 + y_70 + y_86 - z_830 >= 0
 c832: y_7 + y_23 + y_31 + y_51 + y_62 + y_98 + y_99 - z_831 >= 0
 c833: y_23 + y_46 + y_49 + y_74 + y_98 - z_832 >= 0
 c834: y_13 + y_28 + y_60 + y_76 + y_81 - z_833 >= 0
 c835: y_16 + y_50 + y_54 + y_56 + y_58 + y_66 - z_834 >= 0
 c836: y_15 + y_18 + y_36 + y_41 + y_46 + y_47 + y_49 + y_74 + y_79 + y_95
       - z_835 >= 0
 c837: y_9 + y_71 - z_836 >= 0
 c838: y_2 + y_14 + y_27 + y_42 + y_82 - z_837 >= 0
 c839: y_25 + y_29 + y_35 + y_77 - z_838 >= 0
 c840: y_10 + y_13 + y_57 + y_60 + y_72 + y_76 + y_78 + y_81 - z_839 >= 0
 c841: y_17 + y_96 - z_840 >= 0
 c842: y_40 + y_54 + y_66 + y_87 + y_92 - z_841 >= 0
 c843: y_12 + y_71 + y_88 - z_842 >= 0
 c844: y_45 - z_843 >= 0
 c845: y_1 + y_73 + y_96 + y_99 - z_844 >= 0
 c846: y_11 + y_52 + y_67 + y_68 + y_69 + y_86 + y_97 - z_845 >= 0
 c847: y_23 + y_46 + y_49 + y_74 + y_75 + y_95 - z_846 >= 0
 c848: y_0 + y_27 + y_39 + y_42 + y_53 + y_55 + y_63 + y_64 - z_847 >= 0
 c849: y_1 + y_31 + y_37 + y_73 + y_89 + y_99 - z_848 >= 0
 c850: y_50 + y_56 + y_58 - z_849 >= 0
 c851: y_24 + y_52 + y_59 + y_70 + y_86 - z_850 >= 0
 c852: y_13 + y_57 + y_60 + y_65 + y_72 - z_851 >= 0
 c853: y_16 + y_25 + y_35 + y_40 + y_50 + y_54 + y_56 + y_66 + y_77 + y_87
       + y_92 - z_852 >= 0
 c854: y_18 + y_21 + y_36 + y_41 + y_47 + y_94 - z_853 >= 0
 c855: y_4 + y_6 + y_9 + y_26 + y_32 + y_90 - z_854 >= 0
 c856: y_13 + y_28 + y_60 + y_76 - z_855 >= 0
 c857: y_11 + y_24 + y_52 + y_67 + y_68 + y_69 + y_70 + y_86 + y_97 - z_856 >= 
       0
 c858: y_13 + y_57 + y_60 + y_65 + y_72 + y_76 + y_78 + y_81 - z_857 >= 0
 c859: y_57 + y_65 + y_72 - z_858 >= 0
 c860: y_40 + y_92 - z_859 >= 0
 c861: y_1 + y_31 + y_37 + y_73 + y_89 + y_99 - z_860 >= 0
 c862: y_45 + y_96 - z_861 >= 0
 c863: y_5 + y_8 + y_17 + y_34 + y_96 - z_862 >= 0
 c864: y_0 + y_27 - z_863 >= 0
 c865: y_6 + y_22 - z_864 >= 0
 c866: y_0 + y_53 + y_63 + y_64 - z_865 >= 0
 c867: y_29 + y_35 + y_77 - z_866 >= 0
 c868: y_18 + y_46 + y_49 + y_74 + y_95 - z_867 >= 0
 c869: y_13 + y_28 + y_60 + y_76 - z_868 >= 0
 c870: y_0 + y_27 - z_869 >= 0
 c871: y_25 + y_29 + y_35 + y_40 + y_77 + y_87 + y_92 - z_870 >= 0
 c872: y_5 + y_33 + y_34 + y_44 + y_61 + y_90 + y_93 - z_871 >= 0
 c873: y_37 + y_45 + y_73 + y_96 - z_872 >= 0
 c874: y_2 + y_40 + y_83 + y_85 - z_873 >= 0
 c875: y_0 + y_96 - z_874 >= 0
 c876: y_9 + y_11 + y_19 + y_26 + y_38 + y_67 + y_68 + y_69 - z_875 >= 0
 c877: y_13 - z_876 >= 0
 c878: y_3 + y_11 + y_19 + y_30 + y_38 + y_43 + y_52 + y_59 + y_68 + y_69
       - z_877 >= 0
 c879: y_16 + y_40 + y_54 + y_66 + y_87 + y_92 - z_878 >= 0
 c880: - z_879 >= 0
 c881: y_25 + y_29 + y_35 + y_40 + y_77 + y_87 + y_92 - z_880 >= 0
 c882: y_18 + y_21 + y_36 + y_41 + y_47 - z_881 >= 0
 c883: y_13 + y_28 + y_60 + y_76 + y_78 + y_81 - z_882 >= 0
 c884: y_2 + y_14 + y_27 + y_82 - z_883 >= 0
 c885: y_11 + y_24 + y_30 + y_43 + y_52 + y_59 + y_68 + y_70 - z_884 >= 0
 c886: y_1 + y_8 + y_46 + y_73 + y_75 + y_80 + y_96 - z_885 >= 0
 c887: y_2 + y_14 + y_82 + y_83 + y_84 + y_85 - z_886 >= 0
 c888: y_3 + y_15 + y_19 + y_21 + y_33 + y_36 + y_41 + y_47 + y_48 + y_61 + y_79
       - z_887 >= 0
 c889: y_40 + y_42 + y_54 + y_55 + y_92 - z_888 >= 0
 c890: y_45 - z_889 >= 0
 c891: y_40 + y_55 + y_87 + y_92 - z_890 >= 0
 c892: y_24 + y_30 + y_43 + y_52 + y_59 + y_70 + y_94 - z_891 >= 0
 c893: y_4 + y_6 + y_12 + y_22 + y_32 + y_88 - z_892 >= 0
 c894: y_1 + y_7 + y_23 + y_31 + y_49 + y_51 + y_89 + y_98 + y_99 - z_893 >= 0
 c895: y_25 + y_35 + y_40 + y_77 + y_87 + y_92 - z_894 >= 0
 c896: y_2 + y_14 + y_27 + y_42 + y_82 + y_83 - z_895 >= 0
 c897: y_12 + y_22 + y_57 + y_88 - z_896 >= 0
 c898: y_22 + y_57 + y_65 + y_72 - z_897 >= 0
 c899: y_16 + y_25 + y_50 + y_54 + y_56 + y_66 + y_77 + y_87 - z_898 >= 0
 c900: y_5 + y_8 + y_20 + y_34 + y_61 + y_80 + y_93 - z_899 >= 0
 c901: y_10 + y_13 + y_57 + y_60 + y_72 + y_76 + y_78 + y_81 - z_900 >= 0
 c902: y_25 + y_29 + y_35 + y_77 - z_901 >= 0
 c903: y_3 + y_19 + y_21 + y_33 + y_38 + y_43 + y_48 - z_902 >= 0
 c904: y_83 + y_84 + y_85 - z_903 >= 0
 c905: y_11 + y_24 + y_52 + y_59 + y_68 + y_70 + y_86 + y_97 - z_904 >= 0
 c906: y_8 + y_15 + y_20 + y_34 + y_46 + y_61 + y_75 + y_79 + y_80 + y_93 + y_95
       - z_905 >= 0
 c907: y_11 + y_52 + y_67 + y_68 + y_69 + y_97 - z_906 >= 0
 c908: y_0 + y_16 + y_39 + y_42 + y_54 + y_55 + y_63 + y_64 - z_907 >= 0
 c909: y_4 + y_6 + y_9 + y_26 + y_32 + y_90 - z_908 >= 0
 c910: y_11 + y_30 + y_43 + y_52 + y_59 + y_68 + y_70 - z_909 >= 0
 c911: y_40 + y_87 + y_92 - z_910 >= 0
 c912: y_11 + y_24 + y_43 + y_52 + y_59 + y_67 + y_68 + y_69 + y_70 + y_97
       - z_911 >= 0
 c913: y_16 + y_39 + y_53 + y_54 + y_58 + y_66 + y_91 - z_912 >= 0
 c914: y_13 + y_28 + y_60 + y_76 + y_81 - z_913 >= 0
 c915: y_5 + y_17 + y_34 - z_914 >= 0
 c916: y_8 + y_73 + y_96 - z_915 >= 0
 c917: y_40 + y_83 + y_85 + y_92 - z_916 >= 0
 c918: y_40 + y_87 + y_92 - z_917 >= 0
 c919: y_45 - z_918 >= 0
 c920: y_13 + y_28 + y_60 + y_76 - z_919 >= 0
 c921: y_3 + y_5 + y_15 + y_20 + y_33 + y_34 + y_44 + y_48 + y_61 + y_79 + y_80
       + y_93 - z_920 >= 0
 c922: y_0 + y_96 - z_921 >= 0
 c923: y_5 + y_17 + y_34 + y_91 - z_922 >= 0
 c924: y_1 + y_31 + y_37 + y_73 + y_89 + y_96 + y_99 - z_923 >= 0
 c925: y_13 + y_28 + y_60 + y_76 - z_924 >= 0
 c926: y_8 + y_15 + y_20 + y_46 + y_49 + y_61 + y_75 + y_80 + y_93 + y_95
       - z_925 >= 0
 c927: y_11 + y_26 + y_52 + y_67 + y_68 + y_69 + y_97 - z_926 >= 0
 c928: y_8 + y_34 + y_75 + y_80 + y_96 - z_927 >= 0
 c929: y_9 + y_11 + y_26 + y_67 + y_68 + y_69 + y_97 - z_928 >= 0
 c930: y_8 + y_73 + y_75 + y_96 - z_929 >= 0
 c931: y_4 + y_6 + y_22 + y_32 + y_90 - z_930 >= 0
 c932: y_65 - z_931 >= 0
 c933: y_18 + y_46 + y_49 + y_74 + y_95 - z_932 >= 0
 c934: y_4 + y_9 + y_26 + y_32 - z_933 >= 0
 c935: y_16 + y_39 + y_50 + y_53 + y_54 + y_58 + y_63 + y_66 + y_91 - z_934 >= 
       0
 c936: y_25 + y_35 + y_77 + y_92 - z_935 >= 0
 c937: y_12 + y_71 + y_88 - z_936 >= 0
 c938: y_5 + y_17 + y_34 + y_91 - z_937 >= 0
 c939: y_14 + y_27 + y_82 - z_938 >= 0
 c940: y_65 - z_939 >= 0
 c941: y_21 + y_30 + y_36 + y_41 + y_43 + y_47 + y_48 + y_94 - z_940 >= 0
 c942: y_0 + y_45 - z_941 >= 0
 c943: y_17 + y_96 - z_942 >= 0
 c944: y_11 + y_19 + y_26 + y_38 + y_43 + y_52 + y_59 + y_67 + y_68 + y_69
       + y_97 - z_943 >= 0
 c945: y_3 + y_19 + y_21 + y_30 + y_33 + y_36 + y_41 + y_43 + y_47 + y_48 + y_94
       - z_944 >= 0
 c946: y_5 + y_20 + y_33 + y_34 + y_44 + y_61 + y_90 + y_93 - z_945 >= 0
 c947: y_3 + y_19 + y_33 + y_38 + y_44 + y_48 - z_946 >= 0
 c948: y_1 + y_23 + y_46 + y_49 + y_74 + y_98 + y_99 - z_947 >= 0
 c949: y_23 + y_46 + y_49 + y_74 + y_98 - z_948 >= 0
 c950: y_16 + y_50 + y_54 + y_56 + y_66 - z_949 >= 0
 c951: y_65 - z_950 >= 0
 c952: y_22 + y_57 + y_65 + y_88 - z_951 >= 0
 c953: y_15 + y_20 + y_41 + y_46 + y_48 + y_61 + y_75 + y_79 + y_80 + y_93
       + y_95 - z_952 >= 0
 c954: y_0 + y_45 - z_953 >= 0
 c955: y_13 + y_57 + y_60 + y_72 + y_76 + y_78 + y_81 - z_954 >= 0
 c956: y_17 + y_53 + y_58 + y_63 + y_91 - z_955 >= 0
 c957: y_9 + y_26 + y_32 + y_71 - z_956 >= 0
 c958: y_11 + y_68 + y_86 + y_97 - z_957 >= 0
 c959: y_10 + y_13 + y_57 + y_60 + y_72 + y_76 + y_78 + y_81 - z_958 >= 0
 c960: y_17 + y_39 + y_53 + y_58 + y_63 + y_91 - z_959 >= 0
 c961: y_13 + y_28 + y_60 + y_76 + y_81 - z_960 >= 0
 c962: y_12 + y_57 + y_88 - z_961 >= 0
 c963: y_1 + y_23 + y_31 + y_46 + y_49 + y_98 + y_99 - z_962 >= 0
 c964: y_4 + y_6 + y_32 + y_90 - z_963 >= 0
 c965: y_1 + y_23 + y_31 + y_37 + y_73 + y_89 + y_98 + y_99 - z_964 >= 0
 c966: y_40 + y_83 + y_85 + y_92 - z_965 >= 0
 c967: y_2 + y_83 + y_84 + y_85 - z_966 >= 0
 c968: y_58 + y_91 - z_967 >= 0
 c969: y_0 + y_27 + y_42 + y_55 + y_64 - z_968 >= 0
 c970: y_83 + y_84 + y_85 - z_969 >= 0
 c971: y_5 + y_8 + y_17 + y_34 + y_91 - z_970 >= 0
 c972: y_5 + y_8 + y_15 + y_20 + y_34 + y_61 + y_75 + y_79 + y_80 + y_93 - z_971
        >= 0
 c973: y_4 + y_9 + y_26 + y_32 + y_71 - z_972 >= 0
 c974: y_16 + y_50 + y_54 + y_56 + y_66 + y_87 - z_973 >= 0
 c975: y_40 + y_85 + y_92 - z_974 >= 0
 c976: y_1 + y_8 + y_46 + y_49 + y_73 + y_75 - z_975 >= 0
 c977: y_11 + y_43 + y_52 + y_59 + y_67 + y_68 + y_69 + y_97 - z_976 >= 0
 c978: y_11 + y_24 + y_30 + y_43 + y_52 + y_59 + y_68 + y_70 - z_977 >= 0
 c979: y_17 + y_53 + y_63 + y_64 + y_91 - z_978 >= 0
 c980: y_4 + y_5 + y_6 + y_90 - z_979 >= 0
 c981: y_57 + y_65 + y_72 - z_980 >= 0
 c982: y_16 + y_40 + y_54 + y_66 + y_87 + y_92 - z_981 >= 0
 c983: y_13 + y_57 + y_65 + y_72 - z_982 >= 0
 c984: y_25 + y_40 + y_66 + y_77 + y_87 + y_92 - z_983 >= 0
 c985: y_5 + y_17 + y_34 + y_91 - z_984 >= 0
 c986: y_13 + y_57 + y_60 + y_72 + y_76 + y_78 + y_81 - z_985 >= 0
 c987: y_9 + y_11 + y_19 + y_26 + y_38 + y_67 + y_68 + y_69 + y_97 - z_986 >= 0
 c988: y_0 + y_2 + y_27 + y_42 + y_55 - z_987 >= 0
 c989: y_6 + y_12 + y_22 + y_32 + y_88 - z_988 >= 0
 c990: y_25 + y_29 + y_35 + y_77 - z_989 >= 0
 c991: y_16 + y_50 + y_54 + y_56 + y_58 + y_66 + y_87 - z_990 >= 0
 c992: y_37 + y_73 + y_96 - z_991 >= 0
 c993: y_13 + y_28 + y_60 + y_76 - z_992 >= 0
 c994: y_8 + y_15 + y_20 + y_34 + y_46 + y_61 + y_75 + y_79 + y_80 + y_93 + y_95
       - z_993 >= 0
 c995: y_15 + y_18 + y_21 + y_36 + y_41 + y_47 + y_95 - z_994 >= 0
 c996: y_3 + y_19 + y_21 + y_33 + y_38 + y_43 + y_44 + y_48 - z_995 >= 0
 c997: y_24 + y_30 + y_43 + y_52 + y_59 + y_70 + y_94 - z_996 >= 0
 c998: y_27 - z_997 >= 0
 c999: y_9 + y_26 + y_67 + y_69 - z_998 >= 0
 c1000: y_5 + y_8 + y_20 + y_34 + y_61 + y_75 + y_80 + y_93 - z_999 >= 0
 c1001: 87 z_0 + 71 z_1 + 95 z_2 + 46 z_3 + 59 z_4 + 53 z_5 + 9 z_6 + 87 z_7
        + 99 z_8 + 6 z_9 + 14 z_10 + 45 z_11 + 31 z_12 + 22 z_13 + 48 z_14
        + 8 z_15 + 59 z_16 + z_17 + 79 z_18 + 30 z_19 + 8 z_20 + 59 z_21
        + 54 z_22 + 80 z_23 + 8 z_24 + 73 z_25 + 76 z_26 + 11 z_27 + 3 z_28
        + 5 z_29 + 9 z_30 + 41 z_31 + 27 z_32 + 3 z_33 + 87 z_34 + 86 z_35
        + 7 z_36 + 47 z_37 + 24 z_38 + 5 z_39 + 52 z_40 + 38 z_41 + 2 z_42
        + 34 z_43 + 11 z_44 + 49 z_45 + 93 z_46 + 70 z_47 + z_48 + 72 z_49
        + 51 z_50 + 9 z_51 + 82 z_52 + 57 z_53 + 88 z_54 + 89 z_55 + 29 z_56
        + 63 z_57 + 52 z_58 + 84 z_59 + 19 z_60 + 60 z_61 + 24 z_62 + 46 z_63
        + 15 z_64 + 62 z_65 + 83 z_66 + 73 z_67 + 8 z_68 + 58 z_69 + 30 z_70
        + 12 z_71 + 95 z_72 + 31 z_73 + 45 z_74 + 58 z_75 + 79 z_76 + 38 z_77
        + 27 z_78 + 79 z_79 + 61 z_80 + 29 z_81 + 87 z_82 + 42 z_83 + 85 z_84
        + 26 z_85 + 83 z_86 + 66 z_87 + 40 z_88 + 34 z_89 + 49 z_90 + 59 z_91
        + 45 z_92 + 24 z_93 + 56 z_94 + 11 z_95 + 86 z_96 + 90 z_97 + 84 z_98
        + 45 z_99 + 47 z_100 + 13 z_101 + 56 z_102 + 94 z_103 + 43 z_104 + z_105
        + 51 z_106 + 21 z_107 + 90 z_108 + 29 z_109 + 51 z_110 + 50 z_111
        + 57 z_112 + 38 z_113 + 43 z_114 + 42 z_115 + 15 z_116 + 25 z_117
        + 59 z_118 + 55 z_119 + 10 z_120 + 59 z_121 + 65 z_122 + 55 z_123
        + 82 z_124 + 20 z_125 + 17 z_126 + 19 z_127 + 61 z_128 + 100 z_129
        + 64 z_130 + 7 z_131 + 64 z_132 + 19 z_133 + 100 z_134 + 6 z_135
        + 71 z_136 + 2 z_137 + 78 z_138 + 12 z_139 + 30 z_140 + 29 z_141
        + 13 z_142 + 87 z_143 + 18 z_144 + 56 z_145 + 80 z_146 + 84 z_147
        + 80 z_148 + 90 z_149 + 38 z_150 + 90 z_151 + 48 z_152 + 54 z_153
        + 96 z_154 + 81 z_155 + 25 z_156 + 12 z_157 + 100 z_158 + 85 z_159
        + 12 z_160 + 15 z_161 + 44 z_162 + 27 z_163 + 85 z_164 + 43 z_165
        + 33 z_166 + 8 z_167 + 97 z_168 + 62 z_169 + 19 z_170 + 26 z_171
        + 42 z_172 + 32 z_173 + 64 z_174 + 11 z_175 + 87 z_176 + 95 z_177
        + 95 z_178 + 18 z_179 + 36 z_180 + 84 z_181 + 59 z_182 + 83 z_183
        + 38 z_184 + 54 z_185 + 16 z_186 + 14 z_187 + 18 z_188 + 15 z_189
        + 99 z_190 + 81 z_191 + 81 z_192 + 42 z_193 + 7 z_194 + 65 z_195
        + 36 z_196 + 39 z_197 + 24 z_198 + 32 z_199 + 53 z_200 + 43 z_201
        + 10 z_202 + 46 z_203 + 26 z_204 + 25 z_205 + 57 z_206 + 64 z_207
        + 72 z_208 + 3 z_209 + 81 z_210 + 7 z_211 + 86 z_212 + 92 z_213
        + 90 z_214 + 75 z_215 + 45 z_216 + 57 z_217 + 89 z_218 + 62 z_219
        + 71 z_220 + 39 z_221 + 42 z_222 + 3 z_223 + 80 z_224 + 49 z_225
        + 19 z_226 + 67 z_227 + 39 z_228 + 43 z_229 + 51 z_230 + 43 z_231
        + 85 z_232 + 60 z_233 + 89 z_234 + 62 z_235 + 36 z_236 + 97 z_237
        + 25 z_238 + 7 z_239 + 99 z_240 + 57 z_241 + 14 z_242 + 36 z_243
        + 48 z_244 + 55 z_245 + 63 z_246 + 45 z_247 + 11 z_248 + 3 z_249
        + 58 z_250 + 33 z_251 + 41 z_252 + 52 z_253 + 87 z_254 + 72 z_255
        + 100 z_256 + 5 z_257 + 90 z_258 + 90 z_259 + 47 z_260 + 40 z_261
        + 85 z_262 + 83 z_263 + 51 z_264 + 73 z_265 + 44 z_266 + 87 z_267
        + 69 z_268 + 20 z_269 + 93 z_270 + 19 z_271 + 77 z_272 + 58 z_273
        + 54 z_274 + 76 z_275 + 64 z_276 + 16 z_277 + 20 z_278 + 26 z_279
        + 70 z_280 + 78 z_281 + 10 z_282 + 10 z_283 + 81 z_284 + 96 z_285
        + 33 z_286 + 32 z_287 + z_288 + 23 z_289 + 21 z_290 + 47 z_291
        + 14 z_292 + 57 z_293 + 30 z_294 + 65 z_295 + 29 z_296 + 25 z_297
        + 51 z_298 + 49 z_299 + 45 z_300 + 95 z_301 + 19 z_302 + 73 z_303
        + 5 z_304 + 73 z_305 + 48 z_306 + 68 z_307 + 40 z_308 + 20 z_309
        + 94 z_310 + 10 z_311 + 49 z_312 + 55 z_313 + 71 z_314 + 29 z_315
        + 51 z_316 + 56 z_317 + 60 z_318 + 51 z_319 + 30 z_320 + 32 z_321
        + 49 z_322 + 43 z_323 + 89 z_324 + 78 z_325 + 7 z_326 + 69 z_327
        + 55 z_328 + 9 z_329 + 70 z_330 + 99 z_331 + 4 z_332 + 88 z_333
        + 71 z_334 + 8 z_335 + 12 z_336 + 70 z_337 + 27 z_338 + 4 z_339
        + 41 z_340 + 72 z_341 + 65 z_342 + 89 z_343 + 27 z_344 + 87 z_345
        + 17 z_346 + 77 z_347 + 42 z_348 + 28 z_349 + 79 z_350 + 23 z_351
        + 60 z_352 + 27 z_353 + 66 z_354 + 100 z_355 + 5 z_356 + 24 z_357
        + 68 z_358 + 59 z_359 + 33 z_360 + 89 z_361 + 9 z_362 + 88 z_363
        + 77 z_364 + 31 z_365 + 95 z_366 + 40 z_367 + 52 z_368 + 73 z_369
        + 43 z_370 + 93 z_371 + 45 z_372 + 7 z_373 + 81 z_374 + 23 z_375
        + 94 z_376 + 50 z_377 + 99 z_378 + 87 z_379 + 29 z_380 + 77 z_381
        + 10 z_382 + 88 z_383 + 3 z_384 + 27 z_385 + 39 z_386 + 59 z_387
        + 50 z_388 + 59 z_389 + 69 z_390 + 82 z_391 + 47 z_392 + 29 z_393
        + 21 z_394 + 75 z_395 + 59 z_396 + 15 z_397 + 15 z_398 + 63 z_399
        + 40 z_400 + 57 z_401 + 55 z_402 + 36 z_403 + 16 z_404 + 35 z_405
        + 58 z_406 + 61 z_407 + 36 z_408 + 8 z_409 + 47 z_410 + 65 z_411
        + 84 z_412 + 56 z_413 + 4 z_414 + 38 z_415 + 34 z_416 + 43 z_417
        + 49 z_418 + 84 z_419 + z_420 + 69 z_421 + 17 z_422 + 47 z_423
        + 50 z_424 + 38 z_425 + 22 z_426 + 60 z_427 + 4 z_428 + 88 z_429
        + 22 z_430 + 43 z_431 + 44 z_432 + 76 z_433 + 78 z_434 + 11 z_435
        + 63 z_436 + 87 z_437 + 71 z_438 + 98 z_439 + 94 z_440 + 18 z_441
        + 62 z_442 + 29 z_443 + 25 z_444 + 18 z_445 + 67 z_446 + 59 z_447
        + 60 z_448 + 67 z_449 + 94 z_450 + 60 z_451 + 87 z_452 + 10 z_453
        + 58 z_454 + 36 z_455 + 47 z_456 + 31 z_457 + 96 z_458 + 3 z_459
        + 18 z_460 + 17 z_461 + 97 z_462 + 14 z_463 + 93 z_464 + 75 z_465
        + 24 z_466 + 7 z_467 + 61 z_468 + 95 z_469 + 4 z_470 + 7 z_471
        + 64 z_472 + 18 z_473 + 35 z_474 + 40 z_475 + 35 z_476 + 53 z_477
        + 50 z_478 + 94 z_479 + 19 z_480 + 43 z_481 + 5 z_482 + 6 z_483
        + 5 z_484 + 14 z_485 + 93 z_486 + 3 z_487 + 45 z_488 + 88 z_489
        + 5 z_490 + 62 z_491 + 57 z_492 + 2 z_493 + 27 z_494 + 49 z_495
        + 28 z_496 + 51 z_497 + 55 z_498 + 40 z_499 + 97 z_500 + 10 z_501
        + 46 z_502 + 12 z_503 + 27 z_504 + 81 z_505 + 3 z_506 + 13 z_507
        + 33 z_508 + 53 z_509 + 58 z_510 + 4 z_511 + 47 z_512 + 62 z_513
        + 61 z_514 + 51 z_515 + 28 z_516 + 53 z_517 + 54 z_518 + 72 z_519
        + 41 z_520 + 58 z_521 + 85 z_522 + 49 z_523 + 11 z_524 + 12 z_525
        + 49 z_526 + 38 z_527 + 14 z_528 + 55 z_529 + 78 z_530 + 62 z_531
        + 64 z_532 + 75 z_533 + 25 z_534 + 43 z_535 + 55 z_536 + 27 z_537
        + 55 z_538 + 40 z_539 + 79 z_540 + 65 z_541 + 43 z_542 + 26 z_543
        + 78 z_544 + 3 z_545 + 28 z_546 + 5 z_547 + 55 z_548 + 81 z_549
        + 76 z_550 + 47 z_551 + 91 z_552 + 61 z_553 + 95 z_554 + z_555
        + 24 z_556 + 43 z_557 + 91 z_558 + 89 z_559 + 97 z_560 + 20 z_561
        + 50 z_562 + 13 z_563 + 94 z_564 + 26 z_565 + 55 z_566 + 49 z_567
        + 52 z_568 + 61 z_569 + 88 z_570 + 83 z_571 + 25 z_572 + 30 z_573
        + 60 z_574 + 3 z_575 + 84 z_576 + 87 z_577 + 7 z_578 + 38 z_579
        + 68 z_580 + 35 z_581 + 37 z_582 + 10 z_583 + 47 z_584 + 31 z_585
        + 10 z_586 + 70 z_587 + 26 z_588 + 52 z_589 + 58 z_590 + 74 z_591
        + 71 z_592 + 59 z_593 + 86 z_594 + 65 z_595 + 84 z_596 + 40 z_597
        + 65 z_598 + 87 z_599 + 53 z_600 + 4 z_601 + 69 z_602 + 77 z_603
        + 33 z_604 + 28 z_605 + 31 z_606 + 68 z_607 + 67 z_608 + 38 z_609
        + 5 z_610 + 34 z_611 + 72 z_612 + 93 z_613 + 95 z_614 + 18 z_615
        + 76 z_616 + 56 z_617 + 39 z_618 + z_619 + 8 z_620 + 48 z_621 + 74 z_622
        + 78 z_623 + 58 z_624 + 60 z_625 + 94 z_626 + 93 z_627 + 51 z_628
        + 58 z_629 + 79 z_630 + 3 z_631 + 61 z_632 + 48 z_633 + 32 z_634
        + 45 z_635 + 27 z_636 + 62 z_637 + 12 z_638 + 93 z_639 + 99 z_640
        + 69 z_641 + 78 z_642 + 22 z_643 + 61 z_644 + 72 z_645 + 91 z_646
        + 88 z_647 + 80 z_648 + 81 z_649 + 88 z_650 + 87 z_651 + 80 z_652
        + 14 z_653 + 64 z_654 + 37 z_655 + 25 z_656 + 10 z_657 + 29 z_658
        + 75 z_659 + 67 z_660 + 60 z_661 + 30 z_662 + 28 z_663 + 59 z_664
        + 61 z_665 + 72 z_666 + 85 z_667 + 74 z_668 + 36 z_669 + 30 z_670
        + 25 z_671 + 4 z_672 + 59 z_673 + 46 z_674 + 16 z_675 + 83 z_676
        + 89 z_677 + 4 z_678 + 62 z_679 + 69 z_680 + 43 z_681 + 48 z_682 + z_683
        + 56 z_684 + 63 z_685 + 37 z_686 + 32 z_687 + 72 z_688 + 18 z_689
        + 59 z_690 + 39 z_691 + 77 z_692 + 88 z_693 + 18 z_694 + 35 z_695
        + 100 z_696 + 41 z_697 + 71 z_698 + 73 z_699 + 28 z_700 + 52 z_701
        + 97 z_702 + 83 z_703 + 11 z_704 + 95 z_705 + 99 z_706 + 93 z_707
        + 83 z_708 + 54 z_709 + 54 z_710 + 3 z_711 + 48 z_712 + 53 z_713
        + 55 z_714 + 56 z_715 + 15 z_716 + 92 z_717 + 87 z_718 + 39 z_719
        + 61 z_720 + 45 z_721 + 29 z_722 + 89 z_723 + 84 z_724 + 46 z_725
        + 23 z_726 + 35 z_727 + 38 z_728 + 45 z_729 + 8 z_730 + 66 z_731
        + 97 z_732 + 56 z_733 + 48 z_734 + 7 z_735 + 50 z_736 + 98 z_737
        + 51 z_738 + 84 z_739 + 3 z_740 + 4 z_741 + 39 z_742 + 51 z_743
        + 56 z_744 + 93 z_745 + 6 z_746 + 22 z_747 + 36 z_748 + 92 z_749
        + 12 z_750 + 96 z_751 + 89 z_752 + 40 z_753 + 84 z_754 + 24 z_755
        + 37 z_756 + 58 z_757 + 59 z_758 + 27 z_759 + 3 z_760 + 66 z_761
        + 92 z_762 + 51 z_763 + 21 z_764 + 91 z_765 + 9 z_766 + 23 z_767
        + 89 z_768 + 59 z_769 + 58 z_770 + 91 z_771 + 62 z_772 + 96 z_773
        + 41 z_774 + 69 z_775 + 41 z_776 + 98 z_777 + 42 z_778 + 76 z_779
        + 42 z_780 + 54 z_781 + 24 z_782 + 30 z_783 + 45 z_784 + 59 z_785
        + 53 z_786 + 34 z_787 + 17 z_788 + 11 z_789 + 60 z_790 + 71 z_791
        + 28 z_792 + 51 z_793 + 73 z_794 + z_795 + 41 z_796 + 81 z_797
        + 75 z_798 + 81 z_799 + 39 z_800 + 32 z_801 + 72 z_802 + 100 z_803
        + 80 z_804 + 64 z_805 + 20 z_806 + 20 z_807 + 62 z_808 + 13 z_809
        + 47 z_810 + 55 z_811 + 18 z_812 + 70 z_813 + 84 z_814 + 63 z_815
        + 29 z_816 + 88 z_817 + 96 z_818 + 97 z_819 + 51 z_820 + 55 z_821
        + 67 z_822 + 30 z_823 + 57 z_824 + 39 z_825 + 30 z_826 + 97 z_827
        + 19 z_828 + 56 z_829 + 30 z_830 + 9 z_831 + 88 z_832 + z_833 + 8 z_834
        + 19 z_835 + 16 z_836 + 79 z_837 + 38 z_838 + 29 z_839 + 91 z_840
        + 36 z_841 + 83 z_842 + 9 z_843 + 6 z_844 + 18 z_845 + 23 z_846
        + 86 z_847 + 58 z_848 + 70 z_849 + 82 z_850 + 8 z_851 + 24 z_852
        + 100 z_853 + 37 z_854 + 80 z_855 + 90 z_856 + 19 z_857 + 28 z_858
        + 8 z_859 + 74 z_860 + 57 z_861 + 16 z_862 + 13 z_863 + 9 z_864
        + 75 z_865 + 31 z_866 + 77 z_867 + 5 z_868 + 20 z_869 + 57 z_870
        + 47 z_871 + 56 z_872 + 40 z_873 + 7 z_874 + 13 z_875 + 9 z_876
        + 29 z_877 + 98 z_878 + 66 z_879 + 98 z_880 + 31 z_881 + 73 z_882
        + 73 z_883 + 30 z_884 + 62 z_885 + 4 z_886 + 19 z_887 + 32 z_888
        + 84 z_889 + 78 z_890 + 57 z_891 + 92 z_892 + 45 z_893 + 70 z_894
        + 53 z_895 + 71 z_896 + 52 z_897 + 29 z_898 + 27 z_899 + 24 z_900
        + 85 z_901 + 73 z_902 + 31 z_903 + 76 z_904 + 80 z_905 + 95 z_906
        + 85 z_907 + 60 z_908 + 92 z_909 + 50 z_910 + 10 z_911 + 74 z_912
        + 75 z_913 + 82 z_914 + 3 z_915 + 36 z_916 + 38 z_917 + 73 z_918
        + 67 z_919 + 21 z_920 + 2 z_921 + 75 z_922 + 12 z_923 + 46 z_924
        + 44 z_925 + 16 z_926 + 68 z_927 + 48 z_928 + 44 z_929 + 94 z_930
        + 23 z_931 + 81 z_932 + 18 z_933 + 5 z_934 + 8 z_935 + 97 z_936
        + 99 z_937 + 92 z_938 + 9 z_939 + 90 z_940 + 94 z_941 + 18 z_942
        + 63 z_943 + 68 z_944 + 51 z_945 + 17 z_946 + 55 z_947 + 88 z_948
        + 41 z_949 + 73 z_950 + 60 z_951 + 42 z_952 + 47 z_953 + 24 z_954
        + 39 z_955 + 43 z_956 + 39 z_957 + 6 z_958 + 90 z_959 + 83 z_960
        + 51 z_961 + 64 z_962 + 15 z_963 + 68 z_964 + 68 z_965 + 22 z_966
        + 17 z_967 + 66 z_968 + 66 z_969 + 25 z_970 + 7 z_971 + 59 z_972
        + 42 z_973 + 21 z_974 + 26 z_975 + 92 z_976 + 89 z_977 + 80 z_978
        + 32 z_979 + 29 z_980 + 52 z_981 + 91 z_982 + 70 z_983 + 98 z_984
        + 14 z_985 + 60 z_986 + 92 z_987 + 53 z_988 + 17 z_989 + 33 z_990
        + 87 z_991 + 67 z_992 + 96 z_993 + z_994 + 86 z_995 + 15 z_996
        + 74 z_997 + 2 z_998 + 80 z_999 >= 34941.199999999997

Bounds
 0 <= y_0 <= 1
 0 <= y_1 <= 1
 0 <= y_2 <= 1
 0 <= y_3 <= 1
 0 <= y_4 <= 1
 0 <= y_5 <= 1
 0 <= y_6 <= 1
 0 <= y_7 <= 1
 0 <= y_8 <= 1
 0 <= y_9 <= 1
 0 <= y_10 <= 1
 0 <= y_11 <= 1
 0 <= y_12 <= 1
 0 <= y_13 <= 1
 0 <= y_14 <= 1
 0 <= y_15 <= 1
 0 <= y_16 <= 1
 0 <= y_17 <= 1
 0 <= y_18 <= 1
 0 <= y_19 <= 1
 0 <= y_20 <= 1
 0 <= y_21 <= 1
 0 <= y_22 <= 1
 0 <= y_23 <= 1
 0 <= y_24 <= 1
 0 <= y_25 <= 1
 0 <= y_26 <= 1
 0 <= y_27 <= 1
 0 <= y_28 <= 1
 0 <= y_29 <= 1
 0 <= y_30 <= 1
 0 <= y_31 <= 1
 0 <= y_32 <= 1
 0 <= y_33 <= 1
 0 <= y_34 <= 1
 0 <= y_35 <= 1
 0 <= y_36 <= 1
 0 <= y_37 <= 1
 0 <= y_38 <= 1
 0 <= y_39 <= 1
 0 <= y_40 <= 1
 0 <= y_41 <= 1
 0 <= y_42 <= 1
 0 <= y_43 <= 1
 0 <= y_44 <= 1
 0 <= y_45 <= 1
 0 <= y_46 <= 1
 0 <= y_47 <= 1
 0 <= y_48 <= 1
 0 <= y_49 <= 1
 0 <= y_50 <= 1
 0 <= y_51 <= 1
 0 <= y_52 <= 1
 0 <= y_53 <= 1
 0 <= y_54 <= 1
 0 <= y_55 <= 1
 0 <= y_56 <= 1
 0 <= y_57 <= 1
 0 <= y_58 <= 1
 0 <= y_59 <= 1
 0 <= y_60 <= 1
 0 <= y_61 <= 1
 0 <= y_62 <= 1
 0 <= y_63 <= 1
 0 <= y_64 <= 1
 0 <= y_65 <= 1
 0 <= y_66 <= 1
 0 <= y_67 <= 1
 0 <= y_68 <= 1
 0 <= y_69 <= 1
 0 <= y_70 <= 1
 0 <= y_71 <= 1
 0 <= y_72 <= 1
 0 <= y_73 <= 1
 0 <= y_74 <= 1
 0 <= y_75 <= 1
 0 <= y_76 <= 1
 0 <= y_77 <= 1
 0 <= y_78 <= 1
 0 <= y_79 <= 1
 0 <= y_80 <= 1
 0 <= y_81 <= 1
 0 <= y_82 <= 1
 0 <= y_83 <= 1
 0 <= y_84 <= 1
 0 <= y_85 <= 1
 0 <= y_86 <= 1
 0 <= y_87 <= 1
 0 <= y_88 <= 1
 0 <= y_89 <= 1
 0 <= y_90 <= 1
 0 <= y_91 <= 1
 0 <= y_92 <= 1
 0 <= y_93 <= 1
 0 <= y_94 <= 1
 0 <= y_95 <= 1
 0 <= y_96 <= 1
 0 <= y_97 <= 1
 0 <= y_98 <= 1
 0 <= y_99 <= 1
 0 <= z_0 <= 1
 0 <= z_1 <= 1
 0 <= z_2 <= 1
 0 <= z_3 <= 1
 0 <= z_4 <= 1
 0 <= z_5 <= 1
 0 <= z_6 <= 1
 0 <= z_7 <= 1
 0 <= z_8 <= 1
 0 <= z_9 <= 1
 0 <= z_10 <= 1
 0 <= z_11 <= 1
 0 <= z_12 <= 1
 0 <= z_13 <= 1
 0 <= z_14 <= 1
 0 <= z_15 <= 1
 0 <= z_16 <= 1
 0 <= z_17 <= 1
 0 <= z_18 <= 1
 0 <= z_19 <= 1
 0 <= z_20 <= 1
 0 <= z_21 <= 1
 0 <= z_22 <= 1
 0 <= z_23 <= 1
 0 <= z_24 <= 1
 0 <= z_25 <= 1
 0 <= z_26 <= 1
 0 <= z_27 <= 1
 0 <= z_28 <= 1
 0 <= z_29 <= 1
 0 <= z_30 <= 1
 0 <= z_31 <= 1
 0 <= z_32 <= 1
 0 <= z_33 <= 1
 0 <= z_34 <= 1
 0 <= z_35 <= 1
 0 <= z_36 <= 1
 0 <= z_37 <= 1
 0 <= z_38 <= 1
 0 <= z_39 <= 1
 0 <= z_40 <= 1
 0 <= z_41 <= 1
 0 <= z_42 <= 1
 0 <= z_43 <= 1
 0 <= z_44 <= 1
 0 <= z_45 <= 1
 0 <= z_46 <= 1
 0 <= z_47 <= 1
 0 <= z_48 <= 1
 0 <= z_49 <= 1
 0 <= z_50 <= 1
 0 <= z_51 <= 1
 0 <= z_52 <= 1
 0 <= z_53 <= 1
 0 <= z_54 <= 1
 0 <= z_55 <= 1
 0 <= z_56 <= 1
 0 <= z_57 <= 1
 0 <= z_58 <= 1
 0 <= z_59 <= 1
 0 <= z_60 <= 1
 0 <= z_61 <= 1
 0 <= z_62 <= 1
 0 <= z_63 <= 1
 0 <= z_64 <= 1
 0 <= z_65 <= 1
 0 <= z_66 <= 1
 0 <= z_67 <= 1
 0 <= z_68 <= 1
 0 <= z_69 <= 1
 0 <= z_70 <= 1
 0 <= z_71 <= 1
 0 <= z_72 <= 1
 0 <= z_73 <= 1
 0 <= z_74 <= 1
 0 <= z_75 <= 1
 0 <= z_76 <= 1
 0 <= z_77 <= 1
 0 <= z_78 <= 1
 0 <= z_79 <= 1
 0 <= z_80 <= 1
 0 <= z_81 <= 1
 0 <= z_82 <= 1
 0 <= z_83 <= 1
 0 <= z_84 <= 1
 0 <= z_85 <= 1
 0 <= z_86 <= 1
 0 <= z_87 <= 1
 0 <= z_88 <= 1
 0 <= z_89 <= 1
 0 <= z_90 <= 1
 0 <= z_91 <= 1
 0 <= z_92 <= 1
 0 <= z_93 <= 1
 0 <= z_94 <= 1
 0 <= z_95 <= 1
 0 <= z_96 <= 1
 0 <= z_97 <= 1
 0 <= z_98 <= 1
 0 <= z_99 <= 1
 0 <= z_100 <= 1
 0 <= z_101 <= 1
 0 <= z_102 <= 1
 0 <= z_103 <= 1
 0 <= z_104 <= 1
 0 <= z_105 <= 1
 0 <= z_106 <= 1
 0 <= z_107 <= 1
 0 <= z_108 <= 1
 0 <= z_109 <= 1
 0 <= z_110 <= 1
 0 <= z_111 <= 1
 0 <= z_112 <= 1
 0 <= z_113 <= 1
 0 <= z_114 <= 1
 0 <= z_115 <= 1
 0 <= z_116 <= 1
 0 <= z_117 <= 1
 0 <= z_118 <= 1
 0 <= z_119 <= 1
 0 <= z_120 <= 1
 0 <= z_121 <= 1
 0 <= z_122 <= 1
 0 <= z_123 <= 1
 0 <= z_124 <= 1
 0 <= z_125 <= 1
 0 <= z_126 <= 1
 0 <= z_127 <= 1
 0 <= z_128 <= 1
 0 <= z_129 <= 1
 0 <= z_130 <= 1
 0 <= z_131 <= 1
 0 <= z_132 <= 1
 0 <= z_133 <= 1
 0 <= z_134 <= 1
 0 <= z_135 <= 1
 0 <= z_136 <= 1
 0 <= z_137 <= 1
 0 <= z_138 <= 1
 0 <= z_139 <= 1
 0 <= z_140 <= 1
 0 <= z_141 <= 1
 0 <= z_142 <= 1
 0 <= z_143 <= 1
 0 <= z_144 <= 1
 0 <= z_145 <= 1
 0 <= z_146 <= 1
 0 <= z_147 <= 1
 0 <= z_148 <= 1
 0 <= z_149 <= 1
 0 <= z_150 <= 1
 0 <= z_151 <= 1
 0 <= z_152 <= 1
 0 <= z_153 <= 1
 0 <= z_154 <= 1
 0 <= z_155 <= 1
 0 <= z_156 <= 1
 0 <= z_157 <= 1
 0 <= z_158 <= 1
 0 <= z_159 <= 1
 0 <= z_160 <= 1
 0 <= z_161 <= 1
 0 <= z_162 <= 1
 0 <= z_163 <= 1
 0 <= z_164 <= 1
 0 <= z_165 <= 1
 0 <= z_166 <= 1
 0 <= z_167 <= 1
 0 <= z_168 <= 1
 0 <= z_169 <= 1
 0 <= z_170 <= 1
 0 <= z_171 <= 1
 0 <= z_172 <= 1
 0 <= z_173 <= 1
 0 <= z_174 <= 1
 0 <= z_175 <= 1
 0 <= z_176 <= 1
 0 <= z_177 <= 1
 0 <= z_178 <= 1
 0 <= z_179 <= 1
 0 <= z_180 <= 1
 0 <= z_181 <= 1
 0 <= z_182 <= 1
 0 <= z_183 <= 1
 0 <= z_184 <= 1
 0 <= z_185 <= 1
 0 <= z_186 <= 1
 0 <= z_187 <= 1
 0 <= z_188 <= 1
 0 <= z_189 <= 1
 0 <= z_190 <= 1
 0 <= z_191 <= 1
 0 <= z_192 <= 1
 0 <= z_193 <= 1
 0 <= z_194 <= 1
 0 <= z_195 <= 1
 0 <= z_196 <= 1
 0 <= z_197 <= 1
 0 <= z_198 <= 1
 0 <= z_199 <= 1
 0 <= z_200 <= 1
 0 <= z_201 <= 1
 0 <= z_202 <= 1
 0 <= z_203 <= 1
 0 <= z_204 <= 1
 0 <= z_205 <= 1
 0 <= z_206 <= 1
 0 <= z_207 <= 1
 0 <= z_208 <= 1
 0 <= z_209 <= 1
 0 <= z_210 <= 1
 0 <= z_211 <= 1
 0 <= z_212 <= 1
 0 <= z_213 <= 1
 0 <= z_214 <= 1
 0 <= z_215 <= 1
 0 <= z_216 <= 1
 0 <= z_217 <= 1
 0 <= z_218 <= 1
 0 <= z_219 <= 1
 0 <= z_220 <= 1
 0 <= z_221 <= 1
 0 <= z_222 <= 1
 0 <= z_223 <= 1
 0 <= z_224 <= 1
 0 <= z_225 <= 1
 0 <= z_226 <= 1
 0 <= z_227 <= 1
 0 <= z_228 <= 1
 0 <= z_229 <= 1
 0 <= z_230 <= 1
 0 <= z_231 <= 1
 0 <= z_232 <= 1
 0 <= z_233 <= 1
 0 <= z_234 <= 1
 0 <= z_235 <= 1
 0 <= z_236 <= 1
 0 <= z_237 <= 1
 0 <= z_238 <= 1
 0 <= z_239 <= 1
 0 <= z_240 <= 1
 0 <= z_241 <= 1
 0 <= z_242 <= 1
 0 <= z_243 <= 1
 0 <= z_244 <= 1
 0 <= z_245 <= 1
 0 <= z_246 <= 1
 0 <= z_247 <= 1
 0 <= z_248 <= 1
 0 <= z_249 <= 1
 0 <= z_250 <= 1
 0 <= z_251 <= 1
 0 <= z_252 <= 1
 0 <= z_253 <= 1
 0 <= z_254 <= 1
 0 <= z_255 <= 1
 0 <= z_256 <= 1
 0 <= z_257 <= 1
 0 <= z_258 <= 1
 0 <= z_259 <= 1
 0 <= z_260 <= 1
 0 <= z_261 <= 1
 0 <= z_262 <= 1
 0 <= z_263 <= 1
 0 <= z_264 <= 1
 0 <= z_265 <= 1
 0 <= z_266 <= 1
 0 <= z_267 <= 1
 0 <= z_268 <= 1
 0 <= z_269 <= 1
 0 <= z_270 <= 1
 0 <= z_271 <= 1
 0 <= z_272 <= 1
 0 <= z_273 <= 1
 0 <= z_274 <= 1
 0 <= z_275 <= 1
 0 <= z_276 <= 1
 0 <= z_277 <= 1
 0 <= z_278 <= 1
 0 <= z_279 <= 1
 0 <= z_280 <= 1
 0 <= z_281 <= 1
 0 <= z_282 <= 1
 0 <= z_283 <= 1
 0 <= z_284 <= 1
 0 <= z_285 <= 1
 0 <= z_286 <= 1
 0 <= z_287 <= 1
 0 <= z_288 <= 1
 0 <= z_289 <= 1
 0 <= z_290 <= 1
 0 <= z_291 <= 1
 0 <= z_292 <= 1
 0 <= z_293 <= 1
 0 <= z_294 <= 1
 0 <= z_295 <= 1
 0 <= z_296 <= 1
 0 <= z_297 <= 1
 0 <= z_298 <= 1
 0 <= z_299 <= 1
 0 <= z_300 <= 1
 0 <= z_301 <= 1
 0 <= z_302 <= 1
 0 <= z_303 <= 1
 0 <= z_304 <= 1
 0 <= z_305 <= 1
 0 <= z_306 <= 1
 0 <= z_307 <= 1
 0 <= z_308 <= 1
 0 <= z_309 <= 1
 0 <= z_310 <= 1
 0 <= z_311 <= 1
 0 <= z_312 <= 1
 0 <= z_313 <= 1
 0 <= z_314 <= 1
 0 <= z_315 <= 1
 0 <= z_316 <= 1
 0 <= z_317 <= 1
 0 <= z_318 <= 1
 0 <= z_319 <= 1
 0 <= z_320 <= 1
 0 <= z_321 <= 1
 0 <= z_322 <= 1
 0 <= z_323 <= 1
 0 <= z_324 <= 1
 0 <= z_325 <= 1
 0 <= z_326 <= 1
 0 <= z_327 <= 1
 0 <= z_328 <= 1
 0 <= z_329 <= 1
 0 <= z_330 <= 1
 0 <= z_331 <= 1
 0 <= z_332 <= 1
 0 <= z_333 <= 1
 0 <= z_334 <= 1
 0 <= z_335 <= 1
 0 <= z_336 <= 1
 0 <= z_337 <= 1
 0 <= z_338 <= 1
 0 <= z_339 <= 1
 0 <= z_340 <= 1
 0 <= z_341 <= 1
 0 <= z_342 <= 1
 0 <= z_343 <= 1
 0 <= z_344 <= 1
 0 <= z_345 <= 1
 0 <= z_346 <= 1
 0 <= z_347 <= 1
 0 <= z_348 <= 1
 0 <= z_349 <= 1
 0 <= z_350 <= 1
 0 <= z_351 <= 1
 0 <= z_352 <= 1
 0 <= z_353 <= 1
 0 <= z_354 <= 1
 0 <= z_355 <= 1
 0 <= z_356 <= 1
 0 <= z_357 <= 1
 0 <= z_358 <= 1
 0 <= z_359 <= 1
 0 <= z_360 <= 1
 0 <= z_361 <= 1
 0 <= z_362 <= 1
 0 <= z_363 <= 1
 0 <= z_364 <= 1
 0 <= z_365 <= 1
 0 <= z_366 <= 1
 0 <= z_367 <= 1
 0 <= z_368 <= 1
 0 <= z_369 <= 1
 0 <= z_370 <= 1
 0 <= z_371 <= 1
 0 <= z_372 <= 1
 0 <= z_373 <= 1
 0 <= z_374 <= 1
 0 <= z_375 <= 1
 0 <= z_376 <= 1
 0 <= z_377 <= 1
 0 <= z_378 <= 1
 0 <= z_379 <= 1
 0 <= z_380 <= 1
 0 <= z_381 <= 1
 0 <= z_382 <= 1
 0 <= z_383 <= 1
 0 <= z_384 <= 1
 0 <= z_385 <= 1
 0 <= z_386 <= 1
 0 <= z_387 <= 1
 0 <= z_388 <= 1
 0 <= z_389 <= 1
 0 <= z_390 <= 1
 0 <= z_391 <= 1
 0 <= z_392 <= 1
 0 <= z_393 <= 1
 0 <= z_394 <= 1
 0 <= z_395 <= 1
 0 <= z_396 <= 1
 0 <= z_397 <= 1
 0 <= z_398 <= 1
 0 <= z_399 <= 1
 0 <= z_400 <= 1
 0 <= z_401 <= 1
 0 <= z_402 <= 1
 0 <= z_403 <= 1
 0 <= z_404 <= 1
 0 <= z_405 <= 1
 0 <= z_406 <= 1
 0 <= z_407 <= 1
 0 <= z_408 <= 1
 0 <= z_409 <= 1
 0 <= z_410 <= 1
 0 <= z_411 <= 1
 0 <= z_412 <= 1
 0 <= z_413 <= 1
 0 <= z_414 <= 1
 0 <= z_415 <= 1
 0 <= z_416 <= 1
 0 <= z_417 <= 1
 0 <= z_418 <= 1
 0 <= z_419 <= 1
 0 <= z_420 <= 1
 0 <= z_421 <= 1
 0 <= z_422 <= 1
 0 <= z_423 <= 1
 0 <= z_424 <= 1
 0 <= z_425 <= 1
 0 <= z_426 <= 1
 0 <= z_427 <= 1
 0 <= z_428 <= 1
 0 <= z_429 <= 1
 0 <= z_430 <= 1
 0 <= z_431 <= 1
 0 <= z_432 <= 1
 0 <= z_433 <= 1
 0 <= z_434 <= 1
 0 <= z_435 <= 1
 0 <= z_436 <= 1
 0 <= z_437 <= 1
 0 <= z_438 <= 1
 0 <= z_439 <= 1
 0 <= z_440 <= 1
 0 <= z_441 <= 1
 0 <= z_442 <= 1
 0 <= z_443 <= 1
 0 <= z_444 <= 1
 0 <= z_445 <= 1
 0 <= z_446 <= 1
 0 <= z_447 <= 1
 0 <= z_448 <= 1
 0 <= z_449 <= 1
 0 <= z_450 <= 1
 0 <= z_451 <= 1
 0 <= z_452 <= 1
 0 <= z_453 <= 1
 0 <= z_454 <= 1
 0 <= z_455 <= 1
 0 <= z_456 <= 1
 0 <= z_457 <= 1
 0 <= z_458 <= 1
 0 <= z_459 <= 1
 0 <= z_460 <= 1
 0 <= z_461 <= 1
 0 <= z_462 <= 1
 0 <= z_463 <= 1
 0 <= z_464 <= 1
 0 <= z_465 <= 1
 0 <= z_466 <= 1
 0 <= z_467 <= 1
 0 <= z_468 <= 1
 0 <= z_469 <= 1
 0 <= z_470 <= 1
 0 <= z_471 <= 1
 0 <= z_472 <= 1
 0 <= z_473 <= 1
 0 <= z_474 <= 1
 0 <= z_475 <= 1
 0 <= z_476 <= 1
 0 <= z_477 <= 1
 0 <= z_478 <= 1
 0 <= z_479 <= 1
 0 <= z_480 <= 1
 0 <= z_481 <= 1
 0 <= z_482 <= 1
 0 <= z_483 <= 1
 0 <= z_484 <= 1
 0 <= z_485 <= 1
 0 <= z_486 <= 1
 0 <= z_487 <= 1
 0 <= z_488 <= 1
 0 <= z_489 <= 1
 0 <= z_490 <= 1
 0 <= z_491 <= 1
 0 <= z_492 <= 1
 0 <= z_493 <= 1
 0 <= z_494 <= 1
 0 <= z_495 <= 1
 0 <= z_496 <= 1
 0 <= z_497 <= 1
 0 <= z_498 <= 1
 0 <= z_499 <= 1
 0 <= z_500 <= 1
 0 <= z_501 <= 1
 0 <= z_502 <= 1
 0 <= z_503 <= 1
 0 <= z_504 <= 1
 0 <= z_505 <= 1
 0 <= z_506 <= 1
 0 <= z_507 <= 1
 0 <= z_508 <= 1
 0 <= z_509 <= 1
 0 <= z_510 <= 1
 0 <= z_511 <= 1
 0 <= z_512 <= 1
 0 <= z_513 <= 1
 0 <= z_514 <= 1
 0 <= z_515 <= 1
 0 <= z_516 <= 1
 0 <= z_517 <= 1
 0 <= z_518 <= 1
 0 <= z_519 <= 1
 0 <= z_520 <= 1
 0 <= z_521 <= 1
 0 <= z_522 <= 1
 0 <= z_523 <= 1
 0 <= z_524 <= 1
 0 <= z_525 <= 1
 0 <= z_526 <= 1
 0 <= z_527 <= 1
 0 <= z_528 <= 1
 0 <= z_529 <= 1
 0 <= z_530 <= 1
 0 <= z_531 <= 1
 0 <= z_532 <= 1
 0 <= z_533 <= 1
 0 <= z_534 <= 1
 0 <= z_535 <= 1
 0 <= z_536 <= 1
 0 <= z_537 <= 1
 0 <= z_538 <= 1
 0 <= z_539 <= 1
 0 <= z_540 <= 1
 0 <= z_541 <= 1
 0 <= z_542 <= 1
 0 <= z_543 <= 1
 0 <= z_544 <= 1
 0 <= z_545 <= 1
 0 <= z_546 <= 1
 0 <= z_547 <= 1
 0 <= z_548 <= 1
 0 <= z_549 <= 1
 0 <= z_550 <= 1
 0 <= z_551 <= 1
 0 <= z_552 <= 1
 0 <= z_553 <= 1
 0 <= z_554 <= 1
 0 <= z_555 <= 1
 0 <= z_556 <= 1
 0 <= z_557 <= 1
 0 <= z_558 <= 1
 0 <= z_559 <= 1
 0 <= z_560 <= 1
 0 <= z_561 <= 1
 0 <= z_562 <= 1
 0 <= z_563 <= 1
 0 <= z_564 <= 1
 0 <= z_565 <= 1
 0 <= z_566 <= 1
 0 <= z_567 <= 1
 0 <= z_568 <= 1
 0 <= z_569 <= 1
 0 <= z_570 <= 1
 0 <= z_571 <= 1
 0 <= z_572 <= 1
 0 <= z_573 <= 1
 0 <= z_574 <= 1
 0 <= z_575 <= 1
 0 <= z_576 <= 1
 0 <= z_577 <= 1
 0 <= z_578 <= 1
 0 <= z_579 <= 1
 0 <= z_580 <= 1
 0 <= z_581 <= 1
 0 <= z_582 <= 1
 0 <= z_583 <= 1
 0 <= z_584 <= 1
 0 <= z_585 <= 1
 0 <= z_586 <= 1
 0 <= z_587 <= 1
 0 <= z_588 <= 1
 0 <= z_589 <= 1
 0 <= z_590 <= 1
 0 <= z_591 <= 1
 0 <= z_592 <= 1
 0 <= z_593 <= 1
 0 <= z_594 <= 1
 0 <= z_595 <= 1
 0 <= z_596 <= 1
 0 <= z_597 <= 1
 0 <= z_598 <= 1
 0 <= z_599 <= 1
 0 <= z_600 <= 1
 0 <= z_601 <= 1
 0 <= z_602 <= 1
 0 <= z_603 <= 1
 0 <= z_604 <= 1
 0 <= z_605 <= 1
 0 <= z_606 <= 1
 0 <= z_607 <= 1
 0 <= z_608 <= 1
 0 <= z_609 <= 1
 0 <= z_610 <= 1
 0 <= z_611 <= 1
 0 <= z_612 <= 1
 0 <= z_613 <= 1
 0 <= z_614 <= 1
 0 <= z_615 <= 1
 0 <= z_616 <= 1
 0 <= z_617 <= 1
 0 <= z_618 <= 1
 0 <= z_619 <= 1
 0 <= z_620 <= 1
 0 <= z_621 <= 1
 0 <= z_622 <= 1
 0 <= z_623 <= 1
 0 <= z_624 <= 1
 0 <= z_625 <= 1
 0 <= z_626 <= 1
 0 <= z_627 <= 1
 0 <= z_628 <= 1
 0 <= z_629 <= 1
 0 <= z_630 <= 1
 0 <= z_631 <= 1
 0 <= z_632 <= 1
 0 <= z_633 <= 1
 0 <= z_634 <= 1
 0 <= z_635 <= 1
 0 <= z_636 <= 1
 0 <= z_637 <= 1
 0 <= z_638 <= 1
 0 <= z_639 <= 1
 0 <= z_640 <= 1
 0 <= z_641 <= 1
 0 <= z_642 <= 1
 0 <= z_643 <= 1
 0 <= z_644 <= 1
 0 <= z_645 <= 1
 0 <= z_646 <= 1
 0 <= z_647 <= 1
 0 <= z_648 <= 1
 0 <= z_649 <= 1
 0 <= z_650 <= 1
 0 <= z_651 <= 1
 0 <= z_652 <= 1
 0 <= z_653 <= 1
 0 <= z_654 <= 1
 0 <= z_655 <= 1
 0 <= z_656 <= 1
 0 <= z_657 <= 1
 0 <= z_658 <= 1
 0 <= z_659 <= 1
 0 <= z_660 <= 1
 0 <= z_661 <= 1
 0 <= z_662 <= 1
 0 <= z_663 <= 1
 0 <= z_664 <= 1
 0 <= z_665 <= 1
 0 <= z_666 <= 1
 0 <= z_667 <= 1
 0 <= z_668 <= 1
 0 <= z_669 <= 1
 0 <= z_670 <= 1
 0 <= z_671 <= 1
 0 <= z_672 <= 1
 0 <= z_673 <= 1
 0 <= z_674 <= 1
 0 <= z_675 <= 1
 0 <= z_676 <= 1
 0 <= z_677 <= 1
 0 <= z_678 <= 1
 0 <= z_679 <= 1
 0 <= z_680 <= 1
 0 <= z_681 <= 1
 0 <= z_682 <= 1
 0 <= z_683 <= 1
 0 <= z_684 <= 1
 0 <= z_685 <= 1
 0 <= z_686 <= 1
 0 <= z_687 <= 1
 0 <= z_688 <= 1
 0 <= z_689 <= 1
 0 <= z_690 <= 1
 0 <= z_691 <= 1
 0 <= z_692 <= 1
 0 <= z_693 <= 1
 0 <= z_694 <= 1
 0 <= z_695 <= 1
 0 <= z_696 <= 1
 0 <= z_697 <= 1
 0 <= z_698 <= 1
 0 <= z_699 <= 1
 0 <= z_700 <= 1
 0 <= z_701 <= 1
 0 <= z_702 <= 1
 0 <= z_703 <= 1
 0 <= z_704 <= 1
 0 <= z_705 <= 1
 0 <= z_706 <= 1
 0 <= z_707 <= 1
 0 <= z_708 <= 1
 0 <= z_709 <= 1
 0 <= z_710 <= 1
 0 <= z_711 <= 1
 0 <= z_712 <= 1
 0 <= z_713 <= 1
 0 <= z_714 <= 1
 0 <= z_715 <= 1
 0 <= z_716 <= 1
 0 <= z_717 <= 1
 0 <= z_718 <= 1
 0 <= z_719 <= 1
 0 <= z_720 <= 1
 0 <= z_721 <= 1
 0 <= z_722 <= 1
 0 <= z_723 <= 1
 0 <= z_724 <= 1
 0 <= z_725 <= 1
 0 <= z_726 <= 1
 0 <= z_727 <= 1
 0 <= z_728 <= 1
 0 <= z_729 <= 1
 0 <= z_730 <= 1
 0 <= z_731 <= 1
 0 <= z_732 <= 1
 0 <= z_733 <= 1
 0 <= z_734 <= 1
 0 <= z_735 <= 1
 0 <= z_736 <= 1
 0 <= z_737 <= 1
 0 <= z_738 <= 1
 0 <= z_739 <= 1
 0 <= z_740 <= 1
 0 <= z_741 <= 1
 0 <= z_742 <= 1
 0 <= z_743 <= 1
 0 <= z_744 <= 1
 0 <= z_745 <= 1
 0 <= z_746 <= 1
 0 <= z_747 <= 1
 0 <= z_748 <= 1
 0 <= z_749 <= 1
 0 <= z_750 <= 1
 0 <= z_751 <= 1
 0 <= z_752 <= 1
 0 <= z_753 <= 1
 0 <= z_754 <= 1
 0 <= z_755 <= 1
 0 <= z_756 <= 1
 0 <= z_757 <= 1
 0 <= z_758 <= 1
 0 <= z_759 <= 1
 0 <= z_760 <= 1
 0 <= z_761 <= 1
 0 <= z_762 <= 1
 0 <= z_763 <= 1
 0 <= z_764 <= 1
 0 <= z_765 <= 1
 0 <= z_766 <= 1
 0 <= z_767 <= 1
 0 <= z_768 <= 1
 0 <= z_769 <= 1
 0 <= z_770 <= 1
 0 <= z_771 <= 1
 0 <= z_772 <= 1
 0 <= z_773 <= 1
 0 <= z_774 <= 1
 0 <= z_775 <= 1
 0 <= z_776 <= 1
 0 <= z_777 <= 1
 0 <= z_778 <= 1
 0 <= z_779 <= 1
 0 <= z_780 <= 1
 0 <= z_781 <= 1
 0 <= z_782 <= 1
 0 <= z_783 <= 1
 0 <= z_784 <= 1
 0 <= z_785 <= 1
 0 <= z_786 <= 1
 0 <= z_787 <= 1
 0 <= z_788 <= 1
 0 <= z_789 <= 1
 0 <= z_790 <= 1
 0 <= z_791 <= 1
 0 <= z_792 <= 1
 0 <= z_793 <= 1
 0 <= z_794 <= 1
 0 <= z_795 <= 1
 0 <= z_796 <= 1
 0 <= z_797 <= 1
 0 <= z_798 <= 1
 0 <= z_799 <= 1
 0 <= z_800 <= 1
 0 <= z_801 <= 1
 0 <= z_802 <= 1
 0 <= z_803 <= 1
 0 <= z_804 <= 1
 0 <= z_805 <= 1
 0 <= z_806 <= 1
 0 <= z_807 <= 1
 0 <= z_808 <= 1
 0 <= z_809 <= 1
 0 <= z_810 <= 1
 0 <= z_811 <= 1
 0 <= z_812 <= 1
 0 <= z_813 <= 1
 0 <= z_814 <= 1
 0 <= z_815 <= 1
 0 <= z_816 <= 1
 0 <= z_817 <= 1
 0 <= z_818 <= 1
 0 <= z_819 <= 1
 0 <= z_820 <= 1
 0 <= z_821 <= 1
 0 <= z_822 <= 1
 0 <= z_823 <= 1
 0 <= z_824 <= 1
 0 <= z_825 <= 1
 0 <= z_826 <= 1
 0 <= z_827 <= 1
 0 <= z_828 <= 1
 0 <= z_829 <= 1
 0 <= z_830 <= 1
 0 <= z_831 <= 1
 0 <= z_832 <= 1
 0 <= z_833 <= 1
 0 <= z_834 <= 1
 0 <= z_835 <= 1
 0 <= z_836 <= 1
 0 <= z_837 <= 1
 0 <= z_838 <= 1
 0 <= z_839 <= 1
 0 <= z_840 <= 1
 0 <= z_841 <= 1
 0 <= z_842 <= 1
 0 <= z_843 <= 1
 0 <= z_844 <= 1
 0 <= z_845 <= 1
 0 <= z_846 <= 1
 0 <= z_847 <= 1
 0 <= z_848 <= 1
 0 <= z_849 <= 1
 0 <= z_850 <= 1
 0 <= z_851 <= 1
 0 <= z_852 <= 1
 0 <= z_853 <= 1
 0 <= z_854 <= 1
 0 <= z_855 <= 1
 0 <= z_856 <= 1
 0 <= z_857 <= 1
 0 <= z_858 <= 1
 0 <= z_859 <= 1
 0 <= z_860 <= 1
 0 <= z_861 <= 1
 0 <= z_862 <= 1
 0 <= z_863 <= 1
 0 <= z_864 <= 1
 0 <= z_865 <= 1
 0 <= z_866 <= 1
 0 <= z_867 <= 1
 0 <= z_868 <= 1
 0 <= z_869 <= 1
 0 <= z_870 <= 1
 0 <= z_871 <= 1
 0 <= z_872 <= 1
 0 <= z_873 <= 1
 0 <= z_874 <= 1
 0 <= z_875 <= 1
 0 <= z_876 <= 1
 0 <= z_877 <= 1
 0 <= z_878 <= 1
 0 <= z_879 <= 1
 0 <= z_880 <= 1
 0 <= z_881 <= 1
 0 <= z_882 <= 1
 0 <= z_883 <= 1
 0 <= z_884 <= 1
 0 <= z_885 <= 1
 0 <= z_886 <= 1
 0 <= z_887 <= 1
 0 <= z_888 <= 1
 0 <= z_889 <= 1
 0 <= z_890 <= 1
 0 <= z_891 <= 1
 0 <= z_892 <= 1
 0 <= z_893 <= 1
 0 <= z_894 <= 1
 0 <= z_895 <= 1
 0 <= z_896 <= 1
 0 <= z_897 <= 1
 0 <= z_898 <= 1
 0 <= z_899 <= 1
 0 <= z_900 <= 1
 0 <= z_901 <= 1
 0 <= z_902 <= 1
 0 <= z_903 <= 1
 0 <= z_904 <= 1
 0 <= z_905 <= 1
 0 <= z_906 <= 1
 0 <= z_907 <= 1
 0 <= z_908 <= 1
 0 <= z_909 <= 1
 0 <= z_910 <= 1
 0 <= z_911 <= 1
 0 <= z_912 <= 1
 0 <= z_913 <= 1
 0 <= z_914 <= 1
 0 <= z_915 <= 1
 0 <= z_916 <= 1
 0 <= z_917 <= 1
 0 <= z_918 <= 1
 0 <= z_919 <= 1
 0 <= z_920 <= 1
 0 <= z_921 <= 1
 0 <= z_922 <= 1
 0 <= z_923 <= 1
 0 <= z_924 <= 1
 0 <= z_925 <= 1
 0 <= z_926 <= 1
 0 <= z_927 <= 1
 0 <= z_928 <= 1
 0 <= z_929 <= 1
 0 <= z_930 <= 1
 0 <= z_931 <= 1
 0 <= z_932 <= 1
 0 <= z_933 <= 1
 0 <= z_934 <= 1
 0 <= z_935 <= 1
 0 <= z_936 <= 1
 0 <= z_937 <= 1
 0 <= z_938 <= 1
 0 <= z_939 <= 1
 0 <= z_940 <= 1
 0 <= z_941 <= 1
 0 <= z_942 <= 1
 0 <= z_943 <= 1
 0 <= z_944 <= 1
 0 <= z_945 <= 1
 0 <= z_946 <= 1
 0 <= z_947 <= 1
 0 <= z_948 <= 1
 0 <= z_949 <= 1
 0 <= z_950 <= 1
 0 <= z_951 <= 1
 0 <= z_952 <= 1
 0 <= z_953 <= 1
 0 <= z_954 <= 1
 0 <= z_955 <= 1
 0 <= z_956 <= 1
 0 <= z_957 <= 1
 0 <= z_958 <= 1
 0 <= z_959 <= 1
 0 <= z_960 <= 1
 0 <= z_961 <= 1
 0 <= z_962 <= 1
 0 <= z_963 <= 1
 0 <= z_964 <= 1
 0 <= z_965 <= 1
 0 <= z_966 <= 1
 0 <= z_967 <= 1
 0 <= z_968 <= 1
 0 <= z_969 <= 1
 0 <= z_970 <= 1
 0 <= z_971 <= 1
 0 <= z_972 <= 1
 0 <= z_973 <= 1
 0 <= z_974 <= 1
 0 <= z_975 <= 1
 0 <= z_976 <= 1
 0 <= z_977 <= 1
 0 <= z_978 <= 1
 0 <= z_979 <= 1
 0 <= z_980 <= 1
 0 <= z_981 <= 1
 0 <= z_982 <= 1
 0 <= z_983 <= 1
 0 <= z_984 <= 1
 0 <= z_985 <= 1
 0 <= z_986 <= 1
 0 <= z_987 <= 1
 0 <= z_988 <= 1
 0 <= z_989 <= 1
 0 <= z_990 <= 1
 0 <= z_991 <= 1
 0 <= z_992 <= 1
 0 <= z_993 <= 1
 0 <= z_994 <= 1
 0 <= z_995 <= 1
 0 <= z_996 <= 1
 0 <= z_997 <= 1
 0 <= z_998 <= 1
 0 <= z_999 <= 1

Binaries
 y_0 y_1 y_2 y_3 y_4 y_5 y_6 y_7 y_8 y_9 y_10 y_11 y_12 y_13 y_14 y_15 y_16 y_17
 y_18 y_19 y_20 y_21 y_22 y_23 y_24 y_25 y_26 y_27 y_28 y_29 y_30 y_31 y_32 y_33
 y_34 y_35 y_36 y_37 y_38 y_39 y_40 y_41 y_42 y_43 y_44 y_45 y_46 y_47 y_48 y_49
 y_50 y_51 y_52 y_53 y_54 y_55 y_56 y_57 y_58 y_59 y_60 y_61 y_62 y_63 y_64 y_65
 y_66 y_67 y_68 y_69 y_70 y_71 y_72 y_73 y_74 y_75 y_76 y_77 y_78 y_79 y_80 y_81
 y_82 y_83 y_84 y_85 y_86 y_87 y_88 y_89 y_90 y_91 y_92 y_93 y_94 y_95 y_96 y_97
 y_98 y_99 z_0 z_1 z_2 z_3 z_4 z_5 z_6 z_7 z_8 z_9 z_10 z_11 z_12 z_13 z_14 z_15
 z_16 z_17 z_18 z_19 z_20 z_21 z_22 z_23 z_24 z_25 z_26 z_27 z_28 z_29 z_30 z_31
 z_32 z_33 z_34 z_35 z_36 z_37 z_38 z_39 z_40 z_41 z_42 z_43 z_44 z_45 z_46 z_47
 z_48 z_49 z_50 z_51 z_52 z_53 z_54 z_55 z_56 z_57 z_58 z_59 z_60 z_61 z_62 z_63
 z_64 z_65 z_66 z_67 z_68 z_69 z_70 z_71 z_72 z_73 z_74 z_75 z_76 z_77 z_78 z_79
 z_80 z_81 z_82 z_83 z_84 z_85 z_86 z_87 z_88 z_89 z_90 z_91 z_92 z_93 z_94 z_95
 z_96 z_97 z_98 z_99 z_100 z_101 z_102 z_103 z_104 z_105 z_106 z_107 z_108 z_109
 z_110 z_111 z_112 z_113 z_114 z_115 z_116 z_117 z_118 z_119 z_120 z_121 z_122
 z_123 z_124 z_125 z_126 z_127 z_128 z_129 z_130 z_131 z_132 z_133 z_134 z_135
 z_136 z_137 z_138 z_139 z_140 z_141 z_142 z_143 z_144 z_145 z_146 z_147 z_148
 z_149 z_150 z_151 z_152 z_153 z_154 z_155 z_156 z_157 z_158 z_159 z_160 z_161
 z_162 z_163 z_164 z_165 z_166 z_167 z_168 z_169 z_170 z_171 z_172 z_173 z_174
 z_175 z_176 z_177 z_178 z_179 z_180 z_181 z_182 z_183 z_184 z_185 z_186 z_187
 z_188 z_189 z_190 z_191 z_192 z_193 z_194 z_195 z_196 z_197 z_198 z_199 z_200
 z_201 z_202 z_203 z_204 z_205 z_206 z_207 z_208 z_209 z_210 z_211 z_212 z_213
 z_214 z_215 z_216 z_217 z_218 z_219 z_220 z_221 z_222 z_223 z_224 z_225 z_226
 z_227 z_228 z_229 z_230 z_231 z_232 z_233 z_234 z_235 z_236 z_237 z_238 z_239
 z_240 z_241 z_242 z_243 z_244 z_245 z_246 z_247 z_248 z_249 z_250 z_251 z_252
 z_253 z_254 z_255 z_256 z_257 z_258 z_259 z_260 z_261 z_262 z_263 z_264 z_265
 z_266 z_267 z_268 z_269 z_270 z_271 z_272 z_273 z_274 z_275 z_276 z_277 z_278
 z_279 z_280 z_281 z_282 z_283 z_284 z_285 z_286 z_287 z_288 z_289 z_290 z_291
 z_292 z_293 z_294 z_295 z_296 z_297 z_298 z_299 z_300 z_301 z_302 z_303 z_304
 z_305 z_306 z_307 z_308 z_309 z_310 z_311 z_312 z_313 z_314 z_315 z_316 z_317
 z_318 z_319 z_320 z_321 z_322 z_323 z_324 z_325 z_326 z_327 z_328 z_329 z_330
 z_331 z_332 z_333 z_334 z_335 z_336 z_337 z_338 z_339 z_340 z_341 z_342 z_343
 z_344 z_345 z_346 z_347 z_348 z_349 z_350 z_351 z_352 z_353 z_354 z_355 z_356
 z_357 z_358 z_359 z_360 z_361 z_362 z_363 z_364 z_365 z_366 z_367 z_368 z_369
 z_370 z_371 z_372 z_373 z_374 z_375 z_376 z_377 z_378 z_379 z_380 z_381 z_382
 z_383 z_384 z_385 z_386 z_387 z_388 z_389 z_390 z_391 z_392 z_393 z_394 z_395
 z_396 z_397 z_398 z_399 z_400 z_401 z_402 z_403 z_404 z_405 z_406 z_407 z_408
 z_409 z_410 z_411 z_412 z_413 z_414 z_415 z_416 z_417 z_418 z_419 z_420 z_421
 z_422 z_423 z_424 z_425 z_426 z_427 z_428 z_429 z_430 z_431 z_432 z_433 z_434
 z_435 z_436 z_437 z_438 z_439 z_440 z_441 z_442 z_443 z_444 z_445 z_446 z_447
 z_448 z_449 z_450 z_451 z_452 z_453 z_454 z_455 z_456 z_457 z_458 z_459 z_460
 z_461 z_462 z_463 z_464 z_465 z_466 z_467 z_468 z_469 z_470 z_471 z_472 z_473
 z_474 z_475 z_476 z_477 z_478 z_479 z_480 z_481 z_482 z_483 z_484 z_485 z_486
 z_487 z_488 z_489 z_490 z_491 z_492 z_493 z_494 z_495 z_496 z_497 z_498 z_499
 z_500 z_501 z_502 z_503 z_504 z_505 z_506 z_507 z_508 z_509 z_510 z_511 z_512
 z_513 z_514 z_515 z_516 z_517 z_518 z_519 z_520 z_521 z_522 z_523 z_524 z_525
 z_526 z_527 z_528 z_529 z_530 z_531 z_532 z_533 z_534 z_535 z_536 z_537 z_538
 z_539 z_540 z_541 z_542 z_543 z_544 z_545 z_546 z_547 z_548 z_549 z_550 z_551
 z_552 z_553 z_554 z_555 z_556 z_557 z_558 z_559 z_560 z_561 z_562 z_563 z_564
 z_565 z_566 z_567 z_568 z_569 z_570 z_571 z_572 z_573 z_574 z_575 z_576 z_577
 z_578 z_579 z_580 z_581 z_582 z_583 z_584 z_585 z_586 z_587 z_588 z_589 z_590
 z_591 z_592 z_593 z_594 z_595 z_596 z_597 z_598 z_599 z_600 z_601 z_602 z_603
 z_604 z_605 z_606 z_607 z_608 z_609 z_610 z_611 z_612 z_613 z_614 z_615 z_616
 z_617 z_618 z_619 z_620 z_621 z_622 z_623 z_624 z_625 z_626 z_627 z_628 z_629
 z_630 z_631 z_632 z_633 z_634 z_635 z_636 z_637 z_638 z_639 z_640 z_641 z_642
 z_643 z_644 z_645 z_646 z_647 z_648 z_649 z_650 z_651 z_652 z_653 z_654 z_655
 z_656 z_657 z_658 z_659 z_660 z_661 z_662 z_663 z_664 z_665 z_666 z_667 z_668
 z_669 z_670 z_671 z_672 z_673 z_674 z_675 z_676 z_677 z_678 z_679 z_680 z_681
 z_682 z_683 z_684 z_685 z_686 z_687 z_688 z_689 z_690 z_691 z_692 z_693 z_694
 z_695 z_696 z_697 z_698 z_699 z_700 z_701 z_702 z_703 z_704 z_705 z_706 z_707
 z_708 z_709 z_710 z_711 z_712 z_713 z_714 z_715 z_716 z_717 z_718 z_719 z_720
 z_721 z_722 z_723 z_724 z_725 z_726 z_727 z_728 z_729 z_730 z_731 z_732 z_733
 z_734 z_735 z_736 z_737 z_738 z_739 z_740 z_741 z_742 z_743 z_744 z_745 z_746
 z_747 z_748 z_749 z_750 z_751 z_752 z_753 z_754 z_755 z_756 z_757 z_758 z_759
 z_760 z_761 z_762 z_763 z_764 z_765 z_766 z_767 z_768 z_769 z_770 z_771 z_772
 z_773 z_774 z_775 z_776 z_777 z_778 z_779 z_780 z_781 z_782 z_783 z_784 z_785
 z_786 z_787 z_788 z_789 z_790 z_791 z_792 z_793 z_794 z_795 z_796 z_797 z_798
 z_799 z_800 z_801 z_802 z_803 z_804 z_805 z_806 z_807 z_808 z_809 z_810 z_811
 z_812 z_813 z_814 z_815 z_816 z_817 z_818 z_819 z_820 z_821 z_822 z_823 z_824
 z_825 z_826 z_827 z_828 z_829 z_830 z_831 z_832 z_833 z_834 z_835 z_836 z_837
 z_838 z_839 z_840 z_841 z_842 z_843 z_844 z_845 z_846 z_847 z_848 z_849 z_850
 z_851 z_852 z_853 z_854 z_855 z_856 z_857 z_858 z_859 z_860 z_861 z_862 z_863
 z_864 z_865 z_866 z_867 z_868 z_869 z_870 z_871 z_872 z_873 z_874 z_875 z_876
 z_877 z_878 z_879 z_880 z_881 z_882 z_883 z_884 z_885 z_886 z_887 z_888 z_889
 z_890 z_891 z_892 z_893 z_894 z_895 z_896 z_897 z_898 z_899 z_900 z_901 z_902
 z_903 z_904 z_905 z_906 z_907 z_908 z_909 z_910 z_911 z_912 z_913 z_914 z_915
 z_916 z_917 z_918 z_919 z_920 z_921 z_922 z_923 z_924 z_925 z_926 z_927 z_928
 z_929 z_930 z_931 z_932 z_933 z_934 z_935 z_936 z_937 z_938 z_939 z_940 z_941
 z_942 z_943 z_944 z_945 z_946 z_947 z_948 z_949 z_950 z_951 z_952 z_953 z_954
 z_955 z_956 z_957 z_958 z_959 z_960 z_961 z_962 z_963 z_964 z_965 z_966 z_967
 z_968 z_969 z_970 z_971 z_972 z_973 z_974 z_975 z_976 z_977 z_978 z_979 z_980
 z_981 z_982 z_983 z_984 z_985 z_986 z_987 z_988 z_989 z_990 z_991 z_992 z_993
 z_994 z_995 z_996 z_997 z_998 z_999
End
